 H  O 
 1.0000000000000000
    84.5579400000000021    0.0000000000000000    0.0000000000000000
   -42.2789706095346958   73.2293399455724767    0.0000000000000000
     0.0000000000000000    0.0000000000000000   46.9039550000000034
 H   O  
 180 369
Cartesian
  5.6372241724349186  1.6273023922705114 28.1128704123049964
 16.9115454230351894 35.8010187766509844 28.1128704123049964
 39.4603576090151904 35.8010187766509844 28.1128704123049964
 53.5533757949951976 35.8010187766509844 28.1128704123049964
 -4.2278973183124275 38.2419723650567462 28.1128704123049964
 38.0510301182678390 72.4156887494372228 28.1128704123049964
  1.4093268676675752 38.2419723650567462 28.1128704123049964
  4.2278966816875769 38.2419723650567462 28.1128704123049964
  9.8651208676675761 38.2419723650567462 28.1128704123049964
 23.9580544957075787 38.2419723650567462 28.1128704123049964
 35.2325028676675771 38.2419723650567462 28.1128704123049964
 38.0510726816875717 38.2419723650567462 28.1128704123049964
 40.8696424957075664 38.2419723650567462 28.1128704123049964
 52.1440908676675789 38.2419723650567462 28.1128704123049964
 -16.9115883386306614 40.6829991828024689 28.1128704123049964
 11.2744057949951930 35.8010187766509844 28.1128704123049964
 -11.2744487105906597 40.6829991828024689 28.1128704123049964
 28.1859514753893379 40.6829991828024689 28.1128704123049964
 36.6417454753893352 40.6829991828024689 28.1128704123049964
 50.7347636613693425 40.6829991828024689 28.1128704123049964
  9.8650785480617262 43.1239527712082307 28.1128704123049964
 43.6882545480617210 43.1239527712082307 28.1128704123049964
 52.1440485480617184 43.1239527712082307 28.1128704123049964
 54.9626183620817130 43.1239527712082307 28.1128704123049964
 -22.5488125652458997 45.5649063596139996 28.1128704123049964
 -19.7301581932858987 45.5649063596139996 28.1128704123049964
 11.2743634347540986 45.5649063596139996 28.1128704123049964
 31.0046058067141033 45.5649063596139996 28.1128704123049964
 36.6417454347540925 45.5649063596139996 28.1128704123049964
 45.0975394347540970 45.5649063596139996 28.1128704123049964
 53.5533334347540944 45.5649063596139996 28.1128704123049964
 -8.4557943386306622 40.6829991828024689 28.1128704123049964
 56.3719878067141025 45.5649063596139996 28.1128704123049964
  8.4557514230351885 35.8010187766509844 28.1128704123049964
 63.4184547223228137 33.3600651882452155 28.1128704123049964
 60.5998004722697488 18.7141971991307194 28.1128704123049964
  2.8186119169021282 21.1551507875364884 28.1128704123049964
 42.2789275449421211 21.1551507875364884 28.1128704123049964
 59.1905155449421230 21.1551507875364884 28.1128704123049964
 62.0091699169021311 21.1551507875364884 28.1128704123049964
 67.6463095449421274 21.1551507875364884 28.1128704123049964
  7.0464666176145112 23.5961043759422537 28.1128704123049964
 18.3209149895745149 23.5961043759422537 28.1128704123049964
 23.9580546176145113 23.5961043759422537 28.1128704123049964
 49.3254366176144998 23.5961043759422537 28.1128704123049964
 52.1440909895745008 23.5961043759422537 28.1128704123049964
 -14.0930184027037182 26.0371311936879657 28.1128704123049964
 25.3673817832762829 26.0371311936879657 28.1128704123049964
 56.3719034113162749 26.0371311936879657 28.1128704123049964
 -16.9116305769648072 35.8010187766509844 28.1128704123049964
 64.8276974113162794 26.0371311936879657 28.1128704123049964
 12.6836484839886605 28.4780847820937346 28.1128704123049964
 18.3208726699686650 28.4780847820937346 28.1128704123049964
 29.5952364839886641 28.4780847820937346 28.1128704123049964
 43.6882546699686571 28.4780847820937346 28.1128704123049964
 46.5068244839886518 28.4780847820937346 28.1128704123049964
 66.2370668559486688 28.4780847820937346 28.1128704123049964
 -2.8185700713789608 30.9190383704995000 28.1128704123049964
  5.6372239286210437 30.9190383704995000 28.1128704123049964
 22.5488119286210420 30.9190383704995000 28.1128704123049964
 31.0046059286210465 30.9190383704995000 28.1128704123049964
 39.4603999286210438 30.9190383704995000 28.1128704123049964
 64.8277819286210502 30.9190383704995000 28.1128704123049964
 57.7812305363428109 33.3600651882452155 28.1128704123049964
 60.5998003503628055 33.3600651882452155 28.1128704123049964
  7.0465088559486642 28.4780847820937346 28.1128704123049964
 43.6882124722697469 18.7141971991307194 28.1128704123049964
 -15.5023457715441282 48.0059331773597151 28.1128704123049964
 12.6836906004158720 48.0059331773597151 28.1128704123049964
 40.8696422925289298 62.6518011664742076 28.1128704123049964
 -33.8232188207786848 65.0927547548799765 28.1128704123049964
 -28.1859946347986892 65.0927547548799765 28.1128704123049964
 -14.0929764488186855 65.0927547548799765 28.1128704123049964
 25.3673391792213039 65.0927547548799765 28.1128704123049964
 28.1859935511813049 65.0927547548799765 28.1128704123049964
 39.4603573652013111 65.0927547548799765 28.1128704123049964
 45.0975815511813138 65.0927547548799765 28.1128704123049964
 -21.1394855621263069 67.5337083432857384 28.1128704123049964
 -12.6836915621263024 67.5337083432857384 28.1128704123049964
 12.6836904378736932 67.5337083432857384 28.1128704123049964
 26.7767086238536862 67.5337083432857384 28.1128704123049964
 35.2325026238536978 67.5337083432857384 28.1128704123049964
 38.0510724378736924 67.5337083432857384 28.1128704123049964
 21.1394844785089369 62.6518011664742076 28.1128704123049964
 -39.4604007684245346 69.9747351610314468 28.1128704123049964
 -16.9115885824445336 69.9747351610314468 28.1128704123049964
 -8.4557945824445344 69.9747351610314468 28.1128704123049964
 39.4603150455954648 69.9747351610314468 28.1128704123049964
 -40.8696856957521533 72.4156887494372228 28.1128704123049964
 -38.0511158817321586 72.4156887494372228 28.1128704123049964
 -32.4138916957521559 72.4156887494372228 28.1128704123049964
 -29.5953218817321577 72.4156887494372228 28.1128704123049964
 -21.1395278817321568 72.4156887494372228 28.1128704123049964
 -12.6837338817321594 72.4156887494372228 28.1128704123049964
 15.5023024902278443 72.4156887494372228 28.1128704123049964
 18.3208723042478390 72.4156887494372228 28.1128704123049964
 21.1394421182678336 72.4156887494372228 28.1128704123049964
 29.5952361182678381 72.4156887494372228 28.1128704123049964
 32.4138904902278497 72.4156887494372228 28.1128704123049964
 -33.8231765824445318 69.9747351610314468 28.1128704123049964
 -4.2278973995841262 48.0059331773597151 28.1128704123049964
 15.5022602925289341 62.6518011664742076 28.1128704123049964
 -15.5023458934510643 62.6518011664742076 28.1128704123049964
 18.3208302284558755 48.0059331773597151 28.1128704123049964
 26.7766242284558658 48.0059331773597151 28.1128704123049964
  5.6371814871082586 50.4468867657654769 28.1128704123049964
  8.4557513011282524 50.4468867657654769 28.1128704123049964
 11.2744056730882534 50.4468867657654769 28.1128704123049964
 14.0929754871082551 50.4468867657654769 28.1128704123049964
 31.0045634871082498 50.4468867657654769 28.1128704123049964
  9.8651207457606311 52.8878403541712458 28.1128704123049964
 35.2325027457606268 52.8878403541712458 28.1128704123049964
 49.3254363738006276 52.8878403541712458 28.1128704123049964
 -25.3673824605375984 55.3288671719169614 28.1128704123049964
 -11.2744488324975958 55.3288671719169614 28.1128704123049964
 -2.8186548324975988 55.3288671719169614 28.1128704123049964
 14.0929331675024070 55.3288671719169614 28.1128704123049964
  9.8650361065489385 62.6518011664742076 28.1128704123049964
 16.9115875394624062 55.3288671719169614 28.1128704123049964
 31.0045211675023928 55.3288671719169614 28.1128704123049964
 -32.4138915738452127 57.7698207603227232 28.1128704123049964
 -23.9580975738452153 57.7698207603227232 28.1128704123049964
  1.4092844261547897 57.7698207603227232 28.1128704123049964
  4.2278542401747847 57.7698207603227232 28.1128704123049964
 15.5023026121347893 57.7698207603227232 28.1128704123049964
 23.9580966121347885 57.7698207603227232 28.1128704123049964
 32.4138906121347787 57.7698207603227232 28.1128704123049964
 38.0510302401747822 57.7698207603227232 28.1128704123049964
 -33.8231765011728385 60.2107743487284921 28.1128704123049964
 -28.1859523151928357 60.2107743487284921 28.1128704123049964
 -5.6372246871528393 60.2107743487284921 28.1128704123049964
 39.4603996848071645 60.2107743487284921 28.1128704123049964
 -21.1394855214910677 62.6518011664742076 28.1128704123049964
 25.3673815394624036 55.3288671719169614 28.1128704123049964
 21.1394848442297523 18.7141971991307194 28.1128704123049964
 40.8696844902278471 72.4156887494372228 28.1128704123049964
 67.6463096668490635  6.5092827984219914 28.1128704123049964
 64.8277820505279863 16.2731703813850075 28.1128704123049964
  9.8651211114814483  8.9502363868277595 28.1128704123049964
  7.0465089778555976 13.8322167929792403 28.1128704123049964
 38.0510306058956047 13.8322167929792403 28.1128704123049964
 28.1859940388090742  6.5092827984219914 28.1128704123049964
 -4.2279393941043990 13.8322167929792403 28.1128704123049964
  1.4093271114814494  8.9502363868277595 28.1128704123049964
 56.3719880505279747 16.2731703813850075 28.1128704123049964
 11.2743636785679815 16.2731703813850075 28.1128704123049964
 74.6928609778556023 13.8322167929792403 28.1128704123049964
 12.6836909661366875  4.0683292100162243 28.1128704123049964
 66.2370669778556049 13.8322167929792403 28.1128704123049964
 14.0929335332232206 11.3912632045734714 28.1128704123049964
 73.2834915332232129 11.3912632045734714 28.1128704123049964
 45.0975396785679763 16.2731703813850075 28.1128704123049964
 42.2789698645479817 16.2731703813850075 28.1128704123049964
 69.0556367918755996 13.8322167929792403 28.1128704123049964
 36.6417456785679860 16.2731703813850075 28.1128704123049964
 31.0046060505279790 16.2731703813850075 28.1128704123049964
  4.2278969661366892  4.0683292100162243 28.1128704123049964
 71.8742066058955942 13.8322167929792403 28.1128704123049964
 67.6463519864549170  1.6273023922705114 28.1128704123049964
 16.9115879051832216 11.3912632045734714 28.1128704123049964
 16.9115456668490722  6.5092827984219914 28.1128704123049964
 53.5533338004749169  1.6273023922705114 28.1128704123049964
 -0.0000423331509293  6.5092827984219914 28.1128704123049964
 73.2835338528290663  6.5092827984219914 28.1128704123049964
 31.0046061724349222  1.6273023922705114 28.1128704123049964
 40.8696427395214528  8.9502363868277595 28.1128704123049964
 57.7812729778555934 13.8322167929792403 28.1128704123049964
 -7.0465515277302488 18.7141971991307194 28.1128704123049964
 35.2324185941766927  4.0683292100162243 28.1128704123049964
 23.9580547801566937  4.0683292100162243 28.1128704123049964
 67.6463518645479809 16.2731703813850075 28.1128704123049964
 -9.8651213417502497 18.7141971991307194 28.1128704123049964
 53.5533760388090698  6.5092827984219914 28.1128704123049964
 25.3673819051832226 11.3912632045734714 28.1128704123049964
 15.5023029778556030 13.8322167929792403 28.1128704123049964
 69.0556791114814530  8.9502363868277595 28.1128704123049964
 21.1394849255014528  8.9502363868277595 28.1128704123049964
 18.3209151114814510  8.9502363868277595 28.1128704123049964
  2.8186120388090696  6.5092827984219914 28.1128704123049964
  7.0464667801566900  4.0683292100162243 28.1128704123049964
 40.8696427666115980  5.6956316022867357 28.6327538495249954
 40.8697269181955534 54.5151427464417537 28.6327538495249954
 43.6882967322155622 54.5151427464417537 28.6327538495249954
 52.1440907322155596 54.5151427464417537 28.6327538495249954
 43.6882971385716132  5.6956316022867357 28.6327538495249954
 63.4184549525916097  5.6956316022867357 28.6327538495249954
 21.1394845462355612 54.5151427464417537 28.6327538495249954
 18.3209147322155452 54.5151427464417537 28.6327538495249954
 11.2744482229629011 17.9004727736555189 28.6327538495249954
 -16.9115884740826736 56.9561695641874692 28.6327538495249954
 12.6837327845697061 59.3971231525932382 28.6327538495249954
  9.8650784126096909 59.3971231525932382 28.6327538495249954
 -1.4092854014103018 59.3971231525932382 28.6327538495249954
 -7.0465095873903012 59.3971231525932382 28.6327538495249954
 -12.6836492154302967 59.3971231525932382 28.6327538495249954
 -15.5023035873902977 59.3971231525932382 28.6327538495249954
 -21.1394432154303011 59.3971231525932382 28.6327538495249954
 -29.5952372154302985 59.3971231525932382 28.6327538495249954
 -19.7301582881026789 56.9561695641874692 28.6327538495249954
 12.6836909525916113  5.6956316022867357 28.6327538495249954
 42.2789695259173328 56.9561695641874692 28.6327538495249954
 33.8231755259173212 56.9561695641874692 28.6327538495249954
 26.7767091385716043  5.6956316022867357 28.6327538495249954
 22.5488117118973186 56.9561695641874692 28.6327538495249954
 29.5952789525916060  5.6956316022867357 28.6327538495249954
 32.4138487666116077  5.6956316022867357 28.6327538495249954
 38.0510729525916105  5.6956316022867357 28.6327538495249954
 -8.4557944740826727 56.9561695641874692 28.6327538495249954
 47.9161937118973214 56.9561695641874692 28.6327538495249954
 19.7301573399373318 56.9561695641874692 28.6327538495249954
 53.5533756595431782 52.0741891580359919 28.6327538495249954
 12.6836905462355407 54.5151427464417537 28.6327538495249954
 46.5068665868708067 49.6332355696302230 28.6327538495249954
 40.8696424008908039 49.6332355696302230 28.6327538495249954
 29.5952785868707942 49.6332355696302230 28.6327538495249954
 14.0929758392839890  8.1365851906925037 28.6327538495249954
 25.3674242112439856  8.1365851906925037 28.6327538495249954
  1.4093267728507877 49.6332355696302230 28.6327538495249954
 -1.4093275991092098 49.6332355696302230 28.6327538495249954
 -4.2278974131292042 49.6332355696302230 28.6327538495249954
 -9.8651215991092069 49.6332355696302230 28.6327538495249954
 -12.6836914131292051 49.6332355696302230 28.6327538495249954
 -18.3209155991092061 49.6332355696302230 28.6327538495249954
 -23.9580552271492060 49.6332355696302230 28.6327538495249954
 -26.7767095991092070 49.6332355696302230 28.6327538495249954
 47.9161937931690360 47.1922087518845075 28.6327538495249954
 45.0976239791490272 47.1922087518845075 28.6327538495249954
 42.2789696071890333 47.1922087518845075 28.6327538495249954
 31.0046057931690235 47.1922087518845075 28.6327538495249954
 28.1859940252639873  8.1365851906925037 28.6327538495249954
 22.5488117931690120 47.1922087518845075 28.6327538495249954
 52.1440907728507952 49.6332355696302230 28.6327538495249954
 69.0556791385716195  5.6956316022867357 28.6327538495249954
 -25.3673401544768282 52.0741891580359919 28.6327538495249954
 -16.9115461544768308 52.0741891580359919 28.6327538495249954
  7.0465509181955595 54.5151427464417537 28.6327538495249954
  1.4093267322155492 54.5151427464417537 28.6327538495249954
 -7.0464672677844442 54.5151427464417537 28.6327538495249954
 80.3300429525916257  5.6956316022867357 28.6327538495249954
 -21.1394854537644470 54.5151427464417537 28.6327538495249954
 -2.8186121607160102  8.1365851906925037 28.6327538495249954
 -29.5952794537644479 54.5151427464417537 28.6327538495249954
 45.0975816595431809 52.0741891580359919 28.6327538495249954
 39.4603574735631781 52.0741891580359919 28.6327538495249954
  5.6371818392839907  8.1365851906925037 28.6327538495249954
 31.0045634735631737 52.0741891580359919 28.6327538495249954
 25.3674238455231631 52.0741891580359919 28.6327538495249954
 22.5487694735631763 52.0741891580359919 28.6327538495249954
 16.9116298455231728 52.0741891580359919 28.6327538495249954
  8.4558362112439873  8.1365851906925037 28.6327538495249954
  5.6371814735631682 52.0741891580359919 28.6327538495249954
  2.8186116595431669 52.0741891580359919 28.6327538495249954
 -8.4557521544768282 52.0741891580359919 28.6327538495249954
 -14.0929763404568273 52.0741891580359919 28.6327538495249954
 -22.5487703404568300 52.0741891580359919 28.6327538495249954
 18.3208724126097096 59.3971231525932382 28.6327538495249954
 -11.2743643287379136 61.8380767409990000 28.6327538495249954
 35.2324604126097114 59.3971231525932382 28.6327538495249954
 -9.8650372037113900 69.1610107355562462 28.6327538495249954
 -15.5022613896913821 69.1610107355562462 28.6327538495249954
 77.5114309002374711  0.8136511961352557 28.6327538495249954
 -18.3208312037113821 69.1610107355562462 28.6327538495249954
 -23.9580553896913813 69.1610107355562462 28.6327538495249954
 -29.5952795756713840 69.1610107355562462 28.6327538495249954
 80.3300852721974650  0.8136511961352557 28.6327538495249954
 -35.2324192037113804 69.1610107355562462 28.6327538495249954
 83.1486550862174738  0.8136511961352557 28.6327538495249954
 69.0556369002374737  0.8136511961352557 28.6327538495249954
 45.0975815376362448 66.7200571471504844 28.6327538495249954
 33.8232177236162386 66.7200571471504844 28.6327538495249954
 31.0045633516562411 66.7200571471504844 28.6327538495249954
 19.7301995376362349 66.7200571471504844 28.6327538495249954
 16.9116297236162261 66.7200571471504844 28.6327538495249954
  8.4558357236162376 66.7200571471504844 28.6327538495249954
  2.8186115376362340 66.7200571471504844 28.6327538495249954
  0.0000417236162395 66.7200571471504844 28.6327538495249954
 -2.8186126483437688 66.7200571471504844 28.6327538495249954
 -5.6371824623637705 66.7200571471504844 28.6327538495249954
 -0.0000000270901599  3.2546047845410229 28.6327538495249954
 -4.2278975756713866 69.1610107355562462 28.6327538495249954
 -1.4092432037113782 69.1610107355562462 28.6327538495249954
  1.4093266103086164 69.1610107355562462 28.6327538495249954
 36.6417452180303869 71.6020375533019688 28.6327538495249954
  9.8650789002374601  0.8136511961352557 28.6327538495249954
 15.5023030862174611  0.8136511961352557 28.6327538495249954
 25.3673814040103807 71.6020375533019688 28.6327538495249954
 18.3208729002374611  0.8136511961352557 28.6327538495249954
 35.2324609002374558  0.8136511961352557 28.6327538495249954
 11.2743632180303894 71.6020375533019688 28.6327538495249954
  8.4557934040103735 71.6020375533019688 28.6327538495249954
 -2.8185704100096114 71.6020375533019688 28.6327538495249954
 -5.6372247819696195 71.6020375533019688 28.6327538495249954
 38.0511152721974639  0.8136511961352557 28.6327538495249954
 -14.0930187819696204 71.6020375533019688 28.6327538495249954
 -19.7301584100096186 71.6020375533019688 28.6327538495249954
 43.6882549002374461  0.8136511961352557 28.6327538495249954
 -22.5488127819696196 71.6020375533019688 28.6327538495249954
 -25.3673825959896213 71.6020375533019688 28.6327538495249954
 46.5069092721974613  0.8136511961352557 28.6327538495249954
 52.1440489002374647  0.8136511961352557 28.6327538495249954
 -36.6417464100096169 71.6020375533019688 28.6327538495249954
 54.9627032721974516  0.8136511961352557 28.6327538495249954
 21.1394844243286215 69.1610107355562462 28.6327538495249954
 16.9115879729098388  3.2546047845410229 28.6327538495249954
 29.5953207845697079 59.3971231525932382 28.6327538495249954
 -19.7302006483437680 66.7200571471504844 28.6327538495249954
 -22.5487704623637697 66.7200571471504844 28.6327538495249954
 33.8231754852820927 61.8380767409990000 28.6327538495249954
 31.0046056712620839 61.8380767409990000 28.6327538495249954
 28.1860358572420893 61.8380767409990000 28.6327538495249954
 64.8277821588898462  3.2546047845410229 28.6327538495249954
 70.4650063448698489  3.2546047845410229 28.6327538495249954
 11.2744478572420874 61.8380767409990000 28.6327538495249954
 73.2835761588898578  3.2546047845410229 28.6327538495249954
  8.4557934852820722 61.8380767409990000 28.6327538495249954
  5.6372236712620847 61.8380767409990000 28.6327538495249954
 36.6418298572420866 61.8380767409990000 28.6327538495249954
  2.8186538572420905 61.8380767409990000 28.6327538495249954
 31.0045638392839891  8.1365851906925037 28.6327538495249954
 76.1021459729098524  3.2546047845410229 28.6327538495249954
 -16.9115885147179164 61.8380767409990000 28.6327538495249954
 78.9208003448698463  3.2546047845410229 28.6327538495249954
 -25.3673825147179137 61.8380767409990000 28.6327538495249954
 -28.1859523287379155 61.8380767409990000 28.6327538495249954
 -31.0045221427579136 61.8380767409990000 28.6327538495249954
 43.6882544126097088 59.3971231525932382 28.6327538495249954
 81.7393701588898551  3.2546047845410229 28.6327538495249954
 -0.0000005147179177 61.8380767409990000 28.6327538495249954
 62.0092123448698445  3.2546047845410229 28.6327538495249954
 42.2789694852820901 61.8380767409990000 28.6327538495249954
 45.0976238572420840 61.8380767409990000 28.6327538495249954
 -33.8231342763837688 66.7200571471504844 28.6327538495249954
 35.2325026509438644 64.2791035587447084 28.6327538495249954
 32.4138482789838704 64.2791035587447084 28.6327538495249954
 29.5952784649638616 64.2791035587447084 28.6327538495249954
 39.4604001588898399  3.2546047845410229 28.6327538495249954
 47.9161941588898301  3.2546047845410229 28.6327538495249954
 23.9580542789838589 64.2791035587447084 28.6327538495249954
 21.1394844649638500 64.2791035587447084 28.6327538495249954
  9.8651206509438563 64.2791035587447084 28.6327538495249954
  7.0464662789838490 64.2791035587447084 28.6327538495249954
  4.2278964649638544 64.2791035587447084 28.6327538495249954
 -4.2278975350361501 64.2791035587447084 28.6327538495249954
 -7.0464673490561447 64.2791035587447084 28.6327538495249954
 -9.8651217210161430 64.2791035587447084 28.6327538495249954
 50.7347639729098461  3.2546047845410229 28.6327538495249954
 -18.3209157210161457 64.2791035587447084 28.6327538495249954
 56.3719881588898417  3.2546047845410229 28.6327538495249954
 -32.4138493490561430 64.2791035587447084 28.6327538495249954
 59.1905579729098434  3.2546047845410229 28.6327538495249954
 -35.2325037210161440 64.2791035587447084 28.6327538495249954
 47.9161936712620928 61.8380767409990000 28.6327538495249954
 19.7302423448698399  3.2546047845410229 28.6327538495249954
 16.9115876071890092 47.1922087518845075 28.6327538495249954
 45.0975820252639821  8.1365851906925037 28.6327538495249954
  8.4557936071890190 47.1922087518845075 28.6327538495249954
 -15.5023033435764184 30.1053871743642461 28.6327538495249954
 -4.2278548497094786 15.4595191852497500 28.6327538495249954
 59.1905577697312140 27.6644335859584807 28.6327538495249954
 56.3719879557112051 27.6644335859584807 28.6327538495249954
 -1.4092850356894804 15.4595191852497500 28.6327538495249954
  1.4092847783305213 15.4595191852497500 28.6327538495249954
 33.8231757697311934 27.6644335859584807 28.6327538495249954
 12.6837331502905215 15.4595191852497500 28.6327538495249954
 18.3208727783305179 15.4595191852497500 28.6327538495249954
 -4.2278549716164209 30.1053871743642461 28.6327538495249954
  8.4557937697312031 27.6644335859584807 28.6327538495249954
 -0.0000002302687971 27.6644335859584807 28.6327538495249954
 -2.8185700442888009 27.6644335859584807 28.6327538495249954
 -5.6372244162487979 27.6644335859584807 28.6327538495249954
 -8.4557942302688005 27.6644335859584807 28.6327538495249954
 23.9580969643105171 15.4595191852497500 28.6327538495249954
 63.4184547900494380 25.2234067682127652 28.6327538495249954
 60.5998849760294434 25.2234067682127652 28.6327538495249954
 57.7813151620094345 25.2234067682127652 28.6327538495249954
 26.7766667783305188 15.4595191852497500 28.6327538495249954
 21.1395271502905153 15.4595191852497500 28.6327538495249954
 43.6882969760294344 25.2234067682127652 28.6327538495249954
 -7.0465092216694787 15.4595191852497500 28.6327538495249954
  1.4092846564235810 30.1053871743642461 28.6327538495249954
 39.4603999150759606 32.5463407627700150 28.6327538495249954
 25.3673817290959498 32.5463407627700150 28.6327538495249954
 22.5488119150759623 32.5463407627700150 28.6327538495249954
 16.9115877290959595 32.5463407627700150 28.6327538495249954
 11.2744481010559561 32.5463407627700150 28.6327538495249954
 -0.0000002709040391 32.5463407627700150 28.6327538495249954
 -2.8185700849240374 32.5463407627700150 28.6327538495249954
 -8.4557942709040379 32.5463407627700150 28.6327538495249954
 -11.2743640849240396 32.5463407627700150 28.6327538495249954
 -1.4092851575964171 30.1053871743642461 28.6327538495249954
 -14.0929338989440378 32.5463407627700150 28.6327538495249954
 62.0091277056581518 13.0185655968439828 28.6327538495249954
 60.5998426564235899 30.1053871743642461 28.6327538495249954
 54.9627030283835865 30.1053871743642461 28.6327538495249954
 52.1440486564235925 30.1053871743642461 28.6327538495249954
 49.3254788424035837 30.1053871743642461 28.6327538495249954
 35.2324606564235907 30.1053871743642461 28.6327538495249954
 26.7766666564235685 30.1053871743642461 28.6327538495249954
 21.1395270283835863 30.1053871743642461 28.6327538495249954
 18.3208726564235782 30.1053871743642461 28.6327538495249954
 -16.9115882709040370 32.5463407627700150 28.6327538495249954
 38.0510727900494388 25.2234067682127652 28.6327538495249954
 32.4139331620094353 25.2234067682127652 28.6327538495249954
 29.5952787900494201 25.2234067682127652 28.6327538495249954
 35.2325030166646727 20.3414995914012344 28.6327538495249954
 32.4138486447046574 20.3414995914012344 28.6327538495249954
 26.7767090166646753 20.3414995914012344 28.6327538495249954
 23.9580546447046672 20.3414995914012344 28.6327538495249954
 21.1394848306846654 20.3414995914012344 28.6327538495249954
 15.5022606447046662 20.3414995914012344 28.6327538495249954
 12.6836908306846716 20.3414995914012344 28.6327538495249954
  9.8651210166646699 20.3414995914012344 28.6327538495249954
  7.0464666447046698 20.3414995914012344 28.6327538495249954
 38.0510728306846602 20.3414995914012344 28.6327538495249954
 73.2835760369829075 17.9004727736555189 28.6327538495249954
 62.0092122229629013 17.9004727736555189 28.6327538495249954
 50.7347638510029029 17.9004727736555189 28.6327538495249954
 47.9161940369829011 17.9004727736555189 28.6327538495249954
 -2.8185699630171004 17.9004727736555189 28.6327538495249954
 39.4604000369828896 17.9004727736555189 28.6327538495249954
 33.8231758510028868 17.9004727736555189 28.6327538495249954
 25.3673818510029001 17.9004727736555189 28.6327538495249954
 22.5488120369828984 17.9004727736555189 28.6327538495249954
 -0.0000001489970986 17.9004727736555189 28.6327538495249954
 70.4650062229628986 17.9004727736555189 28.6327538495249954
 46.5068668306846718 20.3414995914012344 28.6327538495249954
 49.3254366447046735 20.3414995914012344 28.6327538495249954
 52.1440910166646745 20.3414995914012344 28.6327538495249954
 21.1394847900494298 25.2234067682127652 28.6327538495249954
 15.5023451620094264 25.2234067682127652 28.6327538495249954
 12.6836907900494289 25.2234067682127652 28.6327538495249954
  9.8651209760294343 25.2234067682127652 28.6327538495249954
  4.2278967900494315 25.2234067682127652 28.6327538495249954
 -1.4092428379905699 25.2234067682127652 28.6327538495249954
 -4.2278972099505676 25.2234067682127652 28.6327538495249954
 70.4649639033570594 22.7824531798069998 28.6327538495249954
 36.6417879033570415 22.7824531798069998 28.6327538495249954
 33.8232180893370540 22.7824531798069998 28.6327538495249954
 31.0045637173770388 22.7824531798069998 28.6327538495249954
 46.5069091502905181 15.4595191852497500 28.6327538495249954
 52.1440487783305286 15.4595191852497500 28.6327538495249954
 11.2744059033570529 22.7824531798069998 28.6327538495249954
  8.4558360893370512 22.7824531798069998 28.6327538495249954
 -8.4557519106629488 22.7824531798069998 28.6327538495249954
 -11.2744062826229499 22.7824531798069998 28.6327538495249954
 71.8742488306846781 20.3414995914012344 28.6327538495249954
 69.0556790166646692 20.3414995914012344 28.6327538495249954
 57.7812729643105243 15.4595191852497500 28.6327538495249954
 60.5998427783305331 15.4595191852497500 28.6327538495249954
 42.2789697290959623 32.5463407627700150 28.6327538495249954
 45.0976241010559633 32.5463407627700150 28.6327538495249954
 47.9161939150759579 32.5463407627700150 28.6327538495249954
 50.7347637290959668 32.5463407627700150 28.6327538495249954
 78.9207580252639929  8.1365851906925037 28.6327538495249954
 -1.4092427160836287 10.5775387790982709 28.6327538495249954
 59.1905576478242708 42.3103015750729767 28.6327538495249954
 56.3719878338042619 42.3103015750729767 28.6327538495249954
  1.4093270979363695 10.5775387790982709 28.6327538495249954
  4.2278969119563712 10.5775387790982709 28.6327538495249954
 39.4603998338042672 42.3103015750729767 28.6327538495249954
 33.8231756478242644 42.3103015750729767 28.6327538495249954
 25.3673816478242529 42.3103015750729767 28.6327538495249954
 -15.5023034654833562 44.7512551634787386 28.6327538495249954
 19.7301574618442501 42.3103015750729767 28.6327538495249954
 14.0930178338042680 42.3103015750729767 28.6327538495249954
  5.6372238338042564 42.3103015750729767 28.6327538495249954
 -0.0000003521757358 42.3103015750729767 28.6327538495249954
 -2.8185701661957374 42.3103015750729767 28.6327538495249954
 -5.6372245381557384 42.3103015750729767 28.6327538495249954
 -22.5488125381557367 42.3103015750729767 28.6327538495249954
 60.5998848541225001 39.8692747573272612 28.6327538495249954
 57.7813150401024913 39.8692747573272612 28.6327538495249954
 54.9626606681424974 39.8692747573272612 28.6327538495249954
 16.9115876478242626 42.3103015750729767 28.6327538495249954
 -12.6836490935233588 44.7512551634787386 28.6327538495249954
 -7.0465094654833562 44.7512551634787386 28.6327538495249954
 -4.2278550935233552 44.7512551634787386 28.6327538495249954
  5.6372237931690181 47.1922087518845075 28.6327538495249954
  2.8186539791490159 47.1922087518845075 28.6327538495249954
 -0.0000003928109814 47.1922087518845075 28.6327538495249954
 -2.8185702068309761 47.1922087518845075 28.6327538495249954
 39.4603578392839793  8.1365851906925037 28.6327538495249954
 -14.0929340208509810 47.1922087518845075 28.6327538495249954
 -16.9115883928109767 47.1922087518845075 28.6327538495249954
 -25.3673823928109776 47.1922087518845075 28.6327538495249954
 57.7812727204966521 44.7512551634787386 28.6327538495249954
  8.4557938510029000 17.9004727736555189 28.6327538495249954
 59.1906002112439964  8.1365851906925037 28.6327538495249954
 46.5069089064766459 44.7512551634787386 28.6327538495249954
 62.0091700252639910  8.1365851906925037 28.6327538495249954
 64.8277398392839928  8.1365851906925037 28.6327538495249954
 26.7766665345166501 44.7512551634787386 28.6327538495249954
 21.1395269064766467 44.7512551634787386 28.6327538495249954
 15.5023027204966439 44.7512551634787386 28.6327538495249954
 73.2835338392839901  8.1365851906925037 28.6327538495249954
  4.2279389064766386 44.7512551634787386 28.6327538495249954
  1.4092845345166412 44.7512551634787386 28.6327538495249954
 -1.4092852795033535 44.7512551634787386 28.6327538495249954
 46.5068666681425000 39.8692747573272612 28.6327538495249954
 36.6417880252639918  8.1365851906925037 28.6327538495249954
 29.5952789119563668 10.5775387790982709 28.6327538495249954
 32.4139330401024850 39.8692747573272612 28.6327538495249954
 -14.0929762185498877 37.4283211689214923 28.6327538495249954
 -19.7302004045298887 37.4283211689214923 28.6327538495249954
 49.3254365227977445 34.9873675805157234 28.6327538495249954
 46.5068667087777357 34.9873675805157234 28.6327538495249954
 43.6882968947577410 34.9873675805157234 28.6327538495249954
 22.5488120776181340 13.0185655968439828 28.6327538495249954
 38.0510727087777383 34.9873675805157234 28.6327538495249954
 35.2325028947577295 34.9873675805157234 28.6327538495249954
 29.5952787087777267 34.9873675805157234 28.6327538495249954
 -11.2744064045298860 37.4283211689214923 28.6327538495249954
 26.7767088947577392 34.9873675805157234 28.6327538495249954
 31.0046060776181456 13.0185655968439828 28.6327538495249954
  7.0464665227977319 34.9873675805157234 28.6327538495249954
  1.4093268947577322 34.9873675805157234 28.6327538495249954
 -9.8651214772022673 34.9873675805157234 28.6327538495249954
 -12.6836912912222672 34.9873675805157234 28.6327538495249954
 -15.5022611052422672 34.9873675805157234 28.6327538495249954
 42.2789698916381340 13.0185655968439828 28.6327538495249954
 45.0975397056581500 13.0185655968439828 28.6327538495249954
 50.7347638916381456 13.0185655968439828 28.6327538495249954
 28.1859517056581375 13.0185655968439828 28.6327538495249954
 -8.4557520325698885 37.4283211689214923 28.6327538495249954
 11.2743637056581409 13.0185655968439828 28.6327538495249954
  5.6372240776181393 13.0185655968439828 28.6327538495249954
 32.4139332839163785 10.5775387790982709 28.6327538495249954
 21.1394846681424795 39.8692747573272612 28.6327538495249954
 18.3209148541224920 39.8692747573272612 28.6327538495249954
 15.5023450401024956 39.8692747573272612 28.6327538495249954
 12.6836906681424875 39.8692747573272612 28.6327538495249954
 46.5068669119563793 10.5775387790982709 28.6327538495249954
 49.3255212839163661 10.5775387790982709 28.6327538495249954
 54.9626609119563767 10.5775387790982709 28.6327538495249954
 62.0091697814501188 37.4283211689214923 28.6327538495249954
 59.1905999674301100 37.4283211689214923 28.6327538495249954
 56.3719455954701161 37.4283211689214923 28.6327538495249954
 57.7813152839163777 10.5775387790982709 28.6327538495249954
 47.9161515954701187 37.4283211689214923 28.6327538495249954
 45.0975817814501099 37.4283211689214923 28.6327538495249954
 63.4184549119563812 10.5775387790982709 28.6327538495249954
 77.5114730979363742 10.5775387790982709 28.6327538495249954
 33.8232179674301037 37.4283211689214923 28.6327538495249954
 -5.6372242943418591 13.0185655968439828 28.6327538495249954
 19.7301997814501142 37.4283211689214923 28.6327538495249954
 14.0929755954701115 37.4283211689214923 28.6327538495249954
 -0.0000001083618602 13.0185655968439828 28.6327538495249954
 35.2325028541224938 39.8692747573272612 28.6327538495249954
  0.0000419674301133 37.4283211689214923 28.6327538495249954
