 H  O 
 1.0000000000000000
    84.5579400000000021    0.0000000000000000    0.0000000000000000
   -42.2789706095346958   73.2293399455724767    0.0000000000000000
     0.0000000000000000    0.0000000000000000   46.9039550000000034
 H   O  
 314 251
Cartesian
 -0.0000000135450799  1.6273023922705114 28.1128704123049964
 29.5952787223228171 33.3600651882452155 28.1128704123049964
  9.8650784261547866 57.7698207603227232 28.1128704123049964
 12.6836907223228135 33.3600651882452155 28.1128704123049964
 15.5023026121347893 57.7698207603227232 28.1128704123049964
 21.1394422401747804 57.7698207603227232 28.1128704123049964
 -7.0465516496371885 33.3600651882452155 28.1128704123049964
 -9.8651214636571893 33.3600651882452155 28.1128704123049964
 -12.6836912776771893 33.3600651882452155 28.1128704123049964
 32.4138485363428117 33.3600651882452155 28.1128704123049964
 23.9580966121347885 57.7698207603227232 28.1128704123049964
 43.6882544261547849 57.7698207603227232 28.1128704123049964
 59.1905577426410403 30.9190383704995000 28.1128704123049964
 50.7347637426410429 30.9190383704995000 28.1128704123049964
 -28.1859523151928357 60.2107743487284921 28.1128704123049964
 45.0975395566610331 30.9190383704995000 28.1128704123049964
 39.4603999286210438 30.9190383704995000 28.1128704123049964
 33.8231757426410411 30.9190383704995000 28.1128704123049964
 31.0046059286210465 30.9190383704995000 28.1128704123049964
 38.0510302401747822 57.7698207603227232 28.1128704123049964
 28.1859515566610455 30.9190383704995000 28.1128704123049964
  4.2278542401747847 57.7698207603227232 28.1128704123049964
 -1.4092853878652121 57.7698207603227232 28.1128704123049964
 28.1859513534823982 55.3288671719169614 28.1128704123049964
 33.8231334230351877 35.8010187766509844 28.1128704123049964
 31.0045211675023928 55.3288671719169614 28.1128704123049964
 36.6417453534824062 55.3288671719169614 28.1128704123049964
 39.4603151675024009 55.3288671719169614 28.1128704123049964
 47.9161091675023982 55.3288671719169614 28.1128704123049964
 14.0929756090151947 35.8010187766509844 28.1128704123049964
 11.2744057949951930 35.8010187766509844 28.1128704123049964
 35.2324183503628063 33.3600651882452155 28.1128704123049964
 -32.4138915738452127 57.7698207603227232 28.1128704123049964
 -0.0000425769648080 35.8010187766509844 28.1128704123049964
 -21.1395277598252136 57.7698207603227232 28.1128704123049964
 -8.4558365769648098 35.8010187766509844 28.1128704123049964
 -18.3208733878652161 57.7698207603227232 28.1128704123049964
 -11.2744063909848098 35.8010187766509844 28.1128704123049964
 -14.0929762050048097 35.8010187766509844 28.1128704123049964
 54.9626607223228163 33.3600651882452155 28.1128704123049964
 -4.2279397598252162 57.7698207603227232 28.1128704123049964
  2.8186117949951930 35.8010187766509844 28.1128704123049964
 -19.7301583151928384 60.2107743487284921 28.1128704123049964
 -11.2743643151928357 60.2107743487284921 28.1128704123049964
 -8.4557945011728339 60.2107743487284921 28.1128704123049964
 -23.9581398934510652 62.6518011664742076 28.1128704123049964
 45.0975395972962758 26.0371311936879657 28.1128704123049964
 -11.2744065128917477 50.4468867657654769 28.1128704123049964
 33.8231757832762838 26.0371311936879657 28.1128704123049964
 -15.5023458934510643 62.6518011664742076 28.1128704123049964
 25.3673817832762829 26.0371311936879657 28.1128704123049964
 22.5487274113162819 26.0371311936879657 28.1128704123049964
 19.7301575972962873 26.0371311936879657 28.1128704123049964
 56.3719034113162749 26.0371311936879657 28.1128704123049964
 16.9115877832762855 26.0371311936879657 28.1128704123049964
  8.4557937832762846 26.0371311936879657 28.1128704123049964
  5.6371394113162827 26.0371311936879657 28.1128704123049964
 -0.0000002167237204 26.0371311936879657 28.1128704123049964
 -9.8651217074710615 62.6518011664742076 28.1128704123049964
 -14.0930184027037182 26.0371311936879657 28.1128704123049964
 -4.2278975214910632 62.6518011664742076 28.1128704123049964
 63.4184548035945070 23.5961043759422537 28.1128704123049964
 60.5998849895745124 23.5961043759422537 28.1128704123049964
 11.2743635972962863 26.0371311936879657 28.1128704123049964
 62.0091275972962777 26.0371311936879657 28.1128704123049964
 64.8276974113162794 26.0371311936879657 28.1128704123049964
 -9.8650791440513395 28.4780847820937346 28.1128704123049964
 -0.0000005011728327 60.2107743487284921 28.1128704123049964
 -0.0000002573589589 30.9190383704995000 28.1128704123049964
 -2.8185700713789608 30.9190383704995000 28.1128704123049964
 -5.6372244433389582 30.9190383704995000 28.1128704123049964
 -11.2743640713789581 30.9190383704995000 28.1128704123049964
 14.0930176848071671 60.2107743487284921 28.1128704123049964
 52.1440486699686616 28.4780847820937346 28.1128704123049964
 49.3254788559486528 28.4780847820937346 28.1128704123049964
 19.7301573128471581 60.2107743487284921 28.1128704123049964
 40.8696848559486625 28.4780847820937346 28.1128704123049964
 35.2324606699686598 28.4780847820937346 28.1128704123049964
 22.5488116848071662 60.2107743487284921 28.1128704123049964
 29.5952364839886641 28.4780847820937346 28.1128704123049964
 18.3208726699686650 28.4780847820937346 28.1128704123049964
 12.6836484839886605 28.4780847820937346 28.1128704123049964
  4.2278544839886631 28.4780847820937346 28.1128704123049964
 -1.4092851440513405 28.4780847820937346 28.1128704123049964
 33.8231754988271618 60.2107743487284921 28.1128704123049964
 -7.0465093300313377 28.4780847820937346 28.1128704123049964
 36.6417877949951958 35.8010187766509844 28.1128704123049964
  1.4092421065489333 62.6518011664742076 28.1128704123049964
 39.4603576090151904 35.8010187766509844 28.1128704123049964
 25.3673815394624036 55.3288671719169614 28.1128704123049964
 -26.7767095855641273 48.0059331773597151 28.1128704123049964
 56.3719878067141025 45.5649063596139996 28.1128704123049964
 53.5533334347540944 45.5649063596139996 28.1128704123049964
 50.7347636207340997 45.5649063596139996 28.1128704123049964
 47.9161938067141051 45.5649063596139996 28.1128704123049964
 31.0046058067141033 45.5649063596139996 28.1128704123049964
 47.9161514871082517 50.4468867657654769 28.1128704123049964
 50.7347213011282463 50.4468867657654769 28.1128704123049964
 -18.3209155855641299 48.0059331773597151 28.1128704123049964
 19.7301574347541049 45.5649063596139996 28.1128704123049964
 11.2743634347540986 45.5649063596139996 28.1128704123049964
 -2.8185701932858982 45.5649063596139996 28.1128704123049964
 -11.2743641932859031 45.5649063596139996 28.1128704123049964
 -16.9115883792659005 45.5649063596139996 28.1128704123049964
 -7.0464672542393672 52.8878403541712458 28.1128704123049964
 -22.5488125652458997 45.5649063596139996 28.1128704123049964
 -25.3673823792659014 45.5649063596139996 28.1128704123049964
 57.7812727340417212 43.1239527712082307 28.1128704123049964
 53.5533756730882544 50.4468867657654769 28.1128704123049964
 54.9626183620817130 43.1239527712082307 28.1128704123049964
 -15.5023457715441282 48.0059331773597151 28.1128704123049964
 39.4603574871082543 50.4468867657654769 28.1128704123049964
 -16.9116306988717469 50.4468867657654769 28.1128704123049964
 -22.5487703269117468 50.4468867657654769 28.1128704123049964
 -25.3674246988717442 50.4468867657654769 28.1128704123049964
 -28.1859945128917460 50.4468867657654769 28.1128704123049964
 -0.0000426988717480 50.4468867657654769 28.1128704123049964
 54.9626606004158731 48.0059331773597151 28.1128704123049964
 52.1440062284558650 48.0059331773597151 28.1128704123049964
 14.0929754871082551 50.4468867657654769 28.1128704123049964
 -12.6836913995841307 48.0059331773597151 28.1128704123049964
 40.8696424144358730 48.0059331773597151 28.1128704123049964
 22.5487694871082525 50.4468867657654769 28.1128704123049964
 23.9580544144358711 48.0059331773597151 28.1128704123049964
 15.5022604144358738 48.0059331773597151 28.1128704123049964
 12.6836906004158720 48.0059331773597151 28.1128704123049964
  9.8650362284558710 48.0059331773597151 28.1128704123049964
  4.2278966004158747 48.0059331773597151 28.1128704123049964
 36.6417876730882455 50.4468867657654769 28.1128704123049964
 -7.0465517715441273 48.0059331773597151 28.1128704123049964
 19.7301996730882578 50.4468867657654769 28.1128704123049964
 52.1440485480617184 43.1239527712082307 28.1128704123049964
 46.5068243620817157 43.1239527712082307 28.1128704123049964
 40.8696847340417122 43.1239527712082307 28.1128704123049964
 57.7812304957075682 38.2419723650567462 28.1128704123049964
 52.1440908676675789 38.2419723650567462 28.1128704123049964
 46.5068666816875762 38.2419723650567462 28.1128704123049964
 43.6882968676675674 38.2419723650567462 28.1128704123049964
 40.8696424957075664 38.2419723650567462 28.1128704123049964
 38.0510726816875717 38.2419723650567462 28.1128704123049964
 35.2325028676675771 38.2419723650567462 28.1128704123049964
 32.4138484957075690 38.2419723650567462 28.1128704123049964
 -2.8186548324975988 55.3288671719169614 28.1128704123049964
 29.5952786816875744 38.2419723650567462 28.1128704123049964
  9.8651208676675761 38.2419723650567462 28.1128704123049964
 16.9115875394624062 55.3288671719169614 28.1128704123049964
  1.4093268676675752 38.2419723650567462 28.1128704123049964
 19.7301573534824009 55.3288671719169614 28.1128704123049964
 -9.8651215042924267 38.2419723650567462 28.1128704123049964
 -12.6836913183124267 38.2419723650567462 28.1128704123049964
 -21.1394853183124276 38.2419723650567462 28.1128704123049964
 38.0510301182678390 72.4156887494372228 28.1128704123049964
 15.5022604957075725 38.2419723650567462 28.1128704123049964
 -14.0930185246106596 40.6829991828024689 28.1128704123049964
 -8.4557943386306622 40.6829991828024689 28.1128704123049964
 -11.2744488324975958 55.3288671719169614 28.1128704123049964
 -4.2278974402193654 52.8878403541712458 28.1128704123049964
 35.2324605480617166 43.1239527712082307 28.1128704123049964
 -1.4093276261993704 52.8878403541712458 28.1128704123049964
  1.4093267457606342 52.8878403541712458 28.1128704123049964
 23.9580967340417281 43.1239527712082307 28.1128704123049964
 15.5023027340417219 43.1239527712082307 28.1128704123049964
 12.6836483620817209 43.1239527712082307 28.1128704123049964
  7.0465087340417254 43.1239527712082307 28.1128704123049964
 -9.8650792659582809 43.1239527712082307 28.1128704123049964
 21.1394845597806302 52.8878403541712458 28.1128704123049964
 23.9580543738006249 52.8878403541712458 28.1128704123049964
 26.7767087457606330 52.8878403541712458 28.1128704123049964
 56.3719032894093317 40.6829991828024689 28.1128704123049964
 53.5533334753893371 40.6829991828024689 28.1128704123049964
 38.0510725597806356 52.8878403541712458 28.1128704123049964
 -25.3673824605375984 55.3288671719169614 28.1128704123049964
 16.9115876613693388 40.6829991828024689 28.1128704123049964
 14.0929332894093395 40.6829991828024689 28.1128704123049964
 -0.0000003386306579 40.6829991828024689 28.1128704123049964
 50.7347214230351895 35.8010187766509844 28.1128704123049964
 40.8696426176145025 23.5961043759422537 28.1128704123049964
 -5.6371823269117440 50.4468867657654769 28.1128704123049964
 29.5952788035945140 23.5961043759422537 28.1128704123049964
 -0.0000000948167802 11.3912632045734714 28.1128704123049964
 74.6928187395214422  8.9502363868277595 28.1128704123049964
 71.8742489255014476  8.9502363868277595 28.1128704123049964
 69.0556791114814530  8.9502363868277595 28.1128704123049964
 57.7812307395214404  8.9502363868277595 28.1128704123049964
 -33.8231765824445318 69.9747351610314468 28.1128704123049964
 52.1440911114814512  8.9502363868277595 28.1128704123049964
  2.8185697192032206 11.3912632045734714 28.1128704123049964
 49.3254367395214430  8.9502363868277595 28.1128704123049964
 -28.1860369544045355 69.9747351610314468 28.1128704123049964
 29.5952789255014537  8.9502363868277595 28.1128704123049964
 23.9580547395214474  8.9502363868277595 28.1128704123049964
 -22.5488127684245363 69.9747351610314468 28.1128704123049964
 -19.7302429544045346 69.9747351610314468 28.1128704123049964
 -5.6372247684245327 69.9747351610314468 28.1128704123049964
 -2.8186549544045376 69.9747351610314468 28.1128704123049964
 40.8696427395214528  8.9502363868277595 28.1128704123049964
  5.6371395332232206 11.3912632045734714 28.1128704123049964
  8.4557939051832172 11.3912632045734714 28.1128704123049964
 38.0510724378736924 67.5337083432857384 28.1128704123049964
 35.2324607918756030 13.8322167929792403 28.1128704123049964
 32.4138909778556012 13.8322167929792403 28.1128704123049964
 -21.1394855621263069 67.5337083432857384 28.1128704123049964
 12.6836486058956019 13.8322167929792403 28.1128704123049964
 -15.5022613761463042 67.5337083432857384 28.1128704123049964
 -7.0465092081243990 13.8322167929792403 28.1128704123049964
 76.1021459051832210 11.3912632045734714 28.1128704123049964
 70.4649217192032182 11.3912632045734714 28.1128704123049964
 67.6463519051832236 11.3912632045734714 28.1128704123049964
 64.8276975332232155 11.3912632045734714 28.1128704123049964
 -4.2278975621263015 67.5337083432857384 28.1128704123049964
  1.4093266238536943 67.5337083432857384 28.1128704123049964
 18.3209146238536960 67.5337083432857384 28.1128704123049964
 38.0510728035945078 23.5961043759422537 28.1128704123049964
 31.0045215332232189 11.3912632045734714 28.1128704123049964
 28.1859517192032243 11.3912632045734714 28.1128704123049964
 22.5487275332232180 11.3912632045734714 28.1128704123049964
 73.2835338528290663  6.5092827984219914 28.1128704123049964
  8.4557934175554603 69.9747351610314468 28.1128704123049964
 67.6463096668490635  6.5092827984219914 28.1128704123049964
 62.0091700388090601  6.5092827984219914 28.1128704123049964
 -26.7766675097721567 72.4156887494372228 28.1128704123049964
 21.1394849661366919  4.0683292100162243 28.1128704123049964
 12.6836909661366875  4.0683292100162243 28.1128704123049964
  7.0464667801566900  4.0683292100162243 28.1128704123049964
  4.2278969661366892  4.0683292100162243 28.1128704123049964
 73.2835761724349197  1.6273023922705114 28.1128704123049964
  1.4092843042478451 72.4156887494372228 28.1128704123049964
 50.7347639864549222  1.6273023922705114 28.1128704123049964
 42.2789699864549249  1.6273023922705114 28.1128704123049964
 39.4604001724349231  1.6273023922705114 28.1128704123049964
 33.8231759864549275  1.6273023922705114 28.1128704123049964
 29.5952361182678381 72.4156887494372228 28.1128704123049964
 19.7301578004749203  1.6273023922705114 28.1128704123049964
 16.9115879864549186  1.6273023922705114 28.1128704123049964
 14.0930181724349168  1.6273023922705114 28.1128704123049964
 11.2743638004749194  1.6273023922705114 28.1128704123049964
  5.6372241724349186  1.6273023922705114 28.1128704123049964
 26.7766245941766883  4.0683292100162243 28.1128704123049964
 -26.7767097481063061 67.5337083432857384 28.1128704123049964
 -29.5953218817321577 72.4156887494372228 28.1128704123049964
 -32.4138916957521559 72.4156887494372228 28.1128704123049964
 50.7347216668490617  6.5092827984219914 28.1128704123049964
 47.9161518528290671  6.5092827984219914 28.1128704123049964
 45.0975820388090725  6.5092827984219914 28.1128704123049964
 42.2789276668490714  6.5092827984219914 28.1128704123049964
 39.4603578528290697  6.5092827984219914 28.1128704123049964
 14.0929330455954638 69.9747351610314468 28.1128704123049964
 16.9115874175554666 69.9747351610314468 28.1128704123049964
 22.5487270455954629 69.9747351610314468 28.1128704123049964
 16.9115456668490722  6.5092827984219914 28.1128704123049964
  8.4557516668490695  6.5092827984219914 28.1128704123049964
  5.6371818528290705  6.5092827984219914 28.1128704123049964
  2.8186120388090696  6.5092827984219914 28.1128704123049964
 33.8231754175554755 69.9747351610314468 28.1128704123049964
 71.8742489661366903  4.0683292100162243 28.1128704123049964
 69.0555945941766822  4.0683292100162243 28.1128704123049964
 -35.2324615097721576 72.4156887494372228 28.1128704123049964
 54.9626609661366956  4.0683292100162243 28.1128704123049964
 46.5068669661366982  4.0683292100162243 28.1128704123049964
 52.1440487918755977 13.8322167929792403 28.1128704123049964
 26.7767086238536862 67.5337083432857384 28.1128704123049964
 -2.8186122690778692 21.1551507875364884 28.1128704123049964
 14.0929757309221344 21.1551507875364884 28.1128704123049964
 -22.5487704488186900 65.0927547548799765 28.1128704123049964
 18.3208301065489287 62.6518011664742076 28.1128704123049964
 14.0929753652013119 65.0927547548799765 28.1128704123049964
 64.8277820505279863 16.2731703813850075 28.1128704123049964
 26.7766241065489261 62.6518011664742076 28.1128704123049964
 11.2744055511813173 65.0927547548799765 28.1128704123049964
 -9.8651213417502497 18.7141971991307194 28.1128704123049964
 -36.6417886347986865 65.0927547548799765 28.1128704123049964
  8.4557511792213162 65.0927547548799765 28.1128704123049964
  5.6371813652013136 65.0927547548799765 28.1128704123049964
 70.4649639169021356 21.1551507875364884 28.1128704123049964
 12.6836908442297531 18.7141971991307194 28.1128704123049964
 53.5533759169021195 21.1551507875364884 28.1128704123049964
 47.9161517309221239 21.1551507875364884 28.1128704123049964
 49.3254366582497497 18.7141971991307194 28.1128704123049964
 39.4603577309221265 21.1551507875364884 28.1128704123049964
 11.2744059169021327 21.1551507875364884 28.1128704123049964
 -19.7302006347986882 65.0927547548799765 28.1128704123049964
 23.9580546582497540 18.7141971991307194 28.1128704123049964
 26.7766244722697486 18.7141971991307194 28.1128704123049964
 35.2324184722697566 18.7141971991307194 28.1128704123049964
 31.0045637309221327 21.1551507875364884 28.1128704123049964
 38.0510728442297577 18.7141971991307194 28.1128704123049964
 56.3719457309221283 21.1551507875364884 28.1128704123049964
 56.3719880505279747 16.2731703813850075 28.1128704123049964
 54.9626608442297453 18.7141971991307194 28.1128704123049964
 -38.0510735621263052 67.5337083432857384 28.1128704123049964
 -35.2325037481063035 67.5337083432857384 28.1128704123049964
 63.4184126058955968 13.8322167929792403 28.1128704123049964
 23.9580546176145113 23.5961043759422537 28.1128704123049964
 66.2370669778556049 13.8322167929792403 28.1128704123049964
 69.0556367918755996 13.8322167929792403 28.1128704123049964
  7.0464662925289359 62.6518011664742076 28.1128704123049964
 71.8742066058955942 13.8322167929792403 28.1128704123049964
 -5.6372243214320203 16.2731703813850075 28.1128704123049964
 -0.0000001354520196 16.2731703813850075 28.1128704123049964
  9.8651209895745122 23.5961043759422537 28.1128704123049964
 50.7347638645479790 16.2731703813850075 28.1128704123049964
  7.0464666176145112 23.5961043759422537 28.1128704123049964
  4.2278968035945095 23.5961043759422537 28.1128704123049964
 38.0510724785089351 62.6518011664742076 28.1128704123049964
  1.4093269895745080 23.5961043759422537 28.1128704123049964
 16.9115451792213065 65.0927547548799765 28.1128704123049964
 60.5998004722697488 18.7141971991307194 28.1128704123049964
 36.6417456785679860 16.2731703813850075 28.1128704123049964
 12.6836904785089395 62.6518011664742076 28.1128704123049964
 -4.2278971964054897 23.5961043759422537 28.1128704123049964
 -9.8651213823854889 23.5961043759422537 28.1128704123049964
 28.1859516785679780 16.2731703813850075 28.1128704123049964
 -31.0045644488186873 65.0927547548799765 28.1128704123049964
 36.6417875511813165 65.0927547548799765 28.1128704123049964
 39.4603996712620955 61.8380767409990000 28.6327538495249954
 32.4138905985897026 59.3971231525932382 28.6327538495249954
 -14.0929763404568273 52.0741891580359919 28.6327538495249954
 -19.7302005264368283 52.0741891580359919 28.6327538495249954
 47.9161936712620928 61.8380767409990000 28.6327538495249954
 -22.5487703404568300 52.0741891580359919 28.6327538495249954
 32.4139327962886199 69.1610107355562462 28.6327538495249954
 45.0976238572420840 61.8380767409990000 28.6327538495249954
 -16.9115884740826736 56.9561695641874692 28.6327538495249954
 33.8231754852820927 61.8380767409990000 28.6327538495249954
 36.6417452180303869 71.6020375533019688 28.6327538495249954
 25.3673814040103807 71.6020375533019688 28.6327538495249954
 18.3209147728507951 49.6332355696302230 28.6327538495249954
 29.5952785868707942 49.6332355696302230 28.6327538495249954
 35.2325027728508005 49.6332355696302230 28.6327538495249954
 11.2743632180303894 71.6020375533019688 28.6327538495249954
  5.6372235899903860 71.6020375533019688 28.6327538495249954
 -11.2743644100096230 71.6020375533019688 28.6327538495249954
 28.1860358572420893 61.8380767409990000 28.6327538495249954
 -25.3673825959896213 71.6020375533019688 28.6327538495249954
 31.0046056712620839 61.8380767409990000 28.6327538495249954
 43.6882544126097088 59.3971231525932382 28.6327538495249954
 -31.0046067819696169 71.6020375533019688 28.6327538495249954
 46.5068665868708067 49.6332355696302230 28.6327538495249954
 35.2324604126097114 59.3971231525932382 28.6327538495249954
 43.6882966103086261 69.1610107355562462 28.6327538495249954
 -14.0930187819696204 71.6020375533019688 28.6327538495249954
  7.0465507962886189 69.1610107355562462 28.6327538495249954
 -35.2325037210161440 64.2791035587447084 28.6327538495249954
 -38.0510735756713814 69.1610107355562462 28.6327538495249954
 42.2790117236162359 66.7200571471504844 28.6327538495249954
  7.0465509181955595 54.5151427464417537 28.6327538495249954
  9.8651207322155532 54.5151427464417537 28.6327538495249954
 12.6836905462355407 54.5151427464417537 28.6327538495249954
 -29.5952372154302985 59.3971231525932382 28.6327538495249954
 28.1859935376362323 66.7200571471504844 28.6327538495249954
 23.9580542789838589 64.2791035587447084 28.6327538495249954
 32.4138482789838704 64.2791035587447084 28.6327538495249954
  4.2278965462355513 54.5151427464417537 28.6327538495249954
 22.5487693516562366 66.7200571471504844 28.6327538495249954
  2.8186115376362340 66.7200571471504844 28.6327538495249954
 35.2325026509438644 64.2791035587447084 28.6327538495249954
 43.6882966509438617 64.2791035587447084 28.6327538495249954
 11.2743633399373131 56.9561695641874692 28.6327538495249954
 -11.2744066483437688 66.7200571471504844 28.6327538495249954
  8.4557935259173256 56.9561695641874692 28.6327538495249954
 -16.9115462763837670 66.7200571471504844 28.6327538495249954
 -31.0046066600626737 56.9561695641874692 28.6327538495249954
 -22.5487704623637697 66.7200571471504844 28.6327538495249954
 21.1394845462355612 54.5151427464417537 28.6327538495249954
 -23.9580975873902986 59.3971231525932382 28.6327538495249954
 -9.8650370818044468 54.5151427464417537 28.6327538495249954
 -32.4138493896913857 69.1610107355562462 28.6327538495249954
 -32.4138493490561430 64.2791035587447084 28.6327538495249954
 -26.7767097210161431 64.2791035587447084 28.6327538495249954
  9.8651206103086064 69.1610107355562462 28.6327538495249954
 18.3208724126097096 59.3971231525932382 28.6327538495249954
  8.4558358455231772 52.0741891580359919 28.6327538495249954
 11.2744056595431719 52.0741891580359919 28.6327538495249954
 -33.8231342763837688 66.7200571471504844 28.6327538495249954
  4.2279387845697078 59.3971231525932382 28.6327538495249954
 -12.6836915350361448 64.2791035587447084 28.6327538495249954
 31.0045634735631737 52.0741891580359919 28.6327538495249954
 -9.8650372037113900 69.1610107355562462 28.6327538495249954
 -15.5022613896913821 69.1610107355562462 28.6327538495249954
 42.2790118455231720 52.0741891580359919 28.6327538495249954
 45.0975816595431809 52.0741891580359919 28.6327538495249954
 -26.7766250818044469 54.5151427464417537 28.6327538495249954
 -21.1394854537644470 54.5151427464417537 28.6327538495249954
 -18.3208310818044460 54.5151427464417537 28.6327538495249954
 -12.6836914537644478 54.5151427464417537 28.6327538495249954
 -7.0464673490561447 64.2791035587447084 28.6327538495249954
 -15.5023035873902977 59.3971231525932382 28.6327538495249954
 -4.2278975350361501 64.2791035587447084 28.6327538495249954
 29.5953207845697079 59.3971231525932382 28.6327538495249954
 -19.7301583287379145 61.8380767409990000 28.6327538495249954
 63.4184547087777446 34.9873675805157234 28.6327538495249954
 56.3719877931690334 47.1922087518845075 28.6327538495249954
  8.4557938510029000 17.9004727736555189 28.6327538495249954
  5.6372240369829028 17.9004727736555189 28.6327538495249954
 74.6928609643105261 15.4595191852497500 28.6327538495249954
 60.5998427783305331 15.4595191852497500 28.6327538495249954
 46.5069091502905181 15.4595191852497500 28.6327538495249954
 40.8696849643105153 15.4595191852497500 28.6327538495249954
 29.5953211502905269 15.4595191852497500 28.6327538495249954
 23.9580969643105171 15.4595191852497500 28.6327538495249954
 18.3208727783305179 15.4595191852497500 28.6327538495249954
  9.8650787783305205 15.4595191852497500 28.6327538495249954
  4.2279391502905188 15.4595191852497500 28.6327538495249954
 62.0091277056581518 13.0185655968439828 28.6327538495249954
 56.3719880776181483 13.0185655968439828 28.6327538495249954
 45.0975397056581500 13.0185655968439828 28.6327538495249954
 39.4604000776181465 13.0185655968439828 28.6327538495249954
 25.3673818916381357 13.0185655968439828 28.6327538495249954
 16.9115878916381419 13.0185655968439828 28.6327538495249954
 16.9115878510028992 17.9004727736555189 28.6327538495249954
 22.5488120369828984 17.9004727736555189 28.6327538495249954
 42.2789698510029055 17.9004727736555189 28.6327538495249954
 45.0976242229628923 17.9004727736555189 28.6327538495249954
 50.7348060893370558 22.7824531798069998 28.6327538495249954
 16.9116300893370450 22.7824531798069998 28.6327538495249954
 -11.2744062826229499 22.7824531798069998 28.6327538495249954
 69.0556790166646692 20.3414995914012344 28.6327538495249954
 66.2370246447046753 20.3414995914012344 28.6327538495249954
 57.7812306447046780 20.3414995914012344 28.6327538495249954
 43.6882970166646629 20.3414995914012344 28.6327538495249954
 21.1394848306846654 20.3414995914012344 28.6327538495249954
 -2.8185699223818586 13.0185655968439828 28.6327538495249954
 18.3209150166646637 20.3414995914012344 28.6327538495249954
  4.2278968306846716 20.3414995914012344 28.6327538495249954
  1.4093270166646681 20.3414995914012344 28.6327538495249954
 -7.0464669833353293 20.3414995914012344 28.6327538495249954
 73.2835760369829075 17.9004727736555189 28.6327538495249954
 70.4650062229628986 17.9004727736555189 28.6327538495249954
 62.0092122229629013 17.9004727736555189 28.6327538495249954
 59.1905578510029073 17.9004727736555189 28.6327538495249954
 53.5534182229629039 17.9004727736555189 28.6327538495249954
  7.0464666447046698 20.3414995914012344 28.6327538495249954
 69.0556790979363768 10.5775387790982709 28.6327538495249954
 60.5998850979363723 10.5775387790982709 28.6327538495249954
 54.9626609119563767 10.5775387790982709 28.6327538495249954
 18.3209151385716105  5.6956316022867357 28.6327538495249954
 81.7393701588898551  3.2546047845410229 28.6327538495249954
 76.1021459729098524  3.2546047845410229 28.6327538495249954
 67.6463519729098550  3.2546047845410229 28.6327538495249954
 62.0092123448698445  3.2546047845410229 28.6327538495249954
 50.7347639729098461  3.2546047845410229 28.6327538495249954
 39.4604001588898399  3.2546047845410229 28.6327538495249954
 28.1860363448698337  3.2546047845410229 28.6327538495249954
 32.4138487666116077  5.6956316022867357 28.6327538495249954
 25.3673819729098362  3.2546047845410229 28.6327538495249954
  2.8186543448698407  3.2546047845410229 28.6327538495249954
 69.0556369002374737  0.8136511961352557 28.6327538495249954
 66.2370670862174649  0.8136511961352557 28.6327538495249954
 63.4184972721974631  0.8136511961352557 28.6327538495249954
 60.5998429002374621  0.8136511961352557 28.6327538495249954
 32.4138910862174541  0.8136511961352557 28.6327538495249954
 26.7766669002374584  0.8136511961352557 28.6327538495249954
  1.4092849002374601  0.8136511961352557 28.6327538495249954
  8.4557939729098397  3.2546047845410229 28.6327538495249954
 67.6463940893370506 22.7824531798069998 28.6327538495249954
 38.0510729525916105  5.6956316022867357 28.6327538495249954
 71.8742489525916284  5.6956316022867357 28.6327538495249954
 49.3255212839163661 10.5775387790982709 28.6327538495249954
 43.6882970979363634 10.5775387790982709 28.6327538495249954
 38.0510729119563607 10.5775387790982709 28.6327538495249954
 35.2325030979363731 10.5775387790982709 28.6327538495249954
 18.3209150979363713 10.5775387790982709 28.6327538495249954
 12.6836909119563703 10.5775387790982709 28.6327538495249954
 -4.2278970880436288 10.5775387790982709 28.6327538495249954
 78.9207580252639929  8.1365851906925037 28.6327538495249954
 63.4184549525916097  5.6956316022867357 28.6327538495249954
 53.5533760252639937  8.1365851906925037 28.6327538495249954
 33.8232182112439972  8.1365851906925037 28.6327538495249954
 19.7302000252639935  8.1365851906925037 28.6327538495249954
 16.9116302112439918  8.1365851906925037 28.6327538495249954
 14.0929758392839890  8.1365851906925037 28.6327538495249954
  5.6371818392839907  8.1365851906925037 28.6327538495249954
  0.0000422112439907  8.1365851906925037 28.6327538495249954
 -2.8186121607160102  8.1365851906925037 28.6327538495249954
 77.5114731385716169  5.6956316022867357 28.6327538495249954
 50.7348062112439848  8.1365851906925037 28.6327538495249954
 -9.8650368379905675 25.2234067682127652 28.6327538495249954
 29.5952787900494201 25.2234067682127652 28.6327538495249954
 43.6882969760294344 25.2234067682127652 28.6327538495249954
 -16.9115883521757375 42.3103015750729767 28.6327538495249954
 -19.7301581661957393 42.3103015750729767 28.6327538495249954
 60.5998848541225001 39.8692747573272612 28.6327538495249954
 46.5068666681425000 39.8692747573272612 28.6327538495249954
 40.8697270401024966 39.8692747573272612 28.6327538495249954
 35.2325028541224938 39.8692747573272612 28.6327538495249954
 21.1394846681424795 39.8692747573272612 28.6327538495249954
 18.3209148541224920 39.8692747573272612 28.6327538495249954
 -14.0930185381557376 42.3103015750729767 28.6327538495249954
 12.6836906681424875 39.8692747573272612 28.6327538495249954
  4.2278966681424874 39.8692747573272612 28.6327538495249954
 -4.2278973318575099 39.8692747573272612 28.6327538495249954
 -18.3208309598975099 39.8692747573272612 28.6327538495249954
 -21.1394853318575109 39.8692747573272612 28.6327538495249954
 45.0975817814501099 37.4283211689214923 28.6327538495249954
 22.5487695954701017 37.4283211689214923 28.6327538495249954
 19.7301997814501142 37.4283211689214923 28.6327538495249954
 16.9116299674301196 37.4283211689214923 28.6327538495249954
  7.0465510401024849 39.8692747573272612 28.6327538495249954
  5.6371815954701097 37.4283211689214923 28.6327538495249954
  5.6372238338042564 42.3103015750729767 28.6327538495249954
 25.3673816478242529 42.3103015750729767 28.6327538495249954
 50.7347636071890307 47.1922087518845075 28.6327538495249954
 45.0976239791490272 47.1922087518845075 28.6327538495249954
 39.4603997931690245 47.1922087518845075 28.6327538495249954
 36.6418299791490298 47.1922087518845075 28.6327538495249954
 33.8231756071890288 47.1922087518845075 28.6327538495249954
 28.1860359791490147 47.1922087518845075 28.6327538495249954
 -5.6371400208509774 47.1922087518845075 28.6327538495249954
 -8.4557943928109793 47.1922087518845075 28.6327538495249954
  8.4557936478242581 42.3103015750729767 28.6327538495249954
 40.8696847204966431 44.7512551634787386 28.6327538495249954
 21.1395269064766467 44.7512551634787386 28.6327538495249954
 15.5023027204966439 44.7512551634787386 28.6327538495249954
  9.8650785345166412 44.7512551634787386 28.6327538495249954
  1.4092845345166412 44.7512551634787386 28.6327538495249954
 -4.2278550935233552 44.7512551634787386 28.6327538495249954
 -21.1394430935233544 44.7512551634787386 28.6327538495249954
 36.6417454618442662 42.3103015750729767 28.6327538495249954
 31.0046058338042556 42.3103015750729767 28.6327538495249954
 23.9580967204966342 44.7512551634787386 28.6327538495249954
 -1.4093275991092098 49.6332355696302230 28.6327538495249954
 -2.8186124045298877 37.4283211689214923 28.6327538495249954
 54.9626607087777472 34.9873675805157234 28.6327538495249954
 46.5069090283835891 30.1053871743642461 28.6327538495249954
 32.4138908424035748 30.1053871743642461 28.6327538495249954
 21.1395270283835863 30.1053871743642461 28.6327538495249954
 15.5023028424035783 30.1053871743642461 28.6327538495249954
  9.8650786564235791 30.1053871743642461 28.6327538495249954
  7.0465088424035836 30.1053871743642461 28.6327538495249954
  4.2279390283835818 30.1053871743642461 28.6327538495249954
 -7.0465093435764183 30.1053871743642461 28.6327538495249954
 54.9627030283835865 30.1053871743642461 28.6327538495249954
 -15.5023033435764184 30.1053871743642461 28.6327538495249954
 45.0975395837512067 27.6644335859584807 28.6327538495249954
 33.8231757697311934 27.6644335859584807 28.6327538495249954
  8.4557937697312031 27.6644335859584807 28.6327538495249954
  2.8185695837512008 27.6644335859584807 28.6327538495249954
 -2.8185700442888009 27.6644335859584807 28.6327538495249954
 57.7813151620094345 25.2234067682127652 28.6327538495249954
 52.1440909760294318 25.2234067682127652 28.6327538495249954
 49.3255211620094371 25.2234067682127652 28.6327538495249954
 56.3719879557112051 27.6644335859584807 28.6327538495249954
 57.7812305227977419 34.9873675805157234 28.6327538495249954
 63.4184970283835838 30.1053871743642461 28.6327538495249954
 -16.9115882709040370 32.5463407627700150 28.6327538495249954
 35.2325028947577295 34.9873675805157234 28.6327538495249954
 29.5952787087777267 34.9873675805157234 28.6327538495249954
 23.9580545227977240 34.9873675805157234 28.6327538495249954
 18.3209148947577418 34.9873675805157234 28.6327538495249954
 15.5022605227977337 34.9873675805157234 28.6327538495249954
  7.0464665227977319 34.9873675805157234 28.6327538495249954
 -1.4093274772022688 34.9873675805157234 28.6327538495249954
 -7.0464671052422672 34.9873675805157234 28.6327538495249954
 66.2370668424035927 30.1053871743642461 28.6327538495249954
 -9.8651214772022673 34.9873675805157234 28.6327538495249954
 45.0976241010559633 32.5463407627700150 28.6327538495249954
 42.2789697290959623 32.5463407627700150 28.6327538495249954
 33.8231757290959649 32.5463407627700150 28.6327538495249954
 22.5488119150759623 32.5463407627700150 28.6327538495249954
 19.7302421010559677 32.5463407627700150 28.6327538495249954
 16.9115877290959595 32.5463407627700150 28.6327538495249954
  8.4557937290959586 32.5463407627700150 28.6327538495249954
  2.8186541010559618 32.5463407627700150 28.6327538495249954
 64.8277819150759740 32.5463407627700150 28.6327538495249954
 42.2789694040103896 71.6020375533019688 28.6327538495249954
