 H  O 
 1.0000000000000000
    84.5579400000000021    0.0000000000000000    0.0000000000000000
   -42.2789706095346958   73.2293399455724767    0.0000000000000000
     0.0000000000000000    0.0000000000000000   46.9039550000000034
 H   O  
 164 398
Cartesian
 40.8696844902278471 72.4156887494372228 28.1128704123049964
 -18.3208733878652161 57.7698207603227232 28.1128704123049964
 -26.7766673878652135 57.7698207603227232 28.1128704123049964
 47.9161091675023982 55.3288671719169614 28.1128704123049964
 23.9580546176145113 23.5961043759422537 28.1128704123049964
 39.4603151675024009 55.3288671719169614 28.1128704123049964
 31.0045211675023928 55.3288671719169614 28.1128704123049964
 25.3673815394624036 55.3288671719169614 28.1128704123049964
 19.7301573534824009 55.3288671719169614 28.1128704123049964
 46.5068668035945052 23.5961043759422537 28.1128704123049964
 14.0929331675024070 55.3288671719169614 28.1128704123049964
  5.6371391675024016 55.3288671719169614 28.1128704123049964
 -11.2744485886837182 26.0371311936879657 28.1128704123049964
 -2.8186545886837178 26.0371311936879657 28.1128704123049964
 -22.5488126465175966 55.3288671719169614 28.1128704123049964
 28.1859515972962846 26.0371311936879657 28.1128704123049964
 31.0045214113162864 26.0371311936879657 28.1128704123049964
 -31.0046066465175976 55.3288671719169614 28.1128704123049964
 36.6417455972962784 26.0371311936879657 28.1128704123049964
 42.2789697832762812 26.0371311936879657 28.1128704123049964
 59.1905577832762830 26.0371311936879657 28.1128704123049964
 67.6463517832762875 26.0371311936879657 28.1128704123049964
 32.4138483738006258 52.8878403541712458 28.1128704123049964
 21.1394424839886597 28.4780847820937346 28.1128704123049964
 -9.8651213823854889 23.5961043759422537 28.1128704123049964
 15.5022603738006346 52.8878403541712458 28.1128704123049964
 -1.4092853878652121 57.7698207603227232 28.1128704123049964
 28.1859939169021310 21.1551507875364884 28.1128704123049964
  9.8650361065489385 62.6518011664742076 28.1128704123049964
 25.3673818645479834 16.2731703813850075 28.1128704123049964
 31.0046060505279790 16.2731703813850075 28.1128704123049964
 56.3719880505279747 16.2731703813850075 28.1128704123049964
 -35.2325037074710679 62.6518011664742076 28.1128704123049964
 36.6417453128471564 60.2107743487284921 28.1128704123049964
 -7.0465515277302488 18.7141971991307194 28.1128704123049964
  4.2278968442297478 18.7141971991307194 28.1128704123049964
  9.8650364722697521 18.7141971991307194 28.1128704123049964
 12.6836908442297531 18.7141971991307194 28.1128704123049964
 15.5022606582497549 18.7141971991307194 28.1128704123049964
 18.3208304722697477 18.7141971991307194 28.1128704123049964
 26.7766244722697486 18.7141971991307194 28.1128704123049964
 22.5488116848071662 60.2107743487284921 28.1128704123049964
 38.0510728442297577 18.7141971991307194 28.1128704123049964
 43.6882124722697469 18.7141971991307194 28.1128704123049964
 66.2370246582497515 18.7141971991307194 28.1128704123049964
 -0.0000005011728327 60.2107743487284921 28.1128704123049964
 -2.8185703151928343 60.2107743487284921 28.1128704123049964
  2.8186119169021282 21.1551507875364884 28.1128704123049964
 -14.0930186871528367 60.2107743487284921 28.1128704123049964
 -19.7301583151928384 60.2107743487284921 28.1128704123049964
 -28.1859523151928357 60.2107743487284921 28.1128704123049964
  7.0465086121347857 57.7698207603227232 28.1128704123049964
  1.4093267457606342 52.8878403541712458 28.1128704123049964
 49.3254788559486528 28.4780847820937346 28.1128704123049964
 -4.2278974402193654 52.8878403541712458 28.1128704123049964
 -23.9581397715441291 48.0059331773597151 28.1128704123049964
 50.7347636207340997 45.5649063596139996 28.1128704123049964
  5.6372238067141032 45.5649063596139996 28.1128704123049964
 -21.1394853183124276 38.2419723650567462 28.1128704123049964
 -2.8185701932858982 45.5649063596139996 28.1128704123049964
 -8.4557943792659014 45.5649063596139996 28.1128704123049964
 -11.2743641932859031 45.5649063596139996 28.1128704123049964
  9.8651208676675761 38.2419723650567462 28.1128704123049964
 57.7812727340417212 43.1239527712082307 28.1128704123049964
 18.3209148676675753 38.2419723650567462 28.1128704123049964
 23.9580544957075787 38.2419723650567462 28.1128704123049964
 26.7767088676675797 38.2419723650567462 28.1128704123049964
 32.4138484957075690 38.2419723650567462 28.1128704123049964
 49.3254787340417238 43.1239527712082307 28.1128704123049964
 38.0510726816875717 38.2419723650567462 28.1128704123049964
 40.8696847340417122 43.1239527712082307 28.1128704123049964
 54.9626606816875736 38.2419723650567462 28.1128704123049964
 -5.6372245246106605 40.6829991828024689 28.1128704123049964
 -2.8186547105906588 40.6829991828024689 28.1128704123049964
 26.7766665480617228 43.1239527712082307 28.1128704123049964
  5.6371392894093386 40.6829991828024689 28.1128704123049964
 15.5023027340417219 43.1239527712082307 28.1128704123049964
  9.8650785480617262 43.1239527712082307 28.1128704123049964
  5.6371816090151947 35.8010187766509844 28.1128704123049964
 -0.0000425769648080 35.8010187766509844 28.1128704123049964
 -5.6371822050048115 35.8010187766509844 28.1128704123049964
  9.8650362284558710 48.0059331773597151 28.1128704123049964
 63.4184124839886536 28.4780847820937346 28.1128704123049964
 -9.8651216261993682 52.8878403541712458 28.1128704123049964
 -12.6836914402193699 52.8878403541712458 28.1128704123049964
 -14.0930184433389574 30.9190383704995000 28.1128704123049964
 -21.1394854402193673 52.8878403541712458 28.1128704123049964
 47.9161514871082517 50.4468867657654769 28.1128704123049964
  5.6372239286210437 30.9190383704995000 28.1128704123049964
  8.4557937426410454 30.9190383704995000 28.1128704123049964
 45.0975816730882570 50.4468867657654769 28.1128704123049964
 42.2789273011282489 50.4468867657654769 28.1128704123049964
 11.2744056730882534 50.4468867657654769 28.1128704123049964
  5.6372240505279780 16.2731703813850075 28.1128704123049964
  5.6371814871082586 50.4468867657654769 28.1128704123049964
 -19.7302005128917450 50.4468867657654769 28.1128704123049964
 -28.1859945128917460 50.4468867657654769 28.1128704123049964
 -18.3209154636571903 33.3600651882452155 28.1128704123049964
 35.2324182284558631 48.0059331773597151 28.1128704123049964
 18.3208303503628116 33.3600651882452155 28.1128704123049964
 29.5952786004158739 48.0059331773597151 28.1128704123049964
 35.2324183503628063 33.3600651882452155 28.1128704123049964
 40.8696425363428091 33.3600651882452155 28.1128704123049964
 21.1394846004158765 48.0059331773597151 28.1128704123049964
 52.1440063503628082 33.3600651882452155 28.1128704123049964
 60.5998003503628055 33.3600651882452155 28.1128704123049964
 -14.0929763269117494 50.4468867657654769 28.1128704123049964
 18.3208301065489287 62.6518011664742076 28.1128704123049964
 -23.9580974519382757 43.1239527712082307 28.1128704123049964
 40.8696422518936870 67.5337083432857384 28.1128704123049964
 -5.6372242807967794 11.3912632045734714 28.1128704123049964
 -0.0000000948167802 11.3912632045734714 28.1128704123049964
 19.7301572315754683 69.9747351610314468 28.1128704123049964
 25.3673814175554639 69.9747351610314468 28.1128704123049964
 15.5022607801566892  4.0683292100162243 28.1128704123049964
 33.8231336668490670  6.5092827984219914 28.1128704123049964
 40.8696427801566955  4.0683292100162243 28.1128704123049964
 31.0045215332232189 11.3912632045734714 28.1128704123049964
 -1.4093272198433096  4.0683292100162243 28.1128704123049964
 78.9207158004749090  1.6273023922705114 28.1128704123049964
 50.7347639051832218 11.3912632045734714 28.1128704123049964
  5.6371813652013136 65.0927547548799765 28.1128704123049964
 53.5533337192032164 11.3912632045734714 28.1128704123049964
 -0.0000428207786890 65.0927547548799765 28.1128704123049964
 25.3673391792213039 65.0927547548799765 28.1128704123049964
 -9.8651217481063078 67.5337083432857384 28.1128704123049964
 46.5068669661366982  4.0683292100162243 28.1128704123049964
 52.1440065941766875  4.0683292100162243 28.1128704123049964
 59.1905156668490591  6.5092827984219914 28.1128704123049964
 67.6463096668490635  6.5092827984219914 28.1128704123049964
 -25.3673825824445345 69.9747351610314468 28.1128704123049964
 76.1021036668490609  6.5092827984219914 28.1128704123049964
 -36.6418309544045329 69.9747351610314468 28.1128704123049964
  7.0464667395214500  8.9502363868277595 28.1128704123049964
 -2.8185699494720202 16.2731703813850075 28.1128704123049964
 18.3209151114814510  8.9502363868277595 28.1128704123049964
 -0.0000005824445366 69.9747351610314468 28.1128704123049964
 38.0510724378736924 67.5337083432857384 28.1128704123049964
 66.2370247801566876  4.0683292100162243 28.1128704123049964
 54.9626609255014458  8.9502363868277595 28.1128704123049964
 15.5022602518936878 67.5337083432857384 28.1128704123049964
  8.4557934175554603 69.9747351610314468 28.1128704123049964
 54.9626609661366956  4.0683292100162243 28.1128704123049964
 59.1905579051832120 11.3912632045734714 28.1128704123049964
 64.8276975332232155 11.3912632045734714 28.1128704123049964
 33.8231331792213084 65.0927547548799765 28.1128704123049964
 36.6417880388090680  6.5092827984219914 28.1128704123049964
 35.2324603042478444 72.4156887494372228 28.1128704123049964
 -22.5487704488186900 65.0927547548799765 28.1128704123049964
  9.8650787918756002 13.8322167929792403 28.1128704123049964
  2.8185698004749202  1.6273023922705114 28.1128704123049964
  7.0465084902278479 72.4156887494372228 28.1128704123049964
 43.6882121065489244 62.6518011664742076 28.1128704123049964
 -4.2279398817321576 72.4156887494372228 28.1128704123049964
 -21.1395278817321568 72.4156887494372228 28.1128704123049964
 18.3208727918756047 13.8322167929792403 28.1128704123049964
 12.6836481182678362 72.4156887494372228 28.1128704123049964
 35.2324181065489270 62.6518011664742076 28.1128704123049964
 73.2834915332232129 11.3912632045734714 28.1128704123049964
 15.5023024902278443 72.4156887494372228 28.1128704123049964
 -18.3208735097721558 72.4156887494372228 28.1128704123049964
 -7.0465096957521522 72.4156887494372228 28.1128704123049964
 -5.6371824488186855 65.0927547548799765 28.1128704123049964
 -12.6837338817321594 72.4156887494372228 28.1128704123049964
 45.0976239791490272 47.1922087518845075 28.6327538495249954
 22.5488118338042653 42.3103015750729767 28.6327538495249954
 -18.3209155991092061 49.6332355696302230 28.6327538495249954
  1.4093266103086164 69.1610107355562462 28.6327538495249954
 19.7301574618442501 42.3103015750729767 28.6327538495249954
  4.2278964243286037 69.1610107355562462 28.6327538495249954
 56.3719877931690334 47.1922087518845075 28.6327538495249954
 53.5534179791490246 47.1922087518845075 28.6327538495249954
 47.9161937931690360 47.1922087518845075 28.6327538495249954
 -26.7767095991092070 49.6332355696302230 28.6327538495249954
 50.7347636071890307 47.1922087518845075 28.6327538495249954
 -4.2278974131292042 49.6332355696302230 28.6327538495249954
 -9.8651215991092069 49.6332355696302230 28.6327538495249954
 46.5068665868708067 49.6332355696302230 28.6327538495249954
 -15.5022613896913821 69.1610107355562462 28.6327538495249954
 -7.0464673896913883 69.1610107355562462 28.6327538495249954
 -19.7301581661957393 42.3103015750729767 28.6327538495249954
 -14.0930185381557376 42.3103015750729767 28.6327538495249954
 -8.4557943521757366 42.3103015750729767 28.6327538495249954
 -5.6372245381557384 42.3103015750729767 28.6327538495249954
 32.4138484008907994 49.6332355696302230 28.6327538495249954
 15.5022604008907816 49.6332355696302230 28.6327538495249954
 -4.2278975756713866 69.1610107355562462 28.6327538495249954
 -0.0000003521757358 42.3103015750729767 28.6327538495249954
 -1.4092432037113782 69.1610107355562462 28.6327538495249954
 -1.4093275991092098 49.6332355696302230 28.6327538495249954
 42.2789696071890333 47.1922087518845075 28.6327538495249954
 -7.0464672271492059 49.6332355696302230 28.6327538495249954
 11.2743634618442599 42.3103015750729767 28.6327538495249954
 39.4603997931690245 47.1922087518845075 28.6327538495249954
 -22.5488127819696196 71.6020375533019688 28.6327538495249954
 16.9115874040103833 71.6020375533019688 28.6327538495249954
 54.9627029064766432 44.7512551634787386 28.6327538495249954
 43.6882966103086261 69.1610107355562462 28.6327538495249954
 46.5069089064766459 44.7512551634787386 28.6327538495249954
 32.4138907204966458 44.7512551634787386 28.6327538495249954
 -2.8185704100096114 71.6020375533019688 28.6327538495249954
 -39.4604007819696179 71.6020375533019688 28.6327538495249954
 57.7812727204966521 44.7512551634787386 28.6327538495249954
  1.4092845345166412 44.7512551634787386 28.6327538495249954
 -7.0465094654833562 44.7512551634787386 28.6327538495249954
 -33.8231765959896151 71.6020375533019688 28.6327538495249954
 56.3719878338042619 42.3103015750729767 28.6327538495249954
 -8.4557945959896212 71.6020375533019688 28.6327538495249954
 -12.6836490935233588 44.7512551634787386 28.6327538495249954
 -21.1394430935233544 44.7512551634787386 28.6327538495249954
 -36.6417464100096169 71.6020375533019688 28.6327538495249954
 33.8231754040103922 71.6020375533019688 28.6327538495249954
 47.9161938338042646 42.3103015750729767 28.6327538495249954
 -16.9115883928109767 47.1922087518845075 28.6327538495249954
 12.6836904243286224 69.1610107355562462 28.6327538495249954
 25.3673816071890279 47.1922087518845075 28.6327538495249954
 31.0046058338042556 42.3103015750729767 28.6327538495249954
 33.8231756478242644 42.3103015750729767 28.6327538495249954
 19.7302419791490244 47.1922087518845075 28.6327538495249954
 18.3209146103086198 69.1610107355562462 28.6327538495249954
 -19.7301582068309784 47.1922087518845075 28.6327538495249954
 36.6417454618442662 42.3103015750729767 28.6327538495249954
  2.8185692180303707 71.6020375533019688 28.6327538495249954
 45.0975394618442706 42.3103015750729767 28.6327538495249954
  8.4557936071890190 47.1922087518845075 28.6327538495249954
 23.9581387962886225 69.1610107355562462 28.6327538495249954
 35.2325026103086287 69.1610107355562462 28.6327538495249954
  2.8186539791490159 47.1922087518845075 28.6327538495249954
 16.9115876071890092 47.1922087518845075 28.6327538495249954
 15.5023447962886092 69.1610107355562462 28.6327538495249954
 19.7302418572420777 61.8380767409990000 28.6327538495249954
 -25.3673401544768282 52.0741891580359919 28.6327538495249954
 26.7766664126097069 59.3971231525932382 28.6327538495249954
 -9.8651217210161430 64.2791035587447084 28.6327538495249954
 -7.0464673490561447 64.2791035587447084 28.6327538495249954
 18.3208724126097096 59.3971231525932382 28.6327538495249954
 -4.2278975350361501 64.2791035587447084 28.6327538495249954
 15.5023025985896936 59.3971231525932382 28.6327538495249954
 12.6837327845697061 59.3971231525932382 28.6327538495249954
  1.4092844126096999 59.3971231525932382 28.6327538495249954
 -12.6836915350361448 64.2791035587447084 28.6327538495249954
 -4.2278552154303037 59.3971231525932382 28.6327538495249954
 12.6836904649638509 64.2791035587447084 28.6327538495249954
 -32.4138915873902960 59.3971231525932382 28.6327538495249954
 36.6417453399373301 56.9561695641874692 28.6327538495249954
 21.1394844649638500 64.2791035587447084 28.6327538495249954
 -22.5488125381557367 42.3103015750729767 28.6327538495249954
 16.9115875259173158 56.9561695641874692 28.6327538495249954
  2.8185693399373224 56.9561695641874692 28.6327538495249954
 29.5952784649638616 64.2791035587447084 28.6327538495249954
 -23.9580975873902986 59.3971231525932382 28.6327538495249954
 -18.3209157210161457 64.2791035587447084 28.6327538495249954
 32.4138905985897026 59.3971231525932382 28.6327538495249954
 -26.7767097210161431 64.2791035587447084 28.6327538495249954
 14.0930176712620749 61.8380767409990000 28.6327538495249954
 39.4603996712620955 61.8380767409990000 28.6327538495249954
  5.6372236712620847 61.8380767409990000 28.6327538495249954
  2.8186538572420905 61.8380767409990000 28.6327538495249954
 -0.0000005147179177 61.8380767409990000 28.6327538495249954
 -2.8185703287379194 61.8380767409990000 28.6327538495249954
 -5.6371401427579215 61.8380767409990000 28.6327538495249954
 47.9161936712620928 61.8380767409990000 28.6327538495249954
 -8.4557945147179190 61.8380767409990000 28.6327538495249954
 -16.9115885147179164 61.8380767409990000 28.6327538495249954
 -19.7301583287379145 61.8380767409990000 28.6327538495249954
 -22.5487281427579163 61.8380767409990000 28.6327538495249954
 -25.3673825147179137 61.8380767409990000 28.6327538495249954
 -35.2325037210161440 64.2791035587447084 28.6327538495249954
 -29.5952795350361448 64.2791035587447084 28.6327538495249954
 49.3254785985897115 59.3971231525932382 28.6327538495249954
 46.5069087845697027 59.3971231525932382 28.6327538495249954
 40.8696845985897141 59.3971231525932382 28.6327538495249954
 38.0511147845697053 59.3971231525932382 28.6327538495249954
 -5.6372246600626781 56.9561695641874692 28.6327538495249954
 -11.2743642881026744 56.9561695641874692 28.6327538495249954
 -14.0930186600626755 56.9561695641874692 28.6327538495249954
 -19.7301582881026789 56.9561695641874692 28.6327538495249954
 28.1859935376362323 66.7200571471504844 28.6327538495249954
 33.8232177236162386 66.7200571471504844 28.6327538495249954
 50.7348058455231694 52.0741891580359919 28.6327538495249954
 47.9161514735631755 52.0741891580359919 28.6327538495249954
 45.0975816595431809 52.0741891580359919 28.6327538495249954
 36.6417875376362474 66.7200571471504844 28.6327538495249954
 42.2790118455231720 52.0741891580359919 28.6327538495249954
 36.6417876595431693 52.0741891580359919 28.6327538495249954
 33.8232178455231747 52.0741891580359919 28.6327538495249954
 31.0045634735631737 52.0741891580359919 28.6327538495249954
 28.1859936595431719 52.0741891580359919 28.6327538495249954
 22.5487694735631763 52.0741891580359919 28.6327538495249954
 19.7301996595431604 52.0741891580359919 28.6327538495249954
 16.9116298455231728 52.0741891580359919 28.6327538495249954
 11.2744056595431719 52.0741891580359919 28.6327538495249954
 42.2790117236162359 66.7200571471504844 28.6327538495249954
 45.0975815376362448 66.7200571471504844 28.6327538495249954
 -23.9580553896913813 69.1610107355562462 28.6327538495249954
 -22.5487703404568300 52.0741891580359919 28.6327538495249954
 25.3674237236162377 66.7200571471504844 28.6327538495249954
 -21.1394855756713831 69.1610107355562462 28.6327538495249954
 22.5487693516562366 66.7200571471504844 28.6327538495249954
 19.7301995376362349 66.7200571471504844 28.6327538495249954
 38.0510724649638732 64.2791035587447084 28.6327538495249954
 -28.1859522881026763 56.9561695641874692 28.6327538495249954
 49.3255209181955507 54.5151427464417537 28.6327538495249954
 40.8696422789838678 64.2791035587447084 28.6327538495249954
 43.6882967322155622 54.5151427464417537 28.6327538495249954
 46.5068664649638706 64.2791035587447084 28.6327538495249954
 -33.8231342763837688 66.7200571471504844 28.6327538495249954
 35.2325027322155506 54.5151427464417537 28.6327538495249954
 29.5952785462355585 54.5151427464417537 28.6327538495249954
 -31.0045644623637671 66.7200571471504844 28.6327538495249954
 18.3209147322155452 54.5151427464417537 28.6327538495249954
 -28.1859946483437653 66.7200571471504844 28.6327538495249954
  9.8651207322155532 54.5151427464417537 28.6327538495249954
 -8.4557522763837714 66.7200571471504844 28.6327538495249954
  4.2278965462355513 54.5151427464417537 28.6327538495249954
 -12.6836914537644478 54.5151427464417537 28.6327538495249954
 11.2744055376362251 66.7200571471504844 28.6327538495249954
 -15.5022612677844460 54.5151427464417537 28.6327538495249954
 -18.3208310818044460 54.5151427464417537 28.6327538495249954
 -26.7766250818044469 54.5151427464417537 28.6327538495249954
 33.8231755259173212 56.9561695641874692 28.6327538495249954
  1.4092849002374601  0.8136511961352557 28.6327538495249954
 57.7813150401024913 39.8692747573272612 28.6327538495249954
 21.1395271502905153 15.4595191852497500 28.6327538495249954
 15.5023029643105232 15.4595191852497500 28.6327538495249954
 12.6837331502905215 15.4595191852497500 28.6327538495249954
  9.8650787783305205 15.4595191852497500 28.6327538495249954
  7.0465089643105223 15.4595191852497500 28.6327538495249954
  1.4092847783305213 15.4595191852497500 28.6327538495249954
 -7.0465092216694787 15.4595191852497500 28.6327538495249954
 67.6463518916381474 13.0185655968439828 28.6327538495249954
 56.3719880776181483 13.0185655968439828 28.6327538495249954
 53.5533337056581473 13.0185655968439828 28.6327538495249954
 45.0975397056581500 13.0185655968439828 28.6327538495249954
 42.2789698916381340 13.0185655968439828 28.6327538495249954
 23.9580969643105171 15.4595191852497500 28.6327538495249954
 28.1859517056581375 13.0185655968439828 28.6327538495249954
 14.0930180776181420 13.0185655968439828 28.6327538495249954
  5.6372240776181393 13.0185655968439828 28.6327538495249954
  2.8185697056581414 13.0185655968439828 28.6327538495249954
 -0.0000001083618602 13.0185655968439828 28.6327538495249954
 77.5114730979363742 10.5775387790982709 28.6327538495249954
 69.0556790979363768 10.5775387790982709 28.6327538495249954
 66.2371092839163680 10.5775387790982709 28.6327538495249954
 57.7813152839163777 10.5775387790982709 28.6327538495249954
 52.1440910979363750 10.5775387790982709 28.6327538495249954
 43.6882970979363634 10.5775387790982709 28.6327538495249954
 40.8697272839163759 10.5775387790982709 28.6327538495249954
 38.0510729119563607 10.5775387790982709 28.6327538495249954
 25.3673818916381357 13.0185655968439828 28.6327538495249954
 35.2325030979363731 10.5775387790982709 28.6327538495249954
 26.7766667783305188 15.4595191852497500 28.6327538495249954
 38.0511151502905278 15.4595191852497500 28.6327538495249954
 29.5952788306846699 20.3414995914012344 28.6327538495249954
 21.1394848306846654 20.3414995914012344 28.6327538495249954
 18.3209150166646637 20.3414995914012344 28.6327538495249954
 15.5022606447046662 20.3414995914012344 28.6327538495249954
 12.6836908306846716 20.3414995914012344 28.6327538495249954
  9.8651210166646699 20.3414995914012344 28.6327538495249954
  7.0464666447046698 20.3414995914012344 28.6327538495249954
 -1.4093273552953294 20.3414995914012344 28.6327538495249954
 73.2835760369829075 17.9004727736555189 28.6327538495249954
 67.6463518510029047 17.9004727736555189 28.6327538495249954
 62.0092122229629013 17.9004727736555189 28.6327538495249954
 59.1905578510029073 17.9004727736555189 28.6327538495249954
 35.2324607783305126 15.4595191852497500 28.6327538495249954
 45.0976242229628923 17.9004727736555189 28.6327538495249954
 28.1860362229629082 17.9004727736555189 28.6327538495249954
 16.9115878510028992 17.9004727736555189 28.6327538495249954
  8.4557938510029000 17.9004727736555189 28.6327538495249954
 74.6928609643105261 15.4595191852497500 28.6327538495249954
 71.8742911502905173 15.4595191852497500 28.6327538495249954
 69.0556367783305234 15.4595191852497500 28.6327538495249954
 66.2370669643105288 15.4595191852497500 28.6327538495249954
 60.5998427783305331 15.4595191852497500 28.6327538495249954
 57.7812729643105243 15.4595191852497500 28.6327538495249954
 52.1440487783305286 15.4595191852497500 28.6327538495249954
 46.5069091502905181 15.4595191852497500 28.6327538495249954
 43.6882547783305313 15.4595191852497500 28.6327538495249954
 42.2789698510029055 17.9004727736555189 28.6327538495249954
 32.4138486447046574 20.3414995914012344 28.6327538495249954
 26.7767090979363651 10.5775387790982709 28.6327538495249954
 15.5023452839163713 10.5775387790982709 28.6327538495249954
 56.3719881588898417  3.2546047845410229 28.6327538495249954
 50.7347639729098461  3.2546047845410229 28.6327538495249954
 39.4604001588898399  3.2546047845410229 28.6327538495249954
 33.8231759729098371  3.2546047845410229 28.6327538495249954
 31.0046061588898354  3.2546047845410229 28.6327538495249954
 28.1860363448698337  3.2546047845410229 28.6327538495249954
 19.7302423448698399  3.2546047845410229 28.6327538495249954
 14.0930181588898407  3.2546047845410229 28.6327538495249954
 -0.0000000270901599  3.2546047845410229 28.6327538495249954
 83.1486550862174738  0.8136511961352557 28.6327538495249954
 80.3300852721974650  0.8136511961352557 28.6327538495249954
 74.6928610862174764  0.8136511961352557 28.6327538495249954
 62.0092123448698445  3.2546047845410229 28.6327538495249954
 69.0556369002374737  0.8136511961352557 28.6327538495249954
 60.5998429002374621  0.8136511961352557 28.6327538495249954
 52.1440489002374647  0.8136511961352557 28.6327538495249954
 49.3254790862174488  0.8136511961352557 28.6327538495249954
 46.5069092721974613  0.8136511961352557 28.6327538495249954
 43.6882549002374461  0.8136511961352557 28.6327538495249954
 32.4138910862174541  0.8136511961352557 28.6327538495249954
 23.9580970862174638  0.8136511961352557 28.6327538495249954
 21.1395272721974621  0.8136511961352557 28.6327538495249954
 18.3208729002374611  0.8136511961352557 28.6327538495249954
 15.5023030862174611  0.8136511961352557 28.6327538495249954
 12.6837332721974576  0.8136511961352557 28.6327538495249954
  4.2279392721974602  0.8136511961352557 28.6327538495249954
 66.2370670862174649  0.8136511961352557 28.6327538495249954
 23.9581392839163634 10.5775387790982709 28.6327538495249954
 64.8277821588898462  3.2546047845410229 28.6327538495249954
 76.1021459729098524  3.2546047845410229 28.6327538495249954
 12.6836909119563703 10.5775387790982709 28.6327538495249954
  4.2278969119563712 10.5775387790982709 28.6327538495249954
 78.9207580252639929  8.1365851906925037 28.6327538495249954
 76.1021882112439840  8.1365851906925037 28.6327538495249954
 73.2835338392839901  8.1365851906925037 28.6327538495249954
 64.8277398392839928  8.1365851906925037 28.6327538495249954
 62.0091700252639910  8.1365851906925037 28.6327538495249954
 59.1906002112439964  8.1365851906925037 28.6327538495249954
 56.3719458392839954  8.1365851906925037 28.6327538495249954
 50.7348062112439848  8.1365851906925037 28.6327538495249954
 47.9161518392839980  8.1365851906925037 28.6327538495249954
 42.2790122112439946  8.1365851906925037 28.6327538495249954
 73.2835761588898578  3.2546047845410229 28.6327538495249954
 39.4603578392839793  8.1365851906925037 28.6327538495249954
 22.5487698392839881  8.1365851906925037 28.6327538495249954
 11.2744060252639908  8.1365851906925037 28.6327538495249954
  0.0000422112439907  8.1365851906925037 28.6327538495249954
 -2.8186121607160102  8.1365851906925037 28.6327538495249954
 80.3300429525916257  5.6956316022867357 28.6327538495249954
 71.8742489525916284  5.6956316022867357 28.6327538495249954
 63.4184549525916097  5.6956316022867357 28.6327538495249954
 38.0510729525916105  5.6956316022867357 28.6327538495249954
 29.5952789525916060  5.6956316022867357 28.6327538495249954
 12.6836909525916113  5.6956316022867357 28.6327538495249954
  9.8651211385716078  5.6956316022867357 28.6327538495249954
  4.2278969525916086  5.6956316022867357 28.6327538495249954
 33.8232182112439972  8.1365851906925037 28.6327538495249954
 38.0510728306846602 20.3414995914012344 28.6327538495249954
 40.8696426447046761 20.3414995914012344 28.6327538495249954
 46.5068668306846718 20.3414995914012344 28.6327538495249954
 29.5952787087777267 34.9873675805157234 28.6327538495249954
 23.9580545227977240 34.9873675805157234 28.6327538495249954
 21.1394847087777364 34.9873675805157234 28.6327538495249954
 18.3209148947577418 34.9873675805157234 28.6327538495249954
 15.5022605227977337 34.9873675805157234 28.6327538495249954
 12.6836907087777320 34.9873675805157234 28.6327538495249954
  9.8651208947577302 34.9873675805157234 28.6327538495249954
 -9.8651214772022673 34.9873675805157234 28.6327538495249954
 -12.6836912912222672 34.9873675805157234 28.6327538495249954
 -15.5022611052422672 34.9873675805157234 28.6327538495249954
 56.3719879150759695 32.5463407627700150 28.6327538495249954
 50.7347637290959668 32.5463407627700150 28.6327538495249954
 35.2325028947577295 34.9873675805157234 28.6327538495249954
 36.6418301010559517 32.5463407627700150 28.6327538495249954
 16.9115877290959595 32.5463407627700150 28.6327538495249954
 14.0930179150759578 32.5463407627700150 28.6327538495249954
 11.2744481010559561 32.5463407627700150 28.6327538495249954
  8.4557937290959586 32.5463407627700150 28.6327538495249954
  2.8186541010559618 32.5463407627700150 28.6327538495249954
 -2.8185700849240374 32.5463407627700150 28.6327538495249954
 -5.6371398989440404 32.5463407627700150 28.6327538495249954
 -16.9115882709040370 32.5463407627700150 28.6327538495249954
 66.2370668424035927 30.1053871743642461 28.6327538495249954
 63.4184970283835838 30.1053871743642461 28.6327538495249954
 57.7812728424035953 30.1053871743642461 28.6327538495249954
 54.9627030283835865 30.1053871743642461 28.6327538495249954
 22.5488119150759623 32.5463407627700150 28.6327538495249954
 52.1440486564235925 30.1053871743642461 28.6327538495249954
 38.0510727087777383 34.9873675805157234 28.6327538495249954
 57.7812305227977419 34.9873675805157234 28.6327538495249954
 54.9626606681424974 39.8692747573272612 28.6327538495249954
 52.1440908541225028 39.8692747573272612 28.6327538495249954
 40.8697270401024966 39.8692747573272612 28.6327538495249954
 35.2325028541224938 39.8692747573272612 28.6327538495249954
 29.5952786681424982 39.8692747573272612 28.6327538495249954
 23.9581390401024947 39.8692747573272612 28.6327538495249954
 21.1394846681424795 39.8692747573272612 28.6327538495249954
 18.3209148541224920 39.8692747573272612 28.6327538495249954
 15.5023450401024956 39.8692747573272612 28.6327538495249954
  7.0465510401024849 39.8692747573272612 28.6327538495249954
  1.4093268541224926 39.8692747573272612 28.6327538495249954
 -7.0464671458775081 39.8692747573272612 28.6327538495249954
 36.6417452180303869 71.6020375533019688 28.6327538495249954
 59.1905999674301100 37.4283211689214923 28.6327538495249954
 47.9161515954701187 37.4283211689214923 28.6327538495249954
 42.2790119674301152 37.4283211689214923 28.6327538495249954
 39.4603575954701142 37.4283211689214923 28.6327538495249954
 36.6417877814501125 37.4283211689214923 28.6327538495249954
 28.1859937814501045 37.4283211689214923 28.6327538495249954
 16.9116299674301196 37.4283211689214923 28.6327538495249954
 -2.8186124045298877 37.4283211689214923 28.6327538495249954
 -5.6371822185498859 37.4283211689214923 28.6327538495249954
 -8.4557520325698885 37.4283211689214923 28.6327538495249954
 -11.2744064045298860 37.4283211689214923 28.6327538495249954
 -14.0929762185498877 37.4283211689214923 28.6327538495249954
 -16.9115460325698876 37.4283211689214923 28.6327538495249954
 50.7348059674301126 37.4283211689214923 28.6327538495249954
 49.3254788424035837 30.1053871743642461 28.6327538495249954
 46.5069090283835891 30.1053871743642461 28.6327538495249954
 43.6882546564235881 30.1053871743642461 28.6327538495249954
 26.7767089760294326 25.2234067682127652 28.6327538495249954
  4.2278967900494315 25.2234067682127652 28.6327538495249954
 -4.2278972099505676 25.2234067682127652 28.6327538495249954
 -7.0464670239705693 25.2234067682127652 28.6327538495249954
 70.4649639033570594 22.7824531798069998 28.6327538495249954
 67.6463940893370506 22.7824531798069998 28.6327538495249954
 59.1906000893370532 22.7824531798069998 28.6327538495249954
 56.3719457173770593 22.7824531798069998 28.6327538495249954
 50.7348060893370558 22.7824531798069998 28.6327538495249954
 45.0975819033570531 22.7824531798069998 28.6327538495249954
 42.2790120893370442 22.7824531798069998 28.6327538495249954
 39.4603577173770574 22.7824531798069998 28.6327538495249954
 32.4139331620094353 25.2234067682127652 28.6327538495249954
 33.8232180893370540 22.7824531798069998 28.6327538495249954
 28.1859939033570512 22.7824531798069998 28.6327538495249954
 25.3674240893370566 22.7824531798069998 28.6327538495249954
 19.7301999033570468 22.7824531798069998 28.6327538495249954
 11.2744059033570529 22.7824531798069998 28.6327538495249954
  8.4558360893370512 22.7824531798069998 28.6327538495249954
  5.6371817173770493 22.7824531798069998 28.6327538495249954
  2.8186119033570516 22.7824531798069998 28.6327538495249954
  0.0000420893370479 22.7824531798069998 28.6327538495249954
 -2.8186122826229494 22.7824531798069998 28.6327538495249954
 -5.6371820966429516 22.7824531798069998 28.6327538495249954
 57.7812306447046780 20.3414995914012344 28.6327538495249954
 49.3254366447046735 20.3414995914012344 28.6327538495249954
 31.0045637173770388 22.7824531798069998 28.6327538495249954
 43.6882969760294344 25.2234067682127652 28.6327538495249954
 52.1440909760294318 25.2234067682127652 28.6327538495249954
 54.9626607900494406 25.2234067682127652 28.6327538495249954
 38.0511150283835775 30.1053871743642461 28.6327538495249954
 35.2324606564235907 30.1053871743642461 28.6327538495249954
 32.4138908424035748 30.1053871743642461 28.6327538495249954
 26.7766666564235685 30.1053871743642461 28.6327538495249954
 23.9580968424035810 30.1053871743642461 28.6327538495249954
 21.1395270283835863 30.1053871743642461 28.6327538495249954
 18.3208726564235782 30.1053871743642461 28.6327538495249954
  9.8650786564235791 30.1053871743642461 28.6327538495249954
  4.2279390283835818 30.1053871743642461 28.6327538495249954
 -1.4092851575964171 30.1053871743642461 28.6327538495249954
 -4.2278549716164209 30.1053871743642461 28.6327538495249954
 -9.8650791575964192 30.1053871743642461 28.6327538495249954
 67.6463517697312113 27.6644335859584807 28.6327538495249954
 64.8277819557112025 27.6644335859584807 28.6327538495249954
 53.5533335837512112 27.6644335859584807 28.6327538495249954
 45.0975395837512067 27.6644335859584807 28.6327538495249954
 33.8231757697311934 27.6644335859584807 28.6327538495249954
 28.1859515837511907 27.6644335859584807 28.6327538495249954
 25.3673817697312032 27.6644335859584807 28.6327538495249954
 16.9115877697311987 27.6644335859584807 28.6327538495249954
  8.4557937697312031 27.6644335859584807 28.6327538495249954
  5.6372239557112023 27.6644335859584807 28.6327538495249954
 -5.6372244162487979 27.6644335859584807 28.6327538495249954
 -8.4557942302688005 27.6644335859584807 28.6327538495249954
 -11.2743640442888005 27.6644335859584807 28.6327538495249954
 63.4184547900494380 25.2234067682127652 28.6327538495249954
 60.5998849760294434 25.2234067682127652 28.6327538495249954
 60.5998848541225001 39.8692747573272612 28.6327538495249954
 49.3254365227977445 34.9873675805157234 28.6327538495249954
