 H  O 
 1.0000000000000000
    84.5579400000000021    0.0000000000000000    0.0000000000000000
   -42.2789706095346958   73.2293399455724767    0.0000000000000000
     0.0000000000000000    0.0000000000000000   46.9039550000000034
 H   O  
 241 196
Cartesian
 -0.0000000135450799  1.6273023922705114 28.1128704123049964
 45.0975395566610331 30.9190383704995000 28.1128704123049964
 47.9161939286210341 30.9190383704995000 28.1128704123049964
 53.5533335566610376 30.9190383704995000 28.1128704123049964
  2.8185693128471621 60.2107743487284921 28.1128704123049964
 -18.3209154636571903 33.3600651882452155 28.1128704123049964
 -12.6836912776771893 33.3600651882452155 28.1128704123049964
 -7.0465516496371885 33.3600651882452155 28.1128704123049964
  1.4092423503628120 33.3600651882452155 28.1128704123049964
 -5.6372246871528393 60.2107743487284921 28.1128704123049964
 26.7766243503628161 33.3600651882452155 28.1128704123049964
 -19.7301583151928384 60.2107743487284921 28.1128704123049964
 35.2324183503628063 33.3600651882452155 28.1128704123049964
 43.6882123503628037 33.3600651882452155 28.1128704123049964
 49.3254365363428136 33.3600651882452155 28.1128704123049964
 40.8696846121347903 57.7698207603227232 28.1128704123049964
 57.7812305363428109 33.3600651882452155 28.1128704123049964
 60.5998003503628055 33.3600651882452155 28.1128704123049964
 38.0510302401747822 57.7698207603227232 28.1128704123049964
  2.8186117949951930 35.8010187766509844 28.1128704123049964
 32.4138906121347787 57.7698207603227232 28.1128704123049964
 14.0929756090151947 35.8010187766509844 28.1128704123049964
 16.9115454230351894 35.8010187766509844 28.1128704123049964
 22.5487696090151921 35.8010187766509844 28.1128704123049964
 25.3673394230351938 35.8010187766509844 28.1128704123049964
 39.4603576090151904 35.8010187766509844 28.1128704123049964
 47.9161516090151949 35.8010187766509844 28.1128704123049964
 53.5533757949951976 35.8010187766509844 28.1128704123049964
 56.3719456090151922 35.8010187766509844 28.1128704123049964
 35.2324603042478444 72.4156887494372228 28.1128704123049964
 39.4603999286210438 30.9190383704995000 28.1128704123049964
 14.0930179286210446 30.9190383704995000 28.1128704123049964
  5.6372239286210437 30.9190383704995000 28.1128704123049964
 -0.0000002573589589 30.9190383704995000 28.1128704123049964
 38.0510728035945078 23.5961043759422537 28.1128704123049964
 46.5068664785089325 62.6518011664742076 28.1128704123049964
 43.6882969895745106 23.5961043759422537 28.1128704123049964
 40.8696422925289298 62.6518011664742076 28.1128704123049964
 52.1440909895745008 23.5961043759422537 28.1128704123049964
 63.4184548035945070 23.5961043759422537 28.1128704123049964
 35.2324181065489270 62.6518011664742076 28.1128704123049964
 -2.8186545886837178 26.0371311936879657 28.1128704123049964
  5.6371394113162827 26.0371311936879657 28.1128704123049964
 21.1394844785089369 62.6518011664742076 28.1128704123049964
 12.6836904785089395 62.6518011664742076 28.1128704123049964
 -26.7767096261993700 52.8878403541712458 28.1128704123049964
 53.5533335972962803 26.0371311936879657 28.1128704123049964
 56.3719034113162749 26.0371311936879657 28.1128704123049964
 21.1394422401747804 57.7698207603227232 28.1128704123049964
 64.8276974113162794 26.0371311936879657 28.1128704123049964
 -4.2279395160113378 28.4780847820937346 28.1128704123049964
 -7.0465518934510678 62.6518011664742076 28.1128704123049964
 -18.3209157074710660 62.6518011664742076 28.1128704123049964
 -29.5952795214910651 62.6518011664742076 28.1128704123049964
 23.9580968559486607 28.4780847820937346 28.1128704123049964
 26.7766666699686624 28.4780847820937346 28.1128704123049964
 -32.4139338934510661 62.6518011664742076 28.1128704123049964
 32.4138908559486651 28.4780847820937346 28.1128704123049964
 45.0975393128471538 60.2107743487284921 28.1128704123049964
 42.2789694988271592 60.2107743487284921 28.1128704123049964
 25.3673814988271609 60.2107743487284921 28.1128704123049964
 57.7812728559486644 28.4780847820937346 28.1128704123049964
 66.2370668559486688 28.4780847820937346 28.1128704123049964
 -8.4557942573589582 30.9190383704995000 28.1128704123049964
 -9.8650791440513395 28.4780847820937346 28.1128704123049964
 12.6836482401747883 57.7698207603227232 28.1128704123049964
  1.4093268676675752 38.2419723650567462 28.1128704123049964
  9.8651208676675761 38.2419723650567462 28.1128704123049964
 -2.8185701932858982 45.5649063596139996 28.1128704123049964
  2.8185694347540982 45.5649063596139996 28.1128704123049964
 -14.0930186465175975 55.3288671719169614 28.1128704123049964
 14.0930178067140996 45.5649063596139996 28.1128704123049964
 19.7301574347541049 45.5649063596139996 28.1128704123049964
 -28.1860368324975958 55.3288671719169614 28.1128704123049964
 25.3673816207341005 45.5649063596139996 28.1128704123049964
 28.1859514347540951 45.5649063596139996 28.1128704123049964
 31.0046058067141033 45.5649063596139996 28.1128704123049964
 39.4603998067140935 45.5649063596139996 28.1128704123049964
 53.5533334347540944 45.5649063596139996 28.1128704123049964
 -26.7767095855641273 48.0059331773597151 28.1128704123049964
 -21.1394853995841281 48.0059331773597151 28.1128704123049964
 -7.0465517715441273 48.0059331773597151 28.1128704123049964
 -8.4557944605375948 55.3288671719169614 28.1128704123049964
 -4.2278973995841262 48.0059331773597151 28.1128704123049964
 40.8696423738006303 52.8878403541712458 28.1128704123049964
 38.0510726004158641 48.0059331773597151 28.1128704123049964
 29.5952785597806276 52.8878403541712458 28.1128704123049964
 26.7767087457606330 52.8878403541712458 28.1128704123049964
  9.8651207457606311 52.8878403541712458 28.1128704123049964
 -0.0000426988717480 50.4468867657654769 28.1128704123049964
  2.8186116730882564 50.4468867657654769 28.1128704123049964
  5.6371814871082586 50.4468867657654769 28.1128704123049964
 16.9115453011282568 50.4468867657654769 28.1128704123049964
 -4.2278974402193654 52.8878403541712458 28.1128704123049964
 -12.6836914402193699 52.8878403541712458 28.1128704123049964
 36.6417876730882455 50.4468867657654769 28.1128704123049964
 42.2789273011282489 50.4468867657654769 28.1128704123049964
 53.5533756730882544 50.4468867657654769 28.1128704123049964
  1.4092422284558699 48.0059331773597151 28.1128704123049964
 -28.1859946347986892 65.0927547548799765 28.1128704123049964
 -8.4557943792659014 45.5649063596139996 28.1128704123049964
 -16.9115883792659005 45.5649063596139996 28.1128704123049964
 18.3209148676675753 38.2419723650567462 28.1128704123049964
  1.4092844261547897 57.7698207603227232 28.1128704123049964
 57.7812304957075682 38.2419723650567462 28.1128704123049964
 -29.5953217598252145 57.7698207603227232 28.1128704123049964
 -19.7302427105906588 40.6829991828024689 28.1128704123049964
 -16.9115883386306614 40.6829991828024689 28.1128704123049964
 -14.0930185246106596 40.6829991828024689 28.1128704123049964
 -8.4557943386306622 40.6829991828024689 28.1128704123049964
 50.7347635394624064 55.3288671719169614 28.1128704123049964
 -2.8186547105906588 40.6829991828024689 28.1128704123049964
  2.8185694753893440 40.6829991828024689 28.1128704123049964
  5.6371392894093386 40.6829991828024689 28.1128704123049964
 14.0929332894093395 40.6829991828024689 28.1128704123049964
 45.0975393534824036 55.3288671719169614 28.1128704123049964
  2.8185693534824074 55.3288671719169614 28.1128704123049964
 22.5487272894093422 40.6829991828024689 28.1128704123049964
 31.0045212894093325 40.6829991828024689 28.1128704123049964
 36.6417454753893352 40.6829991828024689 28.1128704123049964
 39.4603152894093299 40.6829991828024689 28.1128704123049964
 42.2789696613693309 40.6829991828024689 28.1128704123049964
 53.5533334753893371 40.6829991828024689 28.1128704123049964
 -23.9580974519382757 43.1239527712082307 28.1128704123049964
  1.4092845480617260 43.1239527712082307 28.1128704123049964
  9.8650785480617262 43.1239527712082307 28.1128704123049964
 14.0929331675024070 55.3288671719169614 28.1128704123049964
 26.7766665480617228 43.1239527712082307 28.1128704123049964
 43.6882545480617210 43.1239527712082307 28.1128704123049964
 49.3254787340417238 43.1239527712082307 28.1128704123049964
  5.6371391675024016 55.3288671719169614 28.1128704123049964
 -22.5488125652458997 45.5649063596139996 28.1128704123049964
 42.2789695394624090 55.3288671719169614 28.1128704123049964
 21.1394848035945166 23.5961043759422537 28.1128704123049964
  7.0464662925289359 62.6518011664742076 28.1128704123049964
 12.6836908035945140 23.5961043759422537 28.1128704123049964
 70.4649640388090717  6.5092827984219914 28.1128704123049964
 78.9207580388090690  6.5092827984219914 28.1128704123049964
  4.2278969255014500  8.9502363868277595 28.1128704123049964
 18.3209151114814510  8.9502363868277595 28.1128704123049964
 21.1394849255014528  8.9502363868277595 28.1128704123049964
 23.9580547395214474  8.9502363868277595 28.1128704123049964
 26.7767091114814519  8.9502363868277595 28.1128704123049964
 40.8696427395214528  8.9502363868277595 28.1128704123049964
 -19.7302429544045346 69.9747351610314468 28.1128704123049964
 -22.5488127684245363 69.9747351610314468 28.1128704123049964
 49.3254367395214430  8.9502363868277595 28.1128704123049964
 54.9626609255014458  8.9502363868277595 28.1128704123049964
 63.4184549255014502  8.9502363868277595 28.1128704123049964
 11.2743632315754621 69.9747351610314468 28.1128704123049964
 -31.0046067684245337 69.9747351610314468 28.1128704123049964
 -0.0000000948167802 11.3912632045734714 28.1128704123049964
  8.4557939051832172 11.3912632045734714 28.1128704123049964
 -39.4604007684245346 69.9747351610314468 28.1128704123049964
 33.8231759051832199 11.3912632045734714 28.1128704123049964
 15.5022606176145086 23.5961043759422537 28.1128704123049964
 45.0975397192032190 11.3912632045734714 28.1128704123049964
 50.7347639051832218 11.3912632045734714 28.1128704123049964
 67.6463519051832236 11.3912632045734714 28.1128704123049964
 -4.2279393941043990 13.8322167929792403 28.1128704123049964
  4.2278546058956001 13.8322167929792403 28.1128704123049964
 12.6836486058956019 13.8322167929792403 28.1128704123049964
 23.9580969778556039 13.8322167929792403 28.1128704123049964
 32.4138909778556012 13.8322167929792403 28.1128704123049964
 -33.8231765824445318 69.9747351610314468 28.1128704123049964
 45.0975820388090725  6.5092827984219914 28.1128704123049964
 31.0045638528290759  6.5092827984219914 28.1128704123049964
 28.1859940388090742  6.5092827984219914 28.1128704123049964
 32.4138904902278497 72.4156887494372228 28.1128704123049964
 14.0930181724349168  1.6273023922705114 28.1128704123049964
 16.9115879864549186  1.6273023922705114 28.1128704123049964
  7.0465084902278479 72.4156887494372228 28.1128704123049964
 28.1859518004749177  1.6273023922705114 28.1128704123049964
 33.8231759864549275  1.6273023922705114 28.1128704123049964
 36.6417458004749221  1.6273023922705114 28.1128704123049964
  1.4092843042478451 72.4156887494372228 28.1128704123049964
 53.5533338004749169  1.6273023922705114 28.1128704123049964
 59.1905579864549196  1.6273023922705114 28.1128704123049964
 67.6463519864549170  1.6273023922705114 28.1128704123049964
 -4.2279398817321576 72.4156887494372228 28.1128704123049964
 76.1021459864549144  1.6273023922705114 28.1128704123049964
 -9.8650795097721549 72.4156887494372228 28.1128704123049964
  4.2278969661366892  4.0683292100162243 28.1128704123049964
 21.1394849661366919  4.0683292100162243 28.1128704123049964
 32.4138487801566981  4.0683292100162243 28.1128704123049964
 38.0510729661366938  4.0683292100162243 28.1128704123049964
 46.5068669661366982  4.0683292100162243 28.1128704123049964
 -29.5953218817321577 72.4156887494372228 28.1128704123049964
 54.9626609661366956  4.0683292100162243 28.1128704123049964
 66.2370247801566876  4.0683292100162243 28.1128704123049964
 39.4603150455954648 69.9747351610314468 28.1128704123049964
 28.1859512315754728 69.9747351610314468 28.1128704123049964
 -0.0000423331509293  6.5092827984219914 28.1128704123049964
  8.4557516668490695  6.5092827984219914 28.1128704123049964
 16.9115456668490722  6.5092827984219914 28.1128704123049964
 19.7301572315754683 69.9747351610314468 28.1128704123049964
 16.9115874175554666 69.9747351610314468 28.1128704123049964
 -9.8651217481063078 67.5337083432857384 28.1128704123049964
 54.9626186058955923 13.8322167929792403 28.1128704123049964
 36.6417457192032217 11.3912632045734714 28.1128704123049964
 -18.3209156261993691 52.8878403541712458 28.1128704123049964
 19.7301999169021336 21.1551507875364884 28.1128704123049964
 59.1905578645479835 16.2731703813850075 28.1128704123049964
 36.6417875511813165 65.0927547548799765 28.1128704123049964
  8.4557515449421317 21.1551507875364884 28.1128704123049964
 -0.0000424550578693 21.1551507875364884 28.1128704123049964
 31.0045633652013137 65.0927547548799765 28.1128704123049964
 -8.4558368207786891 65.0927547548799765 28.1128704123049964
 -9.8651213417502497 18.7141971991307194 28.1128704123049964
  4.2278968442297478 18.7141971991307194 28.1128704123049964
 -29.5952795621263043 67.5337083432857384 28.1128704123049964
 12.6836908442297531 18.7141971991307194 28.1128704123049964
 -8.4558364550578684 21.1551507875364884 28.1128704123049964
 28.1859935511813049 65.0927547548799765 28.1128704123049964
 71.8742488442297542 18.7141971991307194 28.1128704123049964
 -2.8186126347986837 65.0927547548799765 28.1128704123049964
 23.9580546582497540 18.7141971991307194 28.1128704123049964
  8.4557511792213162 65.0927547548799765 28.1128704123049964
 40.8696426582497523 18.7141971991307194 28.1128704123049964
 46.5068668442297550 18.7141971991307194 28.1128704123049964
  2.8186115511813119 65.0927547548799765 28.1128704123049964
 15.5022606582497549 18.7141971991307194 28.1128704123049964
 28.1859516785679780 16.2731703813850075 28.1128704123049964
 47.9161940505279844 16.2731703813850075 28.1128704123049964
 16.9115878645479825 16.2731703813850075 28.1128704123049964
 60.5998427918756022 13.8322167929792403 28.1128704123049964
 -21.1394855621263069 67.5337083432857384 28.1128704123049964
  4.2278968035945095 23.5961043759422537 28.1128704123049964
 -25.3674248207786874 65.0927547548799765 28.1128704123049964
 -1.4093273823854895 23.5961043759422537 28.1128704123049964
 -12.6836911964054888 23.5961043759422537 28.1128704123049964
 66.2370669778556049 13.8322167929792403 28.1128704123049964
 31.0045637309221327 21.1551507875364884 28.1128704123049964
 67.6463095449421274 21.1551507875364884 28.1128704123049964
 74.6928609778556023 13.8322167929792403 28.1128704123049964
 -5.6372243214320203 16.2731703813850075 28.1128704123049964
 69.0556367918755996 13.8322167929792403 28.1128704123049964
 54.9626608442297453 18.7141971991307194 28.1128704123049964
 -16.9116308207786865 65.0927547548799765 28.1128704123049964
  8.4557938645479798 16.2731703813850075 28.1128704123049964
 56.3719457309221283 21.1551507875364884 28.1128704123049964
 39.4603574735631781 52.0741891580359919 28.6327538495249954
 -0.0000005147179177 61.8380767409990000 28.6327538495249954
 32.4139327962886199 69.1610107355562462 28.6327538495249954
 35.2325026103086287 69.1610107355562462 28.6327538495249954
 -2.8185704100096114 71.6020375533019688 28.6327538495249954
 25.3673814852820882 61.8380767409990000 28.6327538495249954
 31.0046055899903834 71.6020375533019688 28.6327538495249954
 47.9161514735631755 52.0741891580359919 28.6327538495249954
 31.0046056712620839 61.8380767409990000 28.6327538495249954
 -4.2278975350361501 64.2791035587447084 28.6327538495249954
 16.9115874852820909 61.8380767409990000 28.6327538495249954
  5.6372236712620847 61.8380767409990000 28.6327538495249954
 -28.1859524100096195 71.6020375533019688 28.6327538495249954
 14.0930175899903762 71.6020375533019688 28.6327538495249954
 -12.6836915350361448 64.2791035587447084 28.6327538495249954
 -22.5488127819696196 71.6020375533019688 28.6327538495249954
 -2.8185703287379194 61.8380767409990000 28.6327538495249954
  0.0000418455231652 52.0741891580359919 28.6327538495249954
 -29.5952794537644479 54.5151427464417537 28.6327538495249954
 39.4603996712620955 61.8380767409990000 28.6327538495249954
 -11.2743644100096230 71.6020375533019688 28.6327538495249954
  2.8186538572420905 61.8380767409990000 28.6327538495249954
 -8.4557521544768282 52.0741891580359919 28.6327538495249954
 42.2789695259173328 56.9561695641874692 28.6327538495249954
 -22.5487281427579163 61.8380767409990000 28.6327538495249954
  7.0465085985897025 59.3971231525932382 28.6327538495249954
 -36.6417886483437698 66.7200571471504844 28.6327538495249954
  8.4557935259173256 56.9561695641874692 28.6327538495249954
 16.9115875259173158 56.9561695641874692 28.6327538495249954
 -25.3673402763837679 66.7200571471504844 28.6327538495249954
 42.2790117236162359 66.7200571471504844 28.6327538495249954
 33.8232177236162386 66.7200571471504844 28.6327538495249954
 -2.8185702881026811 56.9561695641874692 28.6327538495249954
 19.7301995376362349 66.7200571471504844 28.6327538495249954
 28.1859513399373292 56.9561695641874692 28.6327538495249954
 16.9116297236162261 66.7200571471504844 28.6327538495249954
 -9.8650794014102949 59.3971231525932382 28.6327538495249954
 14.0929753516562410 66.7200571471504844 28.6327538495249954
 -15.5023035873902977 59.3971231525932382 28.6327538495249954
  5.6371813516562215 66.7200571471504844 28.6327538495249954
 -5.6371824623637705 66.7200571471504844 28.6327538495249954
 -1.4092854014103018 59.3971231525932382 28.6327538495249954
 23.9581387962886225 69.1610107355562462 28.6327538495249954
 -16.9115884740826736 56.9561695641874692 28.6327538495249954
 -25.3673824740826745 56.9561695641874692 28.6327538495249954
 -28.1859523287379155 61.8380767409990000 28.6327538495249954
  7.0465509181955595 54.5151427464417537 28.6327538495249954
 18.3209147322155452 54.5151427464417537 28.6327538495249954
 23.9581389181955480 54.5151427464417537 28.6327538495249954
 -19.7302006483437680 66.7200571471504844 28.6327538495249954
  4.2278964243286037 69.1610107355562462 28.6327538495249954
 35.2325027322155506 54.5151427464417537 28.6327538495249954
 -19.7301582881026789 56.9561695641874692 28.6327538495249954
 -1.4092432037113782 69.1610107355562462 28.6327538495249954
 49.3254785985897115 59.3971231525932382 28.6327538495249954
 15.5023025985896936 59.3971231525932382 28.6327538495249954
 -7.0464673896913883 69.1610107355562462 28.6327538495249954
 -15.5022613896913821 69.1610107355562462 28.6327538495249954
 12.6837327845697061 59.3971231525932382 28.6327538495249954
  9.8650784126096909 59.3971231525932382 28.6327538495249954
 32.4138482789838704 64.2791035587447084 28.6327538495249954
 -4.2278975756713866 69.1610107355562462 28.6327538495249954
  7.0465507962886189 69.1610107355562462 28.6327538495249954
 -19.7302004045298887 37.4283211689214923 28.6327538495249954
 32.4138484008907994 49.6332355696302230 28.6327538495249954
 77.5114730979363742 10.5775387790982709 28.6327538495249954
 19.7301577056581365 13.0185655968439828 28.6327538495249954
 28.1859517056581375 13.0185655968439828 28.6327538495249954
 36.6417457056581313 13.0185655968439828 28.6327538495249954
 39.4604000776181465 13.0185655968439828 28.6327538495249954
 50.7347638916381456 13.0185655968439828 28.6327538495249954
 56.3719880776181483 13.0185655968439828 28.6327538495249954
 64.8277820776181386 13.0185655968439828 28.6327538495249954
 -1.4092850356894804 15.4595191852497500 28.6327538495249954
 38.0511151502905278 15.4595191852497500 28.6327538495249954
 43.6882547783305313 15.4595191852497500 28.6327538495249954
 63.4184971502905270 15.4595191852497500 28.6327538495249954
 69.0556367783305234 15.4595191852497500 28.6327538495249954
 74.6928609643105261 15.4595191852497500 28.6327538495249954
 19.7302422229628966 17.9004727736555189 28.6327538495249954
 28.1860362229629082 17.9004727736555189 28.6327538495249954
 50.7347638510029029 17.9004727736555189 28.6327538495249954
 59.1905578510029073 17.9004727736555189 28.6327538495249954
 64.8277820369829101 17.9004727736555189 28.6327538495249954
 -4.2278971693153311 20.3414995914012344 28.6327538495249954
 15.5022606447046662 20.3414995914012344 28.6327538495249954
 35.2325030166646727 20.3414995914012344 28.6327538495249954
  2.8186119033570516 22.7824531798069998 28.6327538495249954
 25.3674240893370566 22.7824531798069998 28.6327538495249954
 42.2790120893370442 22.7824531798069998 28.6327538495249954
 47.9161517173770548 22.7824531798069998 28.6327538495249954
 53.5533759033570504 22.7824531798069998 28.6327538495249954
 67.6463940893370506 22.7824531798069998 28.6327538495249954
 -7.0464670239705693 25.2234067682127652 28.6327538495249954
 71.8742489119563714 10.5775387790982709 28.6327538495249954
  1.4093269760294336 25.2234067682127652 28.6327538495249954
 46.5068669119563793 10.5775387790982709 28.6327538495249954
 -4.2278970880436288 10.5775387790982709 28.6327538495249954
  4.2279392721974602  0.8136511961352557 28.6327538495249954
  9.8650789002374601  0.8136511961352557 28.6327538495249954
 18.3208729002374611  0.8136511961352557 28.6327538495249954
 23.9580970862174638  0.8136511961352557 28.6327538495249954
 52.1440489002374647  0.8136511961352557 28.6327538495249954
 63.4184972721974631  0.8136511961352557 28.6327538495249954
 71.8742912721974676  0.8136511961352557 28.6327538495249954
 80.3300852721974650  0.8136511961352557 28.6327538495249954
 31.0046061588898354  3.2546047845410229 28.6327538495249954
 36.6418303448698452  3.2546047845410229 28.6327538495249954
 42.2789699729098274  3.2546047845410229 28.6327538495249954
 50.7347639729098461  3.2546047845410229 28.6327538495249954
 70.4650063448698489  3.2546047845410229 28.6327538495249954
 73.2835761588898578  3.2546047845410229 28.6327538495249954
 78.9208003448698463  3.2546047845410229 28.6327538495249954
 81.7393701588898551  3.2546047845410229 28.6327538495249954
 12.6836909525916113  5.6956316022867357 28.6327538495249954
 18.3209151385716105  5.6956316022867357 28.6327538495249954
 26.7767091385716043  5.6956316022867357 28.6327538495249954
 52.1440911385716035  5.6956316022867357 28.6327538495249954
 60.5998851385716151  5.6956316022867357 28.6327538495249954
 66.2370247666116256  5.6956316022867357 28.6327538495249954
 69.0556791385716195  5.6956316022867357 28.6327538495249954
 74.6928187666116230  5.6956316022867357 28.6327538495249954
 31.0045638392839891  8.1365851906925037 28.6327538495249954
 36.6417880252639918  8.1365851906925037 28.6327538495249954
 45.0975820252639821  8.1365851906925037 28.6327538495249954
 47.9161518392839980  8.1365851906925037 28.6327538495249954
 67.6463942112439867  8.1365851906925037 28.6327538495249954
 15.5023452839163713 10.5775387790982709 28.6327538495249954
  9.8651209760294343 25.2234067682127652 28.6327538495249954
 23.9581391620094379 25.2234067682127652 28.6327538495249954
 26.7767089760294326 25.2234067682127652 28.6327538495249954
 28.1859937814501045 37.4283211689214923 28.6327538495249954
 33.8232179674301037 37.4283211689214923 28.6327538495249954
 36.6417877814501125 37.4283211689214923 28.6327538495249954
 42.2790119674301152 37.4283211689214923 28.6327538495249954
 50.7348059674301126 37.4283211689214923 28.6327538495249954
 62.0091697814501188 37.4283211689214923 28.6327538495249954
 -7.0464671458775081 39.8692747573272612 28.6327538495249954
 18.3209148541224920 39.8692747573272612 28.6327538495249954
 26.7767088541224823 39.8692747573272612 28.6327538495249954
 46.5068666681425000 39.8692747573272612 28.6327538495249954
 -19.7301581661957393 42.3103015750729767 28.6327538495249954
 -0.0000003521757358 42.3103015750729767 28.6327538495249954
 16.9115876478242626 42.3103015750729767 28.6327538495249954
 28.1859514618442688 42.3103015750729767 28.6327538495249954
 56.3719878338042619 42.3103015750729767 28.6327538495249954
 -12.6836490935233588 44.7512551634787386 28.6327538495249954
 -7.0465094654833562 44.7512551634787386 28.6327538495249954
  7.0465087204966403 44.7512551634787386 28.6327538495249954
 23.9580967204966342 44.7512551634787386 28.6327538495249954
 35.2324605345166475 44.7512551634787386 28.6327538495249954
  8.4557936071890190 47.1922087518845075 28.6327538495249954
 28.1860359791490147 47.1922087518845075 28.6327538495249954
 42.2789696071890333 47.1922087518845075 28.6327538495249954
 45.0976239791490272 47.1922087518845075 28.6327538495249954
 50.7347636071890307 47.1922087518845075 28.6327538495249954
 -15.5022612271492086 49.6332355696302230 28.6327538495249954
 12.6836905868707941 49.6332355696302230 28.6327538495249954
 21.1394845868707826 49.6332355696302230 28.6327538495249954
 26.7767087728507853 49.6332355696302230 28.6327538495249954
  0.0000419674301133 37.4283211689214923 28.6327538495249954
 -8.4557520325698885 37.4283211689214923 28.6327538495249954
 -11.2744064045298860 37.4283211689214923 28.6327538495249954
 -14.0929762185498877 37.4283211689214923 28.6327538495249954
 29.5952787900494201 25.2234067682127652 28.6327538495249954
 60.5998849760294434 25.2234067682127652 28.6327538495249954
 -14.0930184162487979 27.6644335859584807 28.6327538495249954
 -0.0000002302687971 27.6644335859584807 28.6327538495249954
  2.8185695837512008 27.6644335859584807 28.6327538495249954
  5.6372239557112023 27.6644335859584807 28.6327538495249954
  8.4557937697312031 27.6644335859584807 28.6327538495249954
 11.2743635837511977 27.6644335859584807 28.6327538495249954
 16.9115877697311987 27.6644335859584807 28.6327538495249954
 19.7301575837512004 27.6644335859584807 28.6327538495249954
 28.1859515837511907 27.6644335859584807 28.6327538495249954
 36.6417455837512094 27.6644335859584807 28.6327538495249954
 42.2789697697312050 27.6644335859584807 28.6327538495249954
 45.0975395837512067 27.6644335859584807 28.6327538495249954
 -22.5487703404568300 52.0741891580359919 28.6327538495249954
 50.7347637697312024 27.6644335859584807 28.6327538495249954
 -15.5023033435764184 30.1053871743642461 28.6327538495249954
 -12.6836489716164174 30.1053871743642461 28.6327538495249954
 18.3208726564235782 30.1053871743642461 28.6327538495249954
 63.4184970283835838 30.1053871743642461 28.6327538495249954
 -2.8185700849240374 32.5463407627700150 28.6327538495249954
 16.9115877290959595 32.5463407627700150 28.6327538495249954
 19.7302421010559677 32.5463407627700150 28.6327538495249954
 25.3673817290959498 32.5463407627700150 28.6327538495249954
 31.0046059150759525 32.5463407627700150 28.6327538495249954
 42.2789697290959623 32.5463407627700150 28.6327538495249954
 56.3719879150759695 32.5463407627700150 28.6327538495249954
 -9.8651214772022673 34.9873675805157234 28.6327538495249954
  7.0464665227977319 34.9873675805157234 28.6327538495249954
 12.6836907087777320 34.9873675805157234 28.6327538495249954
 62.0091275837512086 27.6644335859584807 28.6327538495249954
 36.6417452180303869 71.6020375533019688 28.6327538495249954
