 H  O 
 1.0000000000000000
    84.5579400000000021    0.0000000000000000    0.0000000000000000
   -42.2789706095346958   73.2293399455724767    0.0000000000000000
     0.0000000000000000    0.0000000000000000   46.9039550000000034
 H   O  
 200 397
Cartesian
 59.1905154230351869 35.8010187766509844 28.1128704123049964
 12.6836906816875779 38.2419723650567462 28.1128704123049964
  7.0464664957075716 38.2419723650567462 28.1128704123049964
 -12.6836913183124267 38.2419723650567462 28.1128704123049964
 -18.3209155042924259 38.2419723650567462 28.1128704123049964
 50.7347214230351895 35.8010187766509844 28.1128704123049964
 36.6417877949951958 35.8010187766509844 28.1128704123049964
 15.5022604957075725 38.2419723650567462 28.1128704123049964
 -0.0000425769648080 35.8010187766509844 28.1128704123049964
 -14.0929762050048097 35.8010187766509844 28.1128704123049964
 -19.7302003909848089 35.8010187766509844 28.1128704123049964
 49.3254365363428136 33.3600651882452155 28.1128704123049964
 46.5068667223228047 33.3600651882452155 28.1128704123049964
 40.8696425363428091 33.3600651882452155 28.1128704123049964
 23.9580545363428143 33.3600651882452155 28.1128704123049964
 -2.8186123909848098 35.8010187766509844 28.1128704123049964
 35.2325028676675771 38.2419723650567462 28.1128704123049964
 57.7812304957075682 38.2419723650567462 28.1128704123049964
 25.3673816613693432 40.6829991828024689 28.1128704123049964
 31.0046058067141033 45.5649063596139996 28.1128704123049964
 19.7301574347541049 45.5649063596139996 28.1128704123049964
 16.9115876207341032 45.5649063596139996 28.1128704123049964
 -2.8185701932858982 45.5649063596139996 28.1128704123049964
 -8.4557943792659014 45.5649063596139996 28.1128704123049964
 54.9626183620817130 43.1239527712082307 28.1128704123049964
 32.4138907340417219 43.1239527712082307 28.1128704123049964
 23.9580967340417281 43.1239527712082307 28.1128704123049964
 18.3208725480617254 43.1239527712082307 28.1128704123049964
  4.2278543620817208 43.1239527712082307 28.1128704123049964
 -4.2279396379182765 43.1239527712082307 28.1128704123049964
 -15.5023034519382783 43.1239527712082307 28.1128704123049964
 -21.1395276379182775 43.1239527712082307 28.1128704123049964
 -23.9580974519382757 43.1239527712082307 28.1128704123049964
 42.2789696613693309 40.6829991828024689 28.1128704123049964
 21.1394847223228126 33.3600651882452155 28.1128704123049964
 18.3208303503628116 33.3600651882452155 28.1128704123049964
  9.8650363503628089 33.3600651882452155 28.1128704123049964
 53.5533335566610376 30.9190383704995000 28.1128704123049964
 32.4138486176145122 23.5961043759422537 28.1128704123049964
 29.5952788035945140 23.5961043759422537 28.1128704123049964
 21.1394848035945166 23.5961043759422537 28.1128704123049964
  9.8651209895745122 23.5961043759422537 28.1128704123049964
  1.4093269895745080 23.5961043759422537 28.1128704123049964
 -9.8651213823854889 23.5961043759422537 28.1128704123049964
 67.6463095449421274 21.1551507875364884 28.1128704123049964
 64.8277397309221328 21.1551507875364884 28.1128704123049964
 59.1905155449421230 21.1551507875364884 28.1128704123049964
 53.5533759169021195 21.1551507875364884 28.1128704123049964
 36.6417879169021319 21.1551507875364884 28.1128704123049964
 25.3673395449421299 21.1551507875364884 28.1128704123049964
 16.9115455449421290 21.1551507875364884 28.1128704123049964
  8.4557515449421317 21.1551507875364884 28.1128704123049964
  2.8186119169021282 21.1551507875364884 28.1128704123049964
 43.6882969895745106 23.5961043759422537 28.1128704123049964
 36.6417454347540925 45.5649063596139996 28.1128704123049964
 49.3254366176144998 23.5961043759422537 28.1128704123049964
 16.9115877832762855 26.0371311936879657 28.1128704123049964
 16.9115877426410464 30.9190383704995000 28.1128704123049964
 63.4184124839886536 28.4780847820937346 28.1128704123049964
 49.3254788559486528 28.4780847820937346 28.1128704123049964
 40.8696848559486625 28.4780847820937346 28.1128704123049964
 38.0510304839886544 28.4780847820937346 28.1128704123049964
 18.3208726699686650 28.4780847820937346 28.1128704123049964
 12.6836484839886605 28.4780847820937346 28.1128704123049964
  7.0465088559486642 28.4780847820937346 28.1128704123049964
  1.4092846699686612 28.4780847820937346 28.1128704123049964
 -4.2279395160113378 28.4780847820937346 28.1128704123049964
 -7.0465093300313377 28.4780847820937346 28.1128704123049964
 50.7347637832762715 26.0371311936879657 28.1128704123049964
 45.0975395972962758 26.0371311936879657 28.1128704123049964
 25.3673817832762829 26.0371311936879657 28.1128704123049964
 19.7301575972962873 26.0371311936879657 28.1128704123049964
 54.9626608035945097 23.5961043759422537 28.1128704123049964
 49.3254366582497497 18.7141971991307194 28.1128704123049964
 39.4603998067140935 45.5649063596139996 28.1128704123049964
 -26.7767095855641273 48.0059331773597151 28.1128704123049964
 -2.8186126347986837 65.0927547548799765 28.1128704123049964
 -8.4558368207786891 65.0927547548799765 28.1128704123049964
 -11.2744066347986838 65.0927547548799765 28.1128704123049964
 -16.9116308207786865 65.0927547548799765 28.1128704123049964
 -25.3674248207786874 65.0927547548799765 28.1128704123049964
 35.2324181065489270 62.6518011664742076 28.1128704123049964
 25.3673391792213039 65.0927547548799765 28.1128704123049964
 26.7766241065489261 62.6518011664742076 28.1128704123049964
  7.0464662925289359 62.6518011664742076 28.1128704123049964
 -29.5952795214910651 62.6518011664742076 28.1128704123049964
 33.8231754988271618 60.2107743487284921 28.1128704123049964
 19.7301573128471581 60.2107743487284921 28.1128704123049964
  8.4557934988271644 60.2107743487284921 28.1128704123049964
 -0.0000005011728327 60.2107743487284921 28.1128704123049964
  9.8650361065489385 62.6518011664742076 28.1128704123049964
 33.8231331792213084 65.0927547548799765 28.1128704123049964
 42.2789271792213057 65.0927547548799765 28.1128704123049964
 45.0975815511813138 65.0927547548799765 28.1128704123049964
 21.1394421182678336 72.4156887494372228 28.1128704123049964
  7.0465084902278479 72.4156887494372228 28.1128704123049964
  1.4092843042478451 72.4156887494372228 28.1128704123049964
 -18.3208735097721558 72.4156887494372228 28.1128704123049964
 -26.7766675097721567 72.4156887494372228 28.1128704123049964
 -29.5953218817321577 72.4156887494372228 28.1128704123049964
 36.6417452315754701 69.9747351610314468 28.1128704123049964
 33.8231754175554755 69.9747351610314468 28.1128704123049964
 -11.2744489544045354 69.9747351610314468 28.1128704123049964
 -22.5488127684245363 69.9747351610314468 28.1128704123049964
 -33.8231765824445318 69.9747351610314468 28.1128704123049964
 29.5952784378736951 67.5337083432857384 28.1128704123049964
 12.6836904378736932 67.5337083432857384 28.1128704123049964
  9.8651206238536986 67.5337083432857384 28.1128704123049964
 -26.7767097481063061 67.5337083432857384 28.1128704123049964
 -5.6372246871528393 60.2107743487284921 28.1128704123049964
 -14.0930186871528367 60.2107743487284921 28.1128704123049964
 46.5068242401747796 57.7698207603227232 28.1128704123049964
 21.1394422401747804 57.7698207603227232 28.1128704123049964
 -29.5952794402193682 52.8878403541712458 28.1128704123049964
 25.3673393011282471 50.4468867657654769 28.1128704123049964
 16.9115453011282568 50.4468867657654769 28.1128704123049964
 14.0929754871082551 50.4468867657654769 28.1128704123049964
  8.4557513011282524 50.4468867657654769 28.1128704123049964
 -16.9116306988717469 50.4468867657654769 28.1128704123049964
 -19.7302005128917450 50.4468867657654769 28.1128704123049964
 -25.3674246988717442 50.4468867657654769 28.1128704123049964
 40.8696424144358730 48.0059331773597151 28.1128704123049964
 38.0510726004158641 48.0059331773597151 28.1128704123049964
 29.5952786004158739 48.0059331773597151 28.1128704123049964
 15.5022604144358738 48.0059331773597151 28.1128704123049964
 -1.4093275855641247 48.0059331773597151 28.1128704123049964
 -7.0465517715441273 48.0059331773597151 28.1128704123049964
 -12.6836913995841307 48.0059331773597151 28.1128704123049964
 -23.9580552542393690 52.8878403541712458 28.1128704123049964
 45.0975394347540970 45.5649063596139996 28.1128704123049964
 -18.3209156261993691 52.8878403541712458 28.1128704123049964
 -4.2278974402193654 52.8878403541712458 28.1128704123049964
 12.6836482401747883 57.7698207603227232 28.1128704123049964
 -12.6837337598252144 57.7698207603227232 28.1128704123049964
 -26.7766673878652135 57.7698207603227232 28.1128704123049964
 -29.5953217598252145 57.7698207603227232 28.1128704123049964
 22.5487271675023955 55.3288671719169614 28.1128704123049964
 16.9115875394624062 55.3288671719169614 28.1128704123049964
 11.2743633534824053 55.3288671719169614 28.1128704123049964
 -22.5488126465175966 55.3288671719169614 28.1128704123049964
 -31.0046066465175976 55.3288671719169614 28.1128704123049964
 49.3254363738006276 52.8878403541712458 28.1128704123049964
 43.6882967457606384 52.8878403541712458 28.1128704123049964
 38.0510725597806356 52.8878403541712458 28.1128704123049964
 35.2325027457606268 52.8878403541712458 28.1128704123049964
 32.4138483738006258 52.8878403541712458 28.1128704123049964
 -1.4093276261993704 52.8878403541712458 28.1128704123049964
 -9.8651216261993682 52.8878403541712458 28.1128704123049964
 40.8696426582497523 18.7141971991307194 28.1128704123049964
 38.0510301182678390 72.4156887494372228 28.1128704123049964
 35.2324184722697566 18.7141971991307194 28.1128704123049964
 35.2324185941766927  4.0683292100162243 28.1128704123049964
 46.5068246058955950 13.8322167929792403 28.1128704123049964
 26.7766245941766883  4.0683292100162243 28.1128704123049964
 21.1394849661366919  4.0683292100162243 28.1128704123049964
 18.3208305941766909  4.0683292100162243 28.1128704123049964
 12.6836909661366875  4.0683292100162243 28.1128704123049964
 60.5998427918756022 13.8322167929792403 28.1128704123049964
  9.8651211114814483  8.9502363868277595 28.1128704123049964
  7.0464667801566900  4.0683292100162243 28.1128704123049964
 -2.8185699494720202 16.2731703813850075 28.1128704123049964
 -1.4093272198433096  4.0683292100162243 28.1128704123049964
 -0.0000001354520196 16.2731703813850075 28.1128704123049964
 76.1021459864549144  1.6273023922705114 28.1128704123049964
  5.6372240505279780 16.2731703813850075 28.1128704123049964
 19.7301576785679771 16.2731703813850075 28.1128704123049964
 50.7347639864549222  1.6273023922705114 28.1128704123049964
 -8.4557941354520185 16.2731703813850075 28.1128704123049964
 25.3673818645479834 16.2731703813850075 28.1128704123049964
 32.4138909778556012 13.8322167929792403 28.1128704123049964
 43.6882125941766972  4.0683292100162243 28.1128704123049964
 -4.2278970744985491  8.9502363868277595 28.1128704123049964
 23.9580547395214474  8.9502363868277595 28.1128704123049964
 29.5952789255014537  8.9502363868277595 28.1128704123049964
 35.2325031114814493  8.9502363868277595 28.1128704123049964
 43.6882971114814538  8.9502363868277595 28.1128704123049964
 73.2835338528290663  6.5092827984219914 28.1128704123049964
 70.4649640388090717  6.5092827984219914 28.1128704123049964
 40.8696427801566955  4.0683292100162243 28.1128704123049964
 49.3254367395214430  8.9502363868277595 28.1128704123049964
 63.4184549255014502  8.9502363868277595 28.1128704123049964
 22.5487275332232180 11.3912632045734714 28.1128704123049964
 47.9161518528290671  6.5092827984219914 28.1128704123049964
 76.1021459051832210 11.3912632045734714 28.1128704123049964
 77.5113885941766796  4.0683292100162243 28.1128704123049964
 66.2370247801566876  4.0683292100162243 28.1128704123049964
 52.1440065941766875  4.0683292100162243 28.1128704123049964
 57.7812307395214404  8.9502363868277595 28.1128704123049964
 28.1859516785679780 16.2731703813850075 28.1128704123049964
  1.4093271114814494  8.9502363868277595 28.1128704123049964
 47.9161940505279844 16.2731703813850075 28.1128704123049964
 70.4649216785679755 16.2731703813850075 28.1128704123049964
 14.0930181724349168  1.6273023922705114 28.1128704123049964
 23.9580546582497540 18.7141971991307194 28.1128704123049964
 32.4138486582497549 18.7141971991307194 28.1128704123049964
 39.4604000505279870 16.2731703813850075 28.1128704123049964
  5.6372241724349186  1.6273023922705114 28.1128704123049964
 15.5022606582497549 18.7141971991307194 28.1128704123049964
 47.9161941724349276  1.6273023922705114 28.1128704123049964
 33.8231758645479843 16.2731703813850075 28.1128704123049964
 35.2325031385716159  5.6956316022867357 28.6327538495249954
 12.6836909525916113  5.6956316022867357 28.6327538495249954
 -26.7766250818044469 54.5151427464417537 28.6327538495249954
 15.5022607666116095  5.6956316022867357 28.6327538495249954
 53.5533756595431782 52.0741891580359919 28.6327538495249954
 18.3209151385716105  5.6956316022867357 28.6327538495249954
 45.0975816595431809 52.0741891580359919 28.6327538495249954
 21.1394849525916122  5.6956316022867357 28.6327538495249954
 23.9580547666116068  5.6956316022867357 28.6327538495249954
 29.5952789525916060  5.6956316022867357 28.6327538495249954
 32.4138487666116077  5.6956316022867357 28.6327538495249954
 -18.3208310818044460 54.5151427464417537 28.6327538495249954
 19.7301996595431604 52.0741891580359919 28.6327538495249954
 38.0510729525916105  5.6956316022867357 28.6327538495249954
 14.0929754735631594 52.0741891580359919 28.6327538495249954
 11.2744056595431719 52.0741891580359919 28.6327538495249954
  0.0000418455231652 52.0741891580359919 28.6327538495249954
 31.0045634735631737 52.0741891580359919 28.6327538495249954
 -23.9580553896913813 69.1610107355562462 28.6327538495249954
 -12.6836914537644478 54.5151427464417537 28.6327538495249954
 70.4650063448698489  3.2546047845410229 28.6327538495249954
  8.4557935259173256 56.9561695641874692 28.6327538495249954
 -0.0000004740826793 56.9561695641874692 28.6327538495249954
 -2.8185702881026811 56.9561695641874692 28.6327538495249954
 -8.4557944740826727 56.9561695641874692 28.6327538495249954
 -11.2743642881026744 56.9561695641874692 28.6327538495249954
 -16.9115884740826736 56.9561695641874692 28.6327538495249954
 -25.3673824740826745 56.9561695641874692 28.6327538495249954
 -1.4093272333883895  5.6956316022867357 28.6327538495249954
  1.4093271385716108  5.6956316022867357 28.6327538495249954
 18.3208729002374611  0.8136511961352557 28.6327538495249954
 -31.0046066600626737 56.9561695641874692 28.6327538495249954
 52.1440907322155596 54.5151427464417537 28.6327538495249954
 26.7767087322155568 54.5151427464417537 28.6327538495249954
 23.9581389181955480 54.5151427464417537 28.6327538495249954
  4.2278969525916086  5.6956316022867357 28.6327538495249954
  7.0464667666116103  5.6956316022867357 28.6327538495249954
  9.8651211385716078  5.6956316022867357 28.6327538495249954
  9.8651207322155532 54.5151427464417537 28.6327538495249954
  7.0465509181955595 54.5151427464417537 28.6327538495249954
 40.8696427666115980  5.6956316022867357 28.6327538495249954
 -15.5022612677844460 54.5151427464417537 28.6327538495249954
 -14.0929763404568273 52.0741891580359919 28.6327538495249954
 54.9626605868708040 49.6332355696302230 28.6327538495249954
 46.5068669525916008  5.6956316022867357 28.6327538495249954
 16.9115874040103833 71.6020375533019688 28.6327538495249954
 -21.1394854131292078 49.6332355696302230 28.6327538495249954
 19.7301572180303850 71.6020375533019688 28.6327538495249954
  4.2279392721974602  0.8136511961352557 28.6327538495249954
 56.3719877931690334 47.1922087518845075 28.6327538495249954
 25.3673814040103807 71.6020375533019688 28.6327538495249954
 53.5534179791490246 47.1922087518845075 28.6327538495249954
 42.2789696071890333 47.1922087518845075 28.6327538495249954
 28.1859512180303895 71.6020375533019688 28.6327538495249954
 74.6928187666116230  5.6956316022867357 28.6327538495249954
 77.5114731385716169  5.6956316022867357 28.6327538495249954
 33.8231756071890288 47.1922087518845075 28.6327538495249954
 31.0046055899903834 71.6020375533019688 28.6327538495249954
 25.3673816071890279 47.1922087518845075 28.6327538495249954
 19.7302419791490244 47.1922087518845075 28.6327538495249954
  0.0000422112439907  8.1365851906925037 28.6327538495249954
 11.2744479791490271 47.1922087518845075 28.6327538495249954
  5.6372237931690181 47.1922087518845075 28.6327538495249954
  2.8186539791490159 47.1922087518845075 28.6327538495249954
 11.2743632180303894 71.6020375533019688 28.6327538495249954
 69.0556791385716195  5.6956316022867357 28.6327538495249954
 -7.0464672271492059 49.6332355696302230 28.6327538495249954
 -4.2278974131292042 49.6332355696302230 28.6327538495249954
 -28.1859945264368292 52.0741891580359919 28.6327538495249954
 -2.8185704100096114 71.6020375533019688 28.6327538495249954
 52.1440907728507952 49.6332355696302230 28.6327538495249954
 46.5068665868708067 49.6332355696302230 28.6327538495249954
 43.6882967728507978 49.6332355696302230 28.6327538495249954
 40.8696424008908039 49.6332355696302230 28.6327538495249954
 38.0510725868707951 49.6332355696302230 28.6327538495249954
 35.2325027728508005 49.6332355696302230 28.6327538495249954
 32.4138484008907994 49.6332355696302230 28.6327538495249954
 43.6882971385716132  5.6956316022867357 28.6327538495249954
 29.5952785868707942 49.6332355696302230 28.6327538495249954
 21.1394845868707826 49.6332355696302230 28.6327538495249954
 54.9626609525916123  5.6956316022867357 28.6327538495249954
 57.7812307666116141  5.6956316022867357 28.6327538495249954
 12.6836905868707941 49.6332355696302230 28.6327538495249954
  5.6372235899903860 71.6020375533019688 28.6327538495249954
 60.5998851385716151  5.6956316022867357 28.6327538495249954
  4.2278965868707896 49.6332355696302230 28.6327538495249954
  1.4093267728507877 49.6332355696302230 28.6327538495249954
 -1.4093275991092098 49.6332355696302230 28.6327538495249954
 52.1440911385716035  5.6956316022867357 28.6327538495249954
 25.3673815259173274 56.9561695641874692 28.6327538495249954
 36.6417453399373301 56.9561695641874692 28.6327538495249954
 33.8231755259173212 56.9561695641874692 28.6327538495249954
 -4.2278975756713866 69.1610107355562462 28.6327538495249954
 38.0510724649638732 64.2791035587447084 28.6327538495249954
  2.8186543448698407  3.2546047845410229 28.6327538495249954
 29.5952784649638616 64.2791035587447084 28.6327538495249954
 26.7767086509438528 64.2791035587447084 28.6327538495249954
 -1.4092432037113782 69.1610107355562462 28.6327538495249954
  1.4093266103086164 69.1610107355562462 28.6327538495249954
 23.9580542789838589 64.2791035587447084 28.6327538495249954
 21.1394844649638500 64.2791035587447084 28.6327538495249954
 80.3300852721974650  0.8136511961352557 28.6327538495249954
 15.5022602789838597 64.2791035587447084 28.6327538495249954
  9.8651206509438563 64.2791035587447084 28.6327538495249954
  7.0464662789838490 64.2791035587447084 28.6327538495249954
  4.2278964649638544 64.2791035587447084 28.6327538495249954
  1.4093266509438596 64.2791035587447084 28.6327538495249954
  8.4557939729098397  3.2546047845410229 28.6327538495249954
 -7.0464673490561447 64.2791035587447084 28.6327538495249954
 18.3209146103086198 69.1610107355562462 28.6327538495249954
 11.2744483448698372  3.2546047845410229 28.6327538495249954
 21.1394844243286215 69.1610107355562462 28.6327538495249954
 12.6836904649638509 64.2791035587447084 28.6327538495249954
 -12.6836915350361448 64.2791035587447084 28.6327538495249954
 -36.6417886483437698 66.7200571471504844 28.6327538495249954
 -28.1859946483437653 66.7200571471504844 28.6327538495249954
 -26.7766252037113830 69.1610107355562462 28.6327538495249954
 -29.5952795756713840 69.1610107355562462 28.6327538495249954
 -18.3208312037113821 69.1610107355562462 28.6327538495249954
 -15.5022613896913821 69.1610107355562462 28.6327538495249954
 42.2790117236162359 66.7200571471504844 28.6327538495249954
 39.4603573516562420 66.7200571471504844 28.6327538495249954
 33.8232177236162386 66.7200571471504844 28.6327538495249954
 60.5998429002374621  0.8136511961352557 28.6327538495249954
 28.1859935376362323 66.7200571471504844 28.6327538495249954
 -31.0045644623637671 66.7200571471504844 28.6327538495249954
 22.5487693516562366 66.7200571471504844 28.6327538495249954
 63.4184972721974631  0.8136511961352557 28.6327538495249954
 71.8742912721974676  0.8136511961352557 28.6327538495249954
  8.4558357236162376 66.7200571471504844 28.6327538495249954
  0.0000417236162395 66.7200571471504844 28.6327538495249954
 -5.6371824623637705 66.7200571471504844 28.6327538495249954
 -8.4557522763837714 66.7200571471504844 28.6327538495249954
 -19.7302006483437680 66.7200571471504844 28.6327538495249954
 40.8696850862174585  0.8136511961352557 28.6327538495249954
 -7.0464673896913883 69.1610107355562462 28.6327538495249954
 14.0929753516562410 66.7200571471504844 28.6327538495249954
 28.1859513399373292 56.9561695641874692 28.6327538495249954
 16.9115879729098388  3.2546047845410229 28.6327538495249954
 23.9581387962886225 69.1610107355562462 28.6327538495249954
 -33.8231765959896151 71.6020375533019688 28.6327538495249954
 -31.0046067819696169 71.6020375533019688 28.6327538495249954
 23.9580965985897052 59.3971231525932382 28.6327538495249954
 29.5953212721974559  0.8136511961352557 28.6327538495249954
 18.3208724126097096 59.3971231525932382 28.6327538495249954
  9.8650784126096909 59.3971231525932382 28.6327538495249954
 21.1395272721974621  0.8136511961352557 28.6327538495249954
  7.0465085985897025 59.3971231525932382 28.6327538495249954
  4.2279387845697078 59.3971231525932382 28.6327538495249954
 29.5953207845697079 59.3971231525932382 28.6327538495249954
 45.0976243448698426  3.2546047845410229 28.6327538495249954
 -9.8650794014102949 59.3971231525932382 28.6327538495249954
 -25.3673825959896213 71.6020375533019688 28.6327538495249954
 -23.9580975873902986 59.3971231525932382 28.6327538495249954
 -26.7766674014102968 59.3971231525932382 28.6327538495249954
 -29.5952372154302985 59.3971231525932382 28.6327538495249954
 -32.4138915873902960 59.3971231525932382 28.6327538495249954
 50.7347635259173302 56.9561695641874692 28.6327538495249954
 56.3719881588898417  3.2546047845410229 28.6327538495249954
 42.2789695259173328 56.9561695641874692 28.6327538495249954
 47.9161941588898301  3.2546047845410229 28.6327538495249954
 -21.1394855350361439 64.2791035587447084 28.6327538495249954
 39.4604001588898399  3.2546047845410229 28.6327538495249954
 -33.8231765147179146 61.8380767409990000 28.6327538495249954
 47.9161936712620928 61.8380767409990000 28.6327538495249954
 39.4603996712620955 61.8380767409990000 28.6327538495249954
 36.6418298572420866 61.8380767409990000 28.6327538495249954
 26.7767086103086172 69.1610107355562462 28.6327538495249954
 28.1860358572420893 61.8380767409990000 28.6327538495249954
 22.5488121588898416  3.2546047845410229 28.6327538495249954
 22.5488116712620865 61.8380767409990000 28.6327538495249954
 14.0930176712620749 61.8380767409990000 28.6327538495249954
 11.2744478572420874 61.8380767409990000 28.6327538495249954
 49.3254785985897115 59.3971231525932382 28.6327538495249954
 38.0511152721974639  0.8136511961352557 28.6327538495249954
 32.4138910862174541  0.8136511961352557 28.6327538495249954
  2.8186538572420905 61.8380767409990000 28.6327538495249954
 -8.4557945147179190 61.8380767409990000 28.6327538495249954
 -11.2743643287379136 61.8380767409990000 28.6327538495249954
 -14.0929341427579153 61.8380767409990000 28.6327538495249954
 -19.7301583287379145 61.8380767409990000 28.6327538495249954
 -22.5487281427579163 61.8380767409990000 28.6327538495249954
 -25.3673825147179137 61.8380767409990000 28.6327538495249954
 40.8697267962886173 69.1610107355562462 28.6327538495249954
 31.0046061588898354  3.2546047845410229 28.6327538495249954
 26.7766664126097069 59.3971231525932382 28.6327538495249954
 28.1859940252639873  8.1365851906925037 28.6327538495249954
  5.6371818392839907  8.1365851906925037 28.6327538495249954
 59.1905577697312140 27.6644335859584807 28.6327538495249954
 56.3719879557112051 27.6644335859584807 28.6327538495249954
 53.5533335837512112 27.6644335859584807 28.6327538495249954
 56.3719880776181483 13.0185655968439828 28.6327538495249954
 64.8277820776181386 13.0185655968439828 28.6327538495249954
 36.6417455837512094 27.6644335859584807 28.6327538495249954
 33.8231757697311934 27.6644335859584807 28.6327538495249954
 28.1859515837511907 27.6644335859584807 28.6327538495249954
 22.5488119557112086 27.6644335859584807 28.6327538495249954
 67.6463518916381474 13.0185655968439828 28.6327538495249954
 50.7347638916381456 13.0185655968439828 28.6327538495249954
 70.4649217056581421 13.0185655968439828 28.6327538495249954
 73.2835760776181360 13.0185655968439828 28.6327538495249954
 76.1021458916381448 13.0185655968439828 28.6327538495249954
 -2.8185700442888009 27.6644335859584807 28.6327538495249954
 -8.4557942302688005 27.6644335859584807 28.6327538495249954
 69.0556789760294407 25.2234067682127652 28.6327538495249954
 63.4184547900494380 25.2234067682127652 28.6327538495249954
 60.5998849760294434 25.2234067682127652 28.6327538495249954
 57.7813151620094345 25.2234067682127652 28.6327538495249954
 54.9626607900494406 25.2234067682127652 28.6327538495249954
 46.5068667900494361 25.2234067682127652 28.6327538495249954
  8.4557937697312031 27.6644335859584807 28.6327538495249954
  1.4092847783305213 15.4595191852497500 28.6327538495249954
 64.8277819557112025 27.6644335859584807 28.6327538495249954
 -1.4092851575964171 30.1053871743642461 28.6327538495249954
 36.6417457056581313 13.0185655968439828 28.6327538495249954
 14.0930179150759578 32.5463407627700150 28.6327538495249954
 42.2789698916381340 13.0185655968439828 28.6327538495249954
  5.6372239150759640 32.5463407627700150 28.6327538495249954
  2.8186541010559618 32.5463407627700150 28.6327538495249954
 -0.0000002709040391 32.5463407627700150 28.6327538495249954
 -2.8185700849240374 32.5463407627700150 28.6327538495249954
 -5.6371398989440404 32.5463407627700150 28.6327538495249954
 -11.2743640849240396 32.5463407627700150 28.6327538495249954
 -14.0929338989440378 32.5463407627700150 28.6327538495249954
 67.6463517697312113 27.6644335859584807 28.6327538495249954
 -16.9115882709040370 32.5463407627700150 28.6327538495249954
 57.7812728424035953 30.1053871743642461 28.6327538495249954
 49.3254788424035837 30.1053871743642461 28.6327538495249954
 43.6882546564235881 30.1053871743642461 28.6327538495249954
 38.0511150283835775 30.1053871743642461 28.6327538495249954
 35.2324606564235907 30.1053871743642461 28.6327538495249954
 26.7766666564235685 30.1053871743642461 28.6327538495249954
 23.9580968424035810 30.1053871743642461 28.6327538495249954
 21.1395270283835863 30.1053871743642461 28.6327538495249954
 47.9161940776181368 13.0185655968439828 28.6327538495249954
 15.5023028424035783 30.1053871743642461 28.6327538495249954
 66.2370668424035927 30.1053871743642461 28.6327538495249954
 40.8697271620094256 25.2234067682127652 28.6327538495249954
 38.0510727900494388 25.2234067682127652 28.6327538495249954
  9.8650787783305205 15.4595191852497500 28.6327538495249954
 -0.0000001489970986 17.9004727736555189 28.6327538495249954
 52.1440910166646745 20.3414995914012344 28.6327538495249954
 46.5068668306846718 20.3414995914012344 28.6327538495249954
 38.0510728306846602 20.3414995914012344 28.6327538495249954
  2.8186542229628988 17.9004727736555189 28.6327538495249954
 32.4138486447046574 20.3414995914012344 28.6327538495249954
 29.5952788306846699 20.3414995914012344 28.6327538495249954
 11.2744482229629011 17.9004727736555189 28.6327538495249954
 21.1394848306846654 20.3414995914012344 28.6327538495249954
 18.3209150166646637 20.3414995914012344 28.6327538495249954
 54.9626608306846691 20.3414995914012344 28.6327538495249954
  4.2278968306846716 20.3414995914012344 28.6327538495249954
  1.4093270166646681 20.3414995914012344 28.6327538495249954
 -1.4093273552953294 20.3414995914012344 28.6327538495249954
 -7.0464669833353293 20.3414995914012344 28.6327538495249954
 70.4650062229628986 17.9004727736555189 28.6327538495249954
 67.6463518510029047 17.9004727736555189 28.6327538495249954
 64.8277820369829101 17.9004727736555189 28.6327538495249954
 62.0092122229629013 17.9004727736555189 28.6327538495249954
 53.5534182229629039 17.9004727736555189 28.6327538495249954
 50.7347638510029029 17.9004727736555189 28.6327538495249954
 45.0976242229628923 17.9004727736555189 28.6327538495249954
 31.0046060369829029 17.9004727736555189 28.6327538495249954
 74.6928609643105261 15.4595191852497500 28.6327538495249954
 63.4184548306846807 20.3414995914012344 28.6327538495249954
 66.2370669643105288 15.4595191852497500 28.6327538495249954
 15.5023029643105232 15.4595191852497500 28.6327538495249954
 15.5023451620094264 25.2234067682127652 28.6327538495249954
  9.8651209760294343 25.2234067682127652 28.6327538495249954
  7.0465511620094325 25.2234067682127652 28.6327538495249954
  4.2278967900494315 25.2234067682127652 28.6327538495249954
  1.4093269760294336 25.2234067682127652 28.6327538495249954
 -1.4092428379905699 25.2234067682127652 28.6327538495249954
 -4.2278972099505676 25.2234067682127652 28.6327538495249954
 -7.0464670239705693 25.2234067682127652 28.6327538495249954
 -12.6836912099505668 25.2234067682127652 28.6327538495249954
 70.4649639033570594 22.7824531798069998 28.6327538495249954
 62.0091699033570620 22.7824531798069998 28.6327538495249954
 50.7348060893370558 22.7824531798069998 28.6327538495249954
 23.9580969643105171 15.4595191852497500 28.6327538495249954
 39.4603577173770574 22.7824531798069998 28.6327538495249954
 29.5953211502905269 15.4595191852497500 28.6327538495249954
 28.1859939033570512 22.7824531798069998 28.6327538495249954
 22.5487697173770485 22.7824531798069998 28.6327538495249954
 19.7301999033570468 22.7824531798069998 28.6327538495249954
 14.0929757173770476 22.7824531798069998 28.6327538495249954
  5.6371817173770493 22.7824531798069998 28.6327538495249954
 43.6882547783305313 15.4595191852497500 28.6327538495249954
 69.0556790166646692 20.3414995914012344 28.6327538495249954
 28.1859517056581375 13.0185655968439828 28.6327538495249954
 25.3673817290959498 32.5463407627700150 28.6327538495249954
 33.8231757290959649 32.5463407627700150 28.6327538495249954
 36.6418301010559517 32.5463407627700150 28.6327538495249954
 76.1021882112439840  8.1365851906925037 28.6327538495249954
 -8.4557943521757366 42.3103015750729767 28.6327538495249954
 -11.2743641661957401 42.3103015750729767 28.6327538495249954
 -19.7301581661957393 42.3103015750729767 28.6327538495249954
 26.7767090979363651 10.5775387790982709 28.6327538495249954
 46.5068669119563793 10.5775387790982709 28.6327538495249954
 60.5998848541225001 39.8692747573272612 28.6327538495249954
 57.7813150401024913 39.8692747573272612 28.6327538495249954
 54.9626606681424974 39.8692747573272612 28.6327538495249954
 52.1440908541225028 39.8692747573272612 28.6327538495249954
 -0.0000003521757358 42.3103015750729767 28.6327538495249954
 46.5068666681425000 39.8692747573272612 28.6327538495249954
 40.8697270401024966 39.8692747573272612 28.6327538495249954
 38.0510726681424956 39.8692747573272612 28.6327538495249954
 29.5952786681424982 39.8692747573272612 28.6327538495249954
 57.7813152839163777 10.5775387790982709 28.6327538495249954
  9.8651208541224857 39.8692747573272612 28.6327538495249954
  7.0465510401024849 39.8692747573272612 28.6327538495249954
  4.2278966681424874 39.8692747573272612 28.6327538495249954
 -1.4092429598975091 39.8692747573272612 28.6327538495249954
 -7.0464671458775081 39.8692747573272612 28.6327538495249954
 -9.8650369598975125 39.8692747573272612 28.6327538495249954
 54.9626609119563767 10.5775387790982709 28.6327538495249954
 67.6463942112439867  8.1365851906925037 28.6327538495249954
  8.4557936478242581 42.3103015750729767 28.6327538495249954
 14.0930178338042680 42.3103015750729767 28.6327538495249954
 -16.9115883928109767 47.1922087518845075 28.6327538495249954
 -19.7301582068309784 47.1922087518845075 28.6327538495249954
 -22.5487280208509766 47.1922087518845075 28.6327538495249954
 14.0929758392839890  8.1365851906925037 28.6327538495249954
 49.3254787204966547 44.7512551634787386 28.6327538495249954
 19.7302000252639935  8.1365851906925037 28.6327538495249954
 40.8696847204966431 44.7512551634787386 28.6327538495249954
 25.3674242112439856  8.1365851906925037 28.6327538495249954
 35.2324605345166475 44.7512551634787386 28.6327538495249954
 36.6418302229629020 17.9004727736555189 28.6327538495249954
 33.8232182112439972  8.1365851906925037 28.6327538495249954
 15.5023027204966439 44.7512551634787386 28.6327538495249954
 -7.0465094654833562 44.7512551634787386 28.6327538495249954
 -9.8650792795033553 44.7512551634787386 28.6327538495249954
 -18.3208732795033562 44.7512551634787386 28.6327538495249954
 59.1905576478242708 42.3103015750729767 28.6327538495249954
 50.7347636478242734 42.3103015750729767 28.6327538495249954
 47.9161938338042646 42.3103015750729767 28.6327538495249954
 39.4603998338042672 42.3103015750729767 28.6327538495249954
 36.6417454618442662 42.3103015750729767 28.6327538495249954
 28.1859514618442688 42.3103015750729767 28.6327538495249954
 59.1906002112439964  8.1365851906925037 28.6327538495249954
 19.7301574618442501 42.3103015750729767 28.6327538495249954
 -12.6836913318575100 39.8692747573272612 28.6327538495249954
 -5.6371400208509774 47.1922087518845075 28.6327538495249954
 -15.5022611458775117 39.8692747573272612 28.6327538495249954
 -21.1394853318575109 39.8692747573272612 28.6327538495249954
 -2.8185699223818586 13.0185655968439828 28.6327538495249954
 35.2325028947577295 34.9873675805157234 28.6327538495249954
 26.7767088947577392 34.9873675805157234 28.6327538495249954
 23.9580545227977240 34.9873675805157234 28.6327538495249954
 18.3209148947577418 34.9873675805157234 28.6327538495249954
 15.5022605227977337 34.9873675805157234 28.6327538495249954
 12.6836907087777320 34.9873675805157234 28.6327538495249954
  9.8651208947577302 34.9873675805157234 28.6327538495249954
  1.4093268947577322 34.9873675805157234 28.6327538495249954
 -0.0000001083618602 13.0185655968439828 28.6327538495249954
 38.0510727087777383 34.9873675805157234 28.6327538495249954
  2.8185697056581414 13.0185655968439828 28.6327538495249954
 -12.6836912912222672 34.9873675805157234 28.6327538495249954
  8.4557938916381428 13.0185655968439828 28.6327538495249954
 -15.5022611052422672 34.9873675805157234 28.6327538495249954
 14.0930180776181420 13.0185655968439828 28.6327538495249954
 64.8277819150759740 32.5463407627700150 28.6327538495249954
 56.3719879150759695 32.5463407627700150 28.6327538495249954
 16.9115878916381419 13.0185655968439828 28.6327538495249954
 22.5488120776181340 13.0185655968439828 28.6327538495249954
 45.0976241010559633 32.5463407627700150 28.6327538495249954
 25.3673818916381357 13.0185655968439828 28.6327538495249954
 -4.2278972912222672 34.9873675805157234 28.6327538495249954
 -5.6372242943418591 13.0185655968439828 28.6327538495249954
 52.1440908947577384 34.9873675805157234 28.6327538495249954
 33.8231754040103922 71.6020375533019688 28.6327538495249954
 62.0091697814501188 37.4283211689214923 28.6327538495249954
 60.5998850979363723 10.5775387790982709 28.6327538495249954
 53.5533757814501215 37.4283211689214923 28.6327538495249954
 50.7348059674301126 37.4283211689214923 28.6327538495249954
 47.9161515954701187 37.4283211689214923 28.6327538495249954
 45.0975817814501099 37.4283211689214923 28.6327538495249954
 39.4603575954701142 37.4283211689214923 28.6327538495249954
 63.4184549119563812 10.5775387790982709 28.6327538495249954
 31.0045635954701204 37.4283211689214923 28.6327538495249954
 25.3674239674301170 37.4283211689214923 28.6327538495249954
 19.7301997814501142 37.4283211689214923 28.6327538495249954
 16.9116299674301196 37.4283211689214923 28.6327538495249954
 66.2371092839163680 10.5775387790982709 28.6327538495249954
 69.0556790979363768 10.5775387790982709 28.6327538495249954
 11.2744057814501097 37.4283211689214923 28.6327538495249954
 74.6929032839163654 10.5775387790982709 28.6327538495249954
  2.8186117814501150 37.4283211689214923 28.6327538495249954
 -8.4557520325698885 37.4283211689214923 28.6327538495249954
 -11.2744064045298860 37.4283211689214923 28.6327538495249954
 -16.9115460325698876 37.4283211689214923 28.6327538495249954
 77.5114730979363742 10.5775387790982709 28.6327538495249954
 63.4184547087777446 34.9873675805157234 28.6327538495249954
 60.5998848947577358 34.9873675805157234 28.6327538495249954
 -18.3208309598975099 39.8692747573272612 28.6327538495249954
  1.4092849002374601  0.8136511961352557 28.6327538495249954
