 H  O 
 1.0000000000000000
    84.5579400000000021    0.0000000000000000    0.0000000000000000
   -42.2789706095346958   73.2293399455724767    0.0000000000000000
     0.0000000000000000    0.0000000000000000   46.9039550000000034
 H   O  
 261 164
Cartesian
 -0.0000000135450799  1.6273023922705114 28.1128704123049964
 -1.4093274636571897 33.3600651882452155 28.1128704123049964
 -0.0000005011728327 60.2107743487284921 28.1128704123049964
 -5.6372246871528393 60.2107743487284921 28.1128704123049964
 -14.0930186871528367 60.2107743487284921 28.1128704123049964
 -16.9115885011728366 60.2107743487284921 28.1128704123049964
 26.7766243503628161 33.3600651882452155 28.1128704123049964
 35.2324183503628063 33.3600651882452155 28.1128704123049964
 -31.0046066871528367 60.2107743487284921 28.1128704123049964
 43.6882123503628037 33.3600651882452155 28.1128704123049964
 -19.7302003909848089 35.8010187766509844 28.1128704123049964
 -11.2744063909848098 35.8010187766509844 28.1128704123049964
 -8.4558365769648098 35.8010187766509844 28.1128704123049964
 -0.0000425769648080 35.8010187766509844 28.1128704123049964
  2.8186117949951930 35.8010187766509844 28.1128704123049964
  5.6371816090151947 35.8010187766509844 28.1128704123049964
  8.4557514230351885 35.8010187766509844 28.1128704123049964
 11.2744057949951930 35.8010187766509844 28.1128704123049964
 32.4138484957075690 38.2419723650567462 28.1128704123049964
 26.7767088676675797 38.2419723650567462 28.1128704123049964
  9.8650784261547866 57.7698207603227232 28.1128704123049964
 18.3208724261547857 57.7698207603227232 28.1128704123049964
 -15.5022611323324266 38.2419723650567462 28.1128704123049964
 56.3719456090151922 35.8010187766509844 28.1128704123049964
 -9.8651214636571893 33.3600651882452155 28.1128704123049964
 50.7347214230351895 35.8010187766509844 28.1128704123049964
 47.9161516090151949 35.8010187766509844 28.1128704123049964
 45.0975817949951860 35.8010187766509844 28.1128704123049964
 31.0045636090151895 35.8010187766509844 28.1128704123049964
 28.1859937949951949 35.8010187766509844 28.1128704123049964
 22.5487696090151921 35.8010187766509844 28.1128704123049964
 16.9115454230351894 35.8010187766509844 28.1128704123049964
 -33.8231765011728385 60.2107743487284921 28.1128704123049964
 35.2325028676675771 38.2419723650567462 28.1128704123049964
  8.4557934988271644 60.2107743487284921 28.1128704123049964
 64.8277819286210502 30.9190383704995000 28.1128704123049964
 -18.3209157074710660 62.6518011664742076 28.1128704123049964
 47.9161094113162704 26.0371311936879657 28.1128704123049964
 50.7347637832762715 26.0371311936879657 28.1128704123049964
 -23.9581398934510652 62.6518011664742076 28.1128704123049964
 56.3719034113162749 26.0371311936879657 28.1128704123049964
 64.8276974113162794 26.0371311936879657 28.1128704123049964
 45.0975393128471538 60.2107743487284921 28.1128704123049964
 -15.5023033300313369 28.4780847820937346 28.1128704123049964
 -12.6837335160113369 28.4780847820937346 28.1128704123049964
 -15.5022612542393716 52.8878403541712458 28.1128704123049964
 39.4603996848071645 60.2107743487284921 28.1128704123049964
  1.4092846699686612 28.4780847820937346 28.1128704123049964
 33.8231754988271618 60.2107743487284921 28.1128704123049964
  9.8650786699686659 28.4780847820937346 28.1128704123049964
 15.5023028559486651 28.4780847820937346 28.1128704123049964
 18.3208726699686650 28.4780847820937346 28.1128704123049964
 23.9580968559486607 28.4780847820937346 28.1128704123049964
 59.1905577426410403 30.9190383704995000 28.1128704123049964
 56.3719879286210457 30.9190383704995000 28.1128704123049964
 47.9161939286210341 30.9190383704995000 28.1128704123049964
 31.0046059286210465 30.9190383704995000 28.1128704123049964
 16.9115874988271635 60.2107743487284921 28.1128704123049964
 -16.9115882573589573 30.9190383704995000 28.1128704123049964
 -15.5023456496371885 33.3600651882452155 28.1128704123049964
 63.4184124839886536 28.4780847820937346 28.1128704123049964
 49.3254788559486528 28.4780847820937346 28.1128704123049964
 22.5488116848071662 60.2107743487284921 28.1128704123049964
 40.8696848559486625 28.4780847820937346 28.1128704123049964
 32.4138908559486651 28.4780847820937346 28.1128704123049964
 25.3673814988271609 60.2107743487284921 28.1128704123049964
 26.7766666699686624 28.4780847820937346 28.1128704123049964
 60.5998426699686590 28.4780847820937346 28.1128704123049964
 40.8696424957075664 38.2419723650567462 28.1128704123049964
 49.3254364957075708 38.2419723650567462 28.1128704123049964
 52.1440908676675789 38.2419723650567462 28.1128704123049964
 16.9115876207341032 45.5649063596139996 28.1128704123049964
 25.3673816207341005 45.5649063596139996 28.1128704123049964
 31.0046058067141033 45.5649063596139996 28.1128704123049964
 42.2789696207341024 45.5649063596139996 28.1128704123049964
 -16.9115884605376010 55.3288671719169614 28.1128704123049964
 50.7347636207340997 45.5649063596139996 28.1128704123049964
 56.3719878067141025 45.5649063596139996 28.1128704123049964
 -15.5023457715441282 48.0059331773597151 28.1128704123049964
 -9.8651215855641290 48.0059331773597151 28.1128704123049964
 -4.2278973995841262 48.0059331773597151 28.1128704123049964
 -1.4093275855641247 48.0059331773597151 28.1128704123049964
 -31.0046066465175976 55.3288671719169614 28.1128704123049964
  4.2278966004158747 48.0059331773597151 28.1128704123049964
 15.5022604144358738 48.0059331773597151 28.1128704123049964
 49.3254363738006276 52.8878403541712458 28.1128704123049964
 35.2324182284558631 48.0059331773597151 28.1128704123049964
 38.0510726004158641 48.0059331773597151 28.1128704123049964
 -23.9580552542393690 52.8878403541712458 28.1128704123049964
 -29.5952794402193682 52.8878403541712458 28.1128704123049964
  7.0464663738006301 52.8878403541712458 28.1128704123049964
 31.0045634871082498 50.4468867657654769 28.1128704123049964
 28.1859936730882552 50.4468867657654769 28.1128704123049964
 22.5487694871082525 50.4468867657654769 28.1128704123049964
 -14.0930186465175975 55.3288671719169614 28.1128704123049964
 12.6836905597806329 52.8878403541712458 28.1128704123049964
  2.8186116730882564 50.4468867657654769 28.1128704123049964
 -19.7302005128917450 50.4468867657654769 28.1128704123049964
 40.8696423738006303 52.8878403541712458 28.1128704123049964
 52.1440062284558650 48.0059331773597151 28.1128704123049964
 49.3254364144358703 48.0059331773597151 28.1128704123049964
 40.8696424144358730 48.0059331773597151 28.1128704123049964
 35.2325027457606268 52.8878403541712458 28.1128704123049964
 11.2743634347540986 45.5649063596139996 28.1128704123049964
 -11.2744488324975958 55.3288671719169614 28.1128704123049964
  2.8185694347540982 45.5649063596139996 28.1128704123049964
 42.2789696613693309 40.6829991828024689 28.1128704123049964
 39.4603152894093299 40.6829991828024689 28.1128704123049964
 36.6417454753893352 40.6829991828024689 28.1128704123049964
 25.3673816613693432 40.6829991828024689 28.1128704123049964
 22.5487272894093422 40.6829991828024689 28.1128704123049964
 -26.7766673878652135 57.7698207603227232 28.1128704123049964
 47.9161092894093343 40.6829991828024689 28.1128704123049964
 14.0929332894093395 40.6829991828024689 28.1128704123049964
 -0.0000003386306579 40.6829991828024689 28.1128704123049964
 -5.6372245246106605 40.6829991828024689 28.1128704123049964
 -11.2744487105906597 40.6829991828024689 28.1128704123049964
 -16.9115883386306614 40.6829991828024689 28.1128704123049964
 -19.7302427105906588 40.6829991828024689 28.1128704123049964
 -22.5488125246106605 40.6829991828024689 28.1128704123049964
 -15.5023035738452162 57.7698207603227232 28.1128704123049964
 39.4603154113162731 26.0371311936879657 28.1128704123049964
 50.7347636613693425 40.6829991828024689 28.1128704123049964
 56.3719032894093317 40.6829991828024689 28.1128704123049964
 -5.6372246465175939 55.3288671719169614 28.1128704123049964
 -0.0000004605375943 55.3288671719169614 28.1128704123049964
  2.8185693534824074 55.3288671719169614 28.1128704123049964
 11.2743633534824053 55.3288671719169614 28.1128704123049964
 -19.7301581932858987 45.5649063596139996 28.1128704123049964
 57.7812727340417212 43.1239527712082307 28.1128704123049964
 31.0045211675023928 55.3288671719169614 28.1128704123049964
 43.6882545480617210 43.1239527712082307 28.1128704123049964
 32.4138907340417219 43.1239527712082307 28.1128704123049964
 22.5487271675023955 55.3288671719169614 28.1128704123049964
 26.7766665480617228 43.1239527712082307 28.1128704123049964
 18.3208725480617254 43.1239527712082307 28.1128704123049964
 -1.4092852659582757 43.1239527712082307 28.1128704123049964
 -23.9580974519382757 43.1239527712082307 28.1128704123049964
 35.2324605480617166 43.1239527712082307 28.1128704123049964
 -12.6836915214910633 62.6518011664742076 28.1128704123049964
 -4.2279395160113378 28.4780847820937346 28.1128704123049964
 21.1394844785089369 62.6518011664742076 28.1128704123049964
 -1.4093272604785494  8.9502363868277595 28.1128704123049964
 25.3673814175554639 69.9747351610314468 28.1128704123049964
 32.4138487395214483  8.9502363868277595 28.1128704123049964
 22.5487270455954629 69.9747351610314468 28.1128704123049964
  5.6371390455954664 69.9747351610314468 28.1128704123049964
 46.5068669255014484  8.9502363868277595 28.1128704123049964
 60.5998851114814414  8.9502363868277595 28.1128704123049964
 69.0556791114814530  8.9502363868277595 28.1128704123049964
 74.6928187395214422  8.9502363868277595 28.1128704123049964
 77.5114731114814504  8.9502363868277595 28.1128704123049964
 -2.8186544667767790 11.3912632045734714 28.1128704123049964
 -8.4557945824445344 69.9747351610314468 28.1128704123049964
  5.6371395332232206 11.3912632045734714 28.1128704123049964
 -16.9115885824445336 69.9747351610314468 28.1128704123049964
 14.0929335332232206 11.3912632045734714 28.1128704123049964
 -31.0046067684245337 69.9747351610314468 28.1128704123049964
 19.7301577192032234 11.3912632045734714 28.1128704123049964
 35.2324607918756030 13.8322167929792403 28.1128704123049964
 29.5952784378736951 67.5337083432857384 28.1128704123049964
 -4.2279393941043990 13.8322167929792403 28.1128704123049964
 35.2325026238536978 67.5337083432857384 28.1128704123049964
 73.2834915332232129 11.3912632045734714 28.1128704123049964
 31.0045214113162864 26.0371311936879657 28.1128704123049964
 33.8231754175554755 69.9747351610314468 28.1128704123049964
 59.1905579051832120 11.3912632045734714 28.1128704123049964
 -33.8231765824445318 69.9747351610314468 28.1128704123049964
 39.4603155332232234 11.3912632045734714 28.1128704123049964
 33.8231759051832199 11.3912632045734714 28.1128704123049964
 31.0045215332232189 11.3912632045734714 28.1128704123049964
 28.1859517192032243 11.3912632045734714 28.1128704123049964
 25.3673819051832226 11.3912632045734714 28.1128704123049964
 -39.4604007684245346 69.9747351610314468 28.1128704123049964
 18.3209146238536960 67.5337083432857384 28.1128704123049964
 73.2835338528290663  6.5092827984219914 28.1128704123049964
 67.6463096668490635  6.5092827984219914 28.1128704123049964
 32.4138904902278497 72.4156887494372228 28.1128704123049964
  8.4557939864549194  1.6273023922705114 28.1128704123049964
 26.7766663042478434 72.4156887494372228 28.1128704123049964
 16.9115879864549186  1.6273023922705114 28.1128704123049964
 22.5488121724349213  1.6273023922705114 28.1128704123049964
 21.1394421182678336 72.4156887494372228 28.1128704123049964
 28.1859518004749177  1.6273023922705114 28.1128704123049964
 31.0046061724349222  1.6273023922705114 28.1128704123049964
 18.3208723042478390 72.4156887494372228 28.1128704123049964
 56.3719881724349250  1.6273023922705114 28.1128704123049964
 59.1905579864549196  1.6273023922705114 28.1128704123049964
 73.2835761724349197  1.6273023922705114 28.1128704123049964
 81.7393701724349171  1.6273023922705114 28.1128704123049964
  7.0465084902278479 72.4156887494372228 28.1128704123049964
 26.7766245941766883  4.0683292100162243 28.1128704123049964
 35.2324185941766927  4.0683292100162243 28.1128704123049964
  1.4092843042478451 72.4156887494372228 28.1128704123049964
 64.8277398528290689  6.5092827984219914 28.1128704123049964
 -38.0511158817321586 72.4156887494372228 28.1128704123049964
 56.3719458528290644  6.5092827984219914 28.1128704123049964
 25.3673396668490696  6.5092827984219914 28.1128704123049964
 -26.7766675097721567 72.4156887494372228 28.1128704123049964
 16.9115456668490722  6.5092827984219914 28.1128704123049964
 42.2789694175554729 69.9747351610314468 28.1128704123049964
 11.2744060388090670  6.5092827984219914 28.1128704123049964
  2.8186120388090696  6.5092827984219914 28.1128704123049964
 -7.0465096957521522 72.4156887494372228 28.1128704123049964
 60.5998005941766849  4.0683292100162243 28.1128704123049964
 54.9626609661366956  4.0683292100162243 28.1128704123049964
 49.3254367801566929  4.0683292100162243 28.1128704123049964
 43.6882125941766972  4.0683292100162243 28.1128704123049964
  5.6371818528290705  6.5092827984219914 28.1128704123049964
 40.8696849778556057 13.8322167929792403 28.1128704123049964
 -12.6836914402193699 52.8878403541712458 28.1128704123049964
 64.8277820505279863 16.2731703813850075 28.1128704123049964
 -16.9116308207786865 65.0927547548799765 28.1128704123049964
 42.2789275449421211 21.1551507875364884 28.1128704123049964
 32.4138486176145122 23.5961043759422537 28.1128704123049964
 -4.2278971557702505 18.7141971991307194 28.1128704123049964
 26.7767089895745123 23.5961043759422537 28.1128704123049964
 -29.5952795621263043 67.5337083432857384 28.1128704123049964
 18.3209149895745149 23.5961043759422537 28.1128704123049964
 12.6836908035945140 23.5961043759422537 28.1128704123049964
  9.8651209895745122 23.5961043759422537 28.1128704123049964
  7.0464666176145112 23.5961043759422537 28.1128704123049964
 42.2789271792213057 65.0927547548799765 28.1128704123049964
 59.1905578645479835 16.2731703813850075 28.1128704123049964
 69.0555944722697461 18.7141971991307194 28.1128704123049964
 -11.2744062690778684 21.1551507875364884 28.1128704123049964
 46.5068246058955950 13.8322167929792403 28.1128704123049964
 -5.6371820830978701 21.1551507875364884 28.1128704123049964
 -1.4093273823854895 23.5961043759422537 28.1128704123049964
 -4.2278971964054897 23.5961043759422537 28.1128704123049964
 67.6463095449421274 21.1551507875364884 28.1128704123049964
 22.5487693652013093 65.0927547548799765 28.1128704123049964
 19.7301999169021336 21.1551507875364884 28.1128704123049964
 -2.8186126347986837 65.0927547548799765 28.1128704123049964
 50.7347215449421185 21.1551507875364884 28.1128704123049964
 33.8231335449421309 21.1551507875364884 28.1128704123049964
  4.2278968035945095 23.5961043759422537 28.1128704123049964
 56.3719880505279747 16.2731703813850075 28.1128704123049964
 45.0975819169021293 21.1551507875364884 28.1128704123049964
 -18.3209157481063052 67.5337083432857384 28.1128704123049964
 -33.8232188207786848 65.0927547548799765 28.1128704123049964
 52.1440487918755977 13.8322167929792403 28.1128704123049964
 57.7812729778555934 13.8322167929792403 28.1128704123049964
 12.6836904378736932 67.5337083432857384 28.1128704123049964
 63.4184126058955968 13.8322167929792403 28.1128704123049964
 69.0556367918755996 13.8322167929792403 28.1128704123049964
  9.8651206238536986 67.5337083432857384 28.1128704123049964
  2.8185696785679806 16.2731703813850075 28.1128704123049964
 54.9626608035945097 23.5961043759422537 28.1128704123049964
  8.4557938645479798 16.2731703813850075 28.1128704123049964
 -9.8651217481063078 67.5337083432857384 28.1128704123049964
  4.2278964378736958 67.5337083432857384 28.1128704123049964
 50.7347638645479790 16.2731703813850075 28.1128704123049964
 16.9115878645479825 16.2731703813850075 28.1128704123049964
 60.5998849895745124 23.5961043759422537 28.1128704123049964
 -22.5487704488186900 65.0927547548799765 28.1128704123049964
 -15.5022613761463042 67.5337083432857384 28.1128704123049964
 69.0556789895745169 23.5961043759422537 28.1128704123049964
 31.0046060505279790 16.2731703813850075 28.1128704123049964
 -8.4557942167237172 26.0371311936879657 28.1128704123049964
 36.6417456785679860 16.2731703813850075 28.1128704123049964
 11.2743632180303894 71.6020375533019688 28.6327538495249954
 -18.3208310818044460 54.5151427464417537 28.6327538495249954
 -2.8185704100096114 71.6020375533019688 28.6327538495249954
 -26.7767097210161431 64.2791035587447084 28.6327538495249954
 16.9115874040103833 71.6020375533019688 28.6327538495249954
 -8.4557521544768282 52.0741891580359919 28.6327538495249954
 -2.8186125264368322 52.0741891580359919 28.6327538495249954
 29.5953207845697079 59.3971231525932382 28.6327538495249954
 45.0975816595431809 52.0741891580359919 28.6327538495249954
  2.8186116595431669 52.0741891580359919 28.6327538495249954
 -7.0464673490561447 64.2791035587447084 28.6327538495249954
 47.9161937118973214 56.9561695641874692 28.6327538495249954
 15.5023449181955559 54.5151427464417537 28.6327538495249954
 -22.5488127819696196 71.6020375533019688 28.6327538495249954
 42.2789695259173328 56.9561695641874692 28.6327538495249954
 36.6417453399373301 56.9561695641874692 28.6327538495249954
 14.0930177118973283 56.9561695641874692 28.6327538495249954
  5.6372237118973310 56.9561695641874692 28.6327538495249954
 39.4603573516562420 66.7200571471504844 28.6327538495249954
 -35.2324192037113804 69.1610107355562462 28.6327538495249954
 -14.0929764623637634 66.7200571471504844 28.6327538495249954
 -14.0930186600626755 56.9561695641874692 28.6327538495249954
 -22.5488126600626764 56.9561695641874692 28.6327538495249954
 -31.0046066600626737 56.9561695641874692 28.6327538495249954
 -29.5952372154302985 59.3971231525932382 28.6327538495249954
 -21.1394432154303011 59.3971231525932382 28.6327538495249954
 -19.7302006483437680 66.7200571471504844 28.6327538495249954
 -9.8650794014102949 59.3971231525932382 28.6327538495249954
 26.7767087322155568 54.5151427464417537 28.6327538495249954
 -31.0045644623637671 66.7200571471504844 28.6327538495249954
 -4.2278975756713866 69.1610107355562462 28.6327538495249954
 46.5068664649638706 64.2791035587447084 28.6327538495249954
  4.2279387845697078 59.3971231525932382 28.6327538495249954
 38.0510724649638732 64.2791035587447084 28.6327538495249954
 21.1394845462355612 54.5151427464417537 28.6327538495249954
 29.5952784243286260 69.1610107355562462 28.6327538495249954
 32.4138482789838704 64.2791035587447084 28.6327538495249954
 12.6837327845697061 59.3971231525932382 28.6327538495249954
 26.7767086509438528 64.2791035587447084 28.6327538495249954
 15.5022602789838597 64.2791035587447084 28.6327538495249954
  7.0464662789838490 64.2791035587447084 28.6327538495249954
  1.4093266509438596 64.2791035587447084 28.6327538495249954
 21.1395267845696964 59.3971231525932382 28.6327538495249954
 -11.2743644100096230 71.6020375533019688 28.6327538495249954
 -2.8185702881026811 56.9561695641874692 28.6327538495249954
 -16.9115460325698876 37.4283211689214923 28.6327538495249954
 52.1440907728507952 49.6332355696302230 28.6327538495249954
 36.6417457056581313 13.0185655968439828 28.6327538495249954
 62.0091277056581518 13.0185655968439828 28.6327538495249954
 -1.4092850356894804 15.4595191852497500 28.6327538495249954
  7.0465089643105223 15.4595191852497500 28.6327538495249954
 12.6837331502905215 15.4595191852497500 28.6327538495249954
 21.1395271502905153 15.4595191852497500 28.6327538495249954
 26.7766667783305188 15.4595191852497500 28.6327538495249954
 54.9627031502905297 15.4595191852497500 28.6327538495249954
 -8.4557941489970982 17.9004727736555189 28.6327538495249954
 39.4604000369828896 17.9004727736555189 28.6327538495249954
 42.2789698510029055 17.9004727736555189 28.6327538495249954
 47.9161940369829011 17.9004727736555189 28.6327538495249954
 53.5534182229629039 17.9004727736555189 28.6327538495249954
 70.4650062229628986 17.9004727736555189 28.6327538495249954
  1.4093270166646681 20.3414995914012344 28.6327538495249954
  7.0464666447046698 20.3414995914012344 28.6327538495249954
  9.8651210166646699 20.3414995914012344 28.6327538495249954
 15.5022606447046662 20.3414995914012344 28.6327538495249954
 23.9580546447046672 20.3414995914012344 28.6327538495249954
 29.5952788306846699 20.3414995914012344 28.6327538495249954
 57.7812306447046780 20.3414995914012344 28.6327538495249954
 63.4184548306846807 20.3414995914012344 28.6327538495249954
 36.6417879033570415 22.7824531798069998 28.6327538495249954
 -12.6836912099505668 25.2234067682127652 28.6327538495249954
 -4.2278972099505676 25.2234067682127652 28.6327538495249954
 31.0046060776181456 13.0185655968439828 28.6327538495249954
 77.5114730979363742 10.5775387790982709 28.6327538495249954
 66.2371092839163680 10.5775387790982709 28.6327538495249954
 54.9626609119563767 10.5775387790982709 28.6327538495249954
  4.2279392721974602  0.8136511961352557 28.6327538495249954
 12.6837332721974576  0.8136511961352557 28.6327538495249954
 26.7766669002374584  0.8136511961352557 28.6327538495249954
 32.4138910862174541  0.8136511961352557 28.6327538495249954
 46.5069092721974613  0.8136511961352557 28.6327538495249954
 77.5114309002374711  0.8136511961352557 28.6327538495249954
 14.0930181588898407  3.2546047845410229 28.6327538495249954
 39.4604001588898399  3.2546047845410229 28.6327538495249954
 62.0092123448698445  3.2546047845410229 28.6327538495249954
 67.6463519729098550  3.2546047845410229 28.6327538495249954
  1.4093271385716108  5.6956316022867357 28.6327538495249954
  7.0464667666116103  5.6956316022867357 28.6327538495249954
 15.5023451620094264 25.2234067682127652 28.6327538495249954
 21.1394849525916122  5.6956316022867357 28.6327538495249954
 69.0556791385716195  5.6956316022867357 28.6327538495249954
 80.3300429525916257  5.6956316022867357 28.6327538495249954
 22.5487698392839881  8.1365851906925037 28.6327538495249954
 28.1859940252639873  8.1365851906925037 28.6327538495249954
 36.6417880252639918  8.1365851906925037 28.6327538495249954
 42.2790122112439946  8.1365851906925037 28.6327538495249954
 50.7348062112439848  8.1365851906925037 28.6327538495249954
  1.4093270979363695 10.5775387790982709 28.6327538495249954
  9.8651210979363722 10.5775387790982709 28.6327538495249954
 18.3209150979363713 10.5775387790982709 28.6327538495249954
 43.6882970979363634 10.5775387790982709 28.6327538495249954
 49.3255212839163661 10.5775387790982709 28.6327538495249954
 57.7812307666116141  5.6956316022867357 28.6327538495249954
 21.1394847900494298 25.2234067682127652 28.6327538495249954
 35.2325029760294228 25.2234067682127652 28.6327538495249954
 43.6882969760294344 25.2234067682127652 28.6327538495249954
  4.2278966681424874 39.8692747573272612 28.6327538495249954
  9.8651208541224857 39.8692747573272612 28.6327538495249954
 15.5023450401024956 39.8692747573272612 28.6327538495249954
 18.3209148541224920 39.8692747573272612 28.6327538495249954
 52.1440908541225028 39.8692747573272612 28.6327538495249954
 57.7813150401024913 39.8692747573272612 28.6327538495249954
 28.1859514618442688 42.3103015750729767 28.6327538495249954
 39.4603998338042672 42.3103015750729767 28.6327538495249954
 -23.9580974654833554 44.7512551634787386 28.6327538495249954
 -15.5023034654833562 44.7512551634787386 28.6327538495249954
 -12.6836490935233588 44.7512551634787386 28.6327538495249954
 -9.8650792795033553 44.7512551634787386 28.6327538495249954
 -1.4092429598975091 39.8692747573272612 28.6327538495249954
 -4.2278550935233552 44.7512551634787386 28.6327538495249954
 15.5023027204966439 44.7512551634787386 28.6327538495249954
 46.5069089064766459 44.7512551634787386 28.6327538495249954
 52.1440485345166493 44.7512551634787386 28.6327538495249954
 -0.0000003928109814 47.1922087518845075 28.6327538495249954
 19.7302419791490244 47.1922087518845075 28.6327538495249954
 25.3673816071890279 47.1922087518845075 28.6327538495249954
 -26.7767095991092070 49.6332355696302230 28.6327538495249954
  9.8651207728507995 49.6332355696302230 28.6327538495249954
 18.3209147728507951 49.6332355696302230 28.6327538495249954
 32.4138484008907994 49.6332355696302230 28.6327538495249954
 38.0510725868707951 49.6332355696302230 28.6327538495249954
 43.6882967728507978 49.6332355696302230 28.6327538495249954
  7.0465087204966403 44.7512551634787386 28.6327538495249954
 -14.0929763404568273 52.0741891580359919 28.6327538495249954
 45.0975817814501099 37.4283211689214923 28.6327538495249954
 25.3674239674301170 37.4283211689214923 28.6327538495249954
 52.1440909760294318 25.2234067682127652 28.6327538495249954
 66.2371091620094319 25.2234067682127652 28.6327538495249954
 -0.0000002302687971 27.6644335859584807 28.6327538495249954
  5.6372239557112023 27.6644335859584807 28.6327538495249954
 11.2743635837511977 27.6644335859584807 28.6327538495249954
 28.1859515837511907 27.6644335859584807 28.6327538495249954
 45.0975395837512067 27.6644335859584807 28.6327538495249954
 59.1905577697312140 27.6644335859584807 28.6327538495249954
 -9.8650791575964192 30.1053871743642461 28.6327538495249954
 52.1440486564235925 30.1053871743642461 28.6327538495249954
 -11.2743640849240396 32.5463407627700150 28.6327538495249954
 -5.6371398989440404 32.5463407627700150 28.6327538495249954
 36.6417877814501125 37.4283211689214923 28.6327538495249954
  2.8186541010559618 32.5463407627700150 28.6327538495249954
 11.2744481010559561 32.5463407627700150 28.6327538495249954
 16.9115877290959595 32.5463407627700150 28.6327538495249954
 19.7302421010559677 32.5463407627700150 28.6327538495249954
 25.3673817290959498 32.5463407627700150 28.6327538495249954
 31.0046059150759525 32.5463407627700150 28.6327538495249954
 39.4603999150759606 32.5463407627700150 28.6327538495249954
 49.3254365227977445 34.9873675805157234 28.6327538495249954
 60.5998848947577358 34.9873675805157234 28.6327538495249954
 36.6417452180303869 71.6020375533019688 28.6327538495249954
 -11.2744064045298860 37.4283211689214923 28.6327538495249954
 -2.8186124045298877 37.4283211689214923 28.6327538495249954
  0.0000419674301133 37.4283211689214923 28.6327538495249954
  8.4557937290959586 32.5463407627700150 28.6327538495249954
 42.2789694040103896 71.6020375533019688 28.6327538495249954
