 H  O 
 1.0000000000000000
    84.5579400000000021    0.0000000000000000    0.0000000000000000
   -42.2789706095346958   73.2293399455724767    0.0000000000000000
     0.0000000000000000    0.0000000000000000   46.9039550000000034
 H   O  
 260 153
Cartesian
 39.4604001724349231  1.6273023922705114 28.1128704123049964
 -26.7767095855641273 48.0059331773597151 28.1128704123049964
 53.5533334347540944 45.5649063596139996 28.1128704123049964
 45.0975394347540970 45.5649063596139996 28.1128704123049964
 42.2789696207341024 45.5649063596139996 28.1128704123049964
 28.1859514347540951 45.5649063596139996 28.1128704123049964
 22.5488118067141059 45.5649063596139996 28.1128704123049964
 14.0930178067140996 45.5649063596139996 28.1128704123049964
 -18.3209155855641299 48.0059331773597151 28.1128704123049964
 11.2743634347540986 45.5649063596139996 28.1128704123049964
 57.7812727340417212 43.1239527712082307 28.1128704123049964
 54.9626183620817130 43.1239527712082307 28.1128704123049964
 49.3254787340417238 43.1239527712082307 28.1128704123049964
 46.5068243620817157 43.1239527712082307 28.1128704123049964
 40.8696847340417122 43.1239527712082307 28.1128704123049964
 38.0510303620817112 43.1239527712082307 28.1128704123049964
 23.9580967340417281 43.1239527712082307 28.1128704123049964
 -2.8185701932858982 45.5649063596139996 28.1128704123049964
 18.3208725480617254 43.1239527712082307 28.1128704123049964
  1.4092422284558699 48.0059331773597151 28.1128704123049964
 15.5022604144358738 48.0059331773597151 28.1128704123049964
 53.5533756730882544 50.4468867657654769 28.1128704123049964
 50.7347213011282463 50.4468867657654769 28.1128704123049964
 45.0975816730882570 50.4468867657654769 28.1128704123049964
 19.7301996730882578 50.4468867657654769 28.1128704123049964
  5.6371814871082586 50.4468867657654769 28.1128704123049964
  2.8186116730882564 50.4468867657654769 28.1128704123049964
 -2.8186125128917427 50.4468867657654769 28.1128704123049964
  7.0464664144358764 48.0059331773597151 28.1128704123049964
 -11.2744065128917477 50.4468867657654769 28.1128704123049964
 -16.9116306988717469 50.4468867657654769 28.1128704123049964
 -25.3674246988717442 50.4468867657654769 28.1128704123049964
 49.3254364144358703 48.0059331773597151 28.1128704123049964
 38.0510726004158641 48.0059331773597151 28.1128704123049964
 35.2324182284558631 48.0059331773597151 28.1128704123049964
 32.4138484144358685 48.0059331773597151 28.1128704123049964
 23.9580544144358711 48.0059331773597151 28.1128704123049964
 -14.0929763269117494 50.4468867657654769 28.1128704123049964
 15.5023027340417219 43.1239527712082307 28.1128704123049964
  7.0465087340417254 43.1239527712082307 28.1128704123049964
 -12.6837336379182783 43.1239527712082307 28.1128704123049964
 -12.6836913183124267 38.2419723650567462 28.1128704123049964
 -21.1394853183124276 38.2419723650567462 28.1128704123049964
  5.6371816090151947 35.8010187766509844 28.1128704123049964
 -0.0000425769648080 35.8010187766509844 28.1128704123049964
 -11.2744063909848098 35.8010187766509844 28.1128704123049964
 -19.7302003909848089 35.8010187766509844 28.1128704123049964
 54.9626607223228163 33.3600651882452155 28.1128704123049964
 -7.0464671323324293 38.2419723650567462 28.1128704123049964
 49.3254365363428136 33.3600651882452155 28.1128704123049964
 40.8696425363428091 33.3600651882452155 28.1128704123049964
 26.7766243503628161 33.3600651882452155 28.1128704123049964
 23.9580545363428143 33.3600651882452155 28.1128704123049964
 12.6836907223228135 33.3600651882452155 28.1128704123049964
  1.4092423503628120 33.3600651882452155 28.1128704123049964
 -7.0465516496371885 33.3600651882452155 28.1128704123049964
 -12.6836912776771893 33.3600651882452155 28.1128704123049964
 46.5068667223228047 33.3600651882452155 28.1128704123049964
 -4.2278973183124275 38.2419723650567462 28.1128704123049964
  1.4093268676675752 38.2419723650567462 28.1128704123049964
  7.0464664957075716 38.2419723650567462 28.1128704123049964
 -15.5023034519382783 43.1239527712082307 28.1128704123049964
 -21.1395276379182775 43.1239527712082307 28.1128704123049964
 45.0975394753893397 40.6829991828024689 28.1128704123049964
 36.6417454753893352 40.6829991828024689 28.1128704123049964
 33.8231756613693406 40.6829991828024689 28.1128704123049964
 19.7301574753893405 40.6829991828024689 28.1128704123049964
  5.6371392894093386 40.6829991828024689 28.1128704123049964
  2.8185694753893440 40.6829991828024689 28.1128704123049964
 -22.5488125246106605 40.6829991828024689 28.1128704123049964
 57.7812304957075682 38.2419723650567462 28.1128704123049964
 49.3254364957075708 38.2419723650567462 28.1128704123049964
 18.3208723042478390 72.4156887494372228 28.1128704123049964
 38.0510726816875717 38.2419723650567462 28.1128704123049964
 32.4138484957075690 38.2419723650567462 28.1128704123049964
 26.7767088676675797 38.2419723650567462 28.1128704123049964
 23.9580544957075787 38.2419723650567462 28.1128704123049964
 15.5022604957075725 38.2419723650567462 28.1128704123049964
 -12.6836914402193699 52.8878403541712458 28.1128704123049964
 62.0091275566610349 30.9190383704995000 28.1128704123049964
 -4.2278974402193654 52.8878403541712458 28.1128704123049964
 15.5022603738006346 52.8878403541712458 28.1128704123049964
  9.8651206238536986 67.5337083432857384 28.1128704123049964
  1.4093266238536943 67.5337083432857384 28.1128704123049964
 -7.0464673761463033 67.5337083432857384 28.1128704123049964
 -12.6836915621263024 67.5337083432857384 28.1128704123049964
 -23.9580553761463051 67.5337083432857384 28.1128704123049964
 -26.7767097481063061 67.5337083432857384 28.1128704123049964
 45.0975815511813138 65.0927547548799765 28.1128704123049964
 15.5022602518936878 67.5337083432857384 28.1128704123049964
 33.8231331792213084 65.0927547548799765 28.1128704123049964
 22.5487693652013093 65.0927547548799765 28.1128704123049964
  5.6371813652013136 65.0927547548799765 28.1128704123049964
 -25.3674248207786874 65.0927547548799765 28.1128704123049964
 -33.8232188207786848 65.0927547548799765 28.1128704123049964
 46.5068664785089325 62.6518011664742076 28.1128704123049964
 40.8696422925289298 62.6518011664742076 28.1128704123049964
  4.2278964785089341 62.6518011664742076 28.1128704123049964
 31.0045633652013137 65.0927547548799765 28.1128704123049964
 -29.5952795214910651 62.6518011664742076 28.1128704123049964
 43.6882966238536952 67.5337083432857384 28.1128704123049964
  5.6371390455954664 69.9747351610314468 28.1128704123049964
  9.8650783042478416 72.4156887494372228 28.1128704123049964
  7.0465084902278479 72.4156887494372228 28.1128704123049964
  1.4092843042478451 72.4156887494372228 28.1128704123049964
 -4.2279398817321576 72.4156887494372228 28.1128704123049964
 -7.0465096957521522 72.4156887494372228 28.1128704123049964
 -12.6837338817321594 72.4156887494372228 28.1128704123049964
 -15.5023036957521541 72.4156887494372228 28.1128704123049964
 -11.2744489544045354 69.9747351610314468 28.1128704123049964
 -21.1395278817321568 72.4156887494372228 28.1128704123049964
 -32.4138916957521559 72.4156887494372228 28.1128704123049964
 -35.2324615097721576 72.4156887494372228 28.1128704123049964
 -40.8696856957521533 72.4156887494372228 28.1128704123049964
 36.6417452315754701 69.9747351610314468 28.1128704123049964
 31.0045210455954674 69.9747351610314468 28.1128704123049964
 22.5487270455954629 69.9747351610314468 28.1128704123049964
 14.0929330455954638 69.9747351610314468 28.1128704123049964
 -26.7766675097721567 72.4156887494372228 28.1128704123049964
 -32.4139338934510661 62.6518011664742076 28.1128704123049964
 45.0975393128471538 60.2107743487284921 28.1128704123049964
 36.6417453128471564 60.2107743487284921 28.1128704123049964
 -21.1395277598252136 57.7698207603227232 28.1128704123049964
 50.7347635394624064 55.3288671719169614 28.1128704123049964
 45.0975393534824036 55.3288671719169614 28.1128704123049964
 19.7301573534824009 55.3288671719169614 28.1128704123049964
 11.2743633534824053 55.3288671719169614 28.1128704123049964
 -2.8186548324975988 55.3288671719169614 28.1128704123049964
 -5.6372246465175939 55.3288671719169614 28.1128704123049964
 -1.4092853878652121 57.7698207603227232 28.1128704123049964
 -14.0930186465175975 55.3288671719169614 28.1128704123049964
 -22.5488126465175966 55.3288671719169614 28.1128704123049964
 -25.3673824605375984 55.3288671719169614 28.1128704123049964
 49.3254363738006276 52.8878403541712458 28.1128704123049964
 46.5068665597806330 52.8878403541712458 28.1128704123049964
 40.8696423738006303 52.8878403541712458 28.1128704123049964
 32.4138483738006258 52.8878403541712458 28.1128704123049964
 23.9580543738006249 52.8878403541712458 28.1128704123049964
 -16.9115884605376010 55.3288671719169614 28.1128704123049964
  1.4092844261547897 57.7698207603227232 28.1128704123049964
  7.0465086121347857 57.7698207603227232 28.1128704123049964
 15.5023026121347893 57.7698207603227232 28.1128704123049964
 19.7301573128471581 60.2107743487284921 28.1128704123049964
 14.0930176848071671 60.2107743487284921 28.1128704123049964
 11.2743633128471661 60.2107743487284921 28.1128704123049964
  5.6372236848071626 60.2107743487284921 28.1128704123049964
 -2.8185703151928343 60.2107743487284921 28.1128704123049964
 -8.4557945011728339 60.2107743487284921 28.1128704123049964
 -11.2743643151928357 60.2107743487284921 28.1128704123049964
 -16.9115885011728366 60.2107743487284921 28.1128704123049964
 -22.5488126871528358 60.2107743487284921 28.1128704123049964
 -25.3673825011728376 60.2107743487284921 28.1128704123049964
 -31.0046066871528367 60.2107743487284921 28.1128704123049964
 -33.8231765011728385 60.2107743487284921 28.1128704123049964
 46.5068242401747796 57.7698207603227232 28.1128704123049964
 40.8696846121347903 57.7698207603227232 28.1128704123049964
 35.2324604261547876 57.7698207603227232 28.1128704123049964
 29.5952362401747777 57.7698207603227232 28.1128704123049964
 23.9580966121347885 57.7698207603227232 28.1128704123049964
  9.8651207457606311 52.8878403541712458 28.1128704123049964
 53.5533335566610376 30.9190383704995000 28.1128704123049964
 29.5952361182678381 72.4156887494372228 28.1128704123049964
 47.9161518528290671  6.5092827984219914 28.1128704123049964
 12.6836908442297531 18.7141971991307194 28.1128704123049964
 26.7766244722697486 18.7141971991307194 28.1128704123049964
 52.1440064722697443 18.7141971991307194 28.1128704123049964
 60.5998004722697488 18.7141971991307194 28.1128704123049964
 -4.2278970744985491  8.9502363868277595 28.1128704123049964
 66.2370246582497515 18.7141971991307194 28.1128704123049964
 73.2835338528290663  6.5092827984219914 28.1128704123049964
  8.4557515449421317 21.1551507875364884 28.1128704123049964
 16.9115455449421290 21.1551507875364884 28.1128704123049964
 31.0045637309221327 21.1551507875364884 28.1128704123049964
 33.8231335449421309 21.1551507875364884 28.1128704123049964
 64.8277398528290689  6.5092827984219914 28.1128704123049964
 42.2789699051832244 11.3912632045734714 28.1128704123049964
 42.2789275449421211 21.1551507875364884 28.1128704123049964
 47.9161517309221239 21.1551507875364884 28.1128704123049964
 33.8231336668490670  6.5092827984219914 28.1128704123049964
 53.5533759169021195 21.1551507875364884 28.1128704123049964
 70.4649639169021356 21.1551507875364884 28.1128704123049964
 -12.6836911964054888 23.5961043759422537 28.1128704123049964
 -7.0464670104254905 23.5961043759422537 28.1128704123049964
 31.0045638528290759  6.5092827984219914 28.1128704123049964
 -4.2278971964054897 23.5961043759422537 28.1128704123049964
  1.4093269895745080 23.5961043759422537 28.1128704123049964
  9.8651209895745122 23.5961043759422537 28.1128704123049964
 25.3673396668490696  6.5092827984219914 28.1128704123049964
 11.2744060388090670  6.5092827984219914 28.1128704123049964
 77.5113885941766796  4.0683292100162243 28.1128704123049964
 56.3719880505279747 16.2731703813850075 28.1128704123049964
 71.8742489661366903  4.0683292100162243 28.1128704123049964
 53.5533336785679737 16.2731703813850075 28.1128704123049964
 33.8231758645479843 16.2731703813850075 28.1128704123049964
 -7.0465092081243990 13.8322167929792403 28.1128704123049964
 18.3208727918756047 13.8322167929792403 28.1128704123049964
 39.4603155332232234 11.3912632045734714 28.1128704123049964
 36.6417457192032217 11.3912632045734714 28.1128704123049964
 35.2324607918756030 13.8322167929792403 28.1128704123049964
 31.0045215332232189 11.3912632045734714 28.1128704123049964
 43.6882547918756003 13.8322167929792403 28.1128704123049964
 46.5068246058955950 13.8322167929792403 28.1128704123049964
 22.5487275332232180 11.3912632045734714 28.1128704123049964
 16.9115879051832216 11.3912632045734714 28.1128704123049964
 52.1440487918755977 13.8322167929792403 28.1128704123049964
  8.4557939051832172 11.3912632045734714 28.1128704123049964
 60.5998427918756022 13.8322167929792403 28.1128704123049964
 63.4184126058955968 13.8322167929792403 28.1128704123049964
 69.0556367918755996 13.8322167929792403 28.1128704123049964
  2.8185697192032206 11.3912632045734714 28.1128704123049964
 -2.8186544667767790 11.3912632045734714 28.1128704123049964
 -8.4557941354520185 16.2731703813850075 28.1128704123049964
 71.8742489255014476  8.9502363868277595 28.1128704123049964
 -2.8185699494720202 16.2731703813850075 28.1128704123049964
 28.1859515566610455 30.9190383704995000 28.1128704123049964
  5.6372240505279780 16.2731703813850075 28.1128704123049964
 60.5998851114814414  8.9502363868277595 28.1128704123049964
 52.1440911114814512  8.9502363868277595 28.1128704123049964
 19.7301576785679771 16.2731703813850075 28.1128704123049964
 31.0046060505279790 16.2731703813850075 28.1128704123049964
 43.6882971114814538  8.9502363868277595 28.1128704123049964
 39.4604000505279870 16.2731703813850075 28.1128704123049964
 23.9580546176145113 23.5961043759422537 28.1128704123049964
 56.3719035332232110 11.3912632045734714 28.1128704123049964
 -12.6837335160113369 28.4780847820937346 28.1128704123049964
 46.5068669661366982  4.0683292100162243 28.1128704123049964
  4.2278544839886631 28.4780847820937346 28.1128704123049964
 35.2325029895745132 23.5961043759422537 28.1128704123049964
 -16.9115882573589573 30.9190383704995000 28.1128704123049964
 -1.4093272198433096  4.0683292100162243 28.1128704123049964
 62.0091275972962777 26.0371311936879657 28.1128704123049964
  9.8650786699686659 28.4780847820937346 28.1128704123049964
 66.2370668559486688 28.4780847820937346 28.1128704123049964
  7.0464667801566900  4.0683292100162243 28.1128704123049964
 56.3719034113162749 26.0371311936879657 28.1128704123049964
 52.1440486699686616 28.4780847820937346 28.1128704123049964
 49.3254788559486528 28.4780847820937346 28.1128704123049964
 50.7347637832762715 26.0371311936879657 28.1128704123049964
 38.0510729661366938  4.0683292100162243 28.1128704123049964
 43.6882546699686571 28.4780847820937346 28.1128704123049964
 -8.4557942573589582 30.9190383704995000 28.1128704123049964
 35.2324185941766927  4.0683292100162243 28.1128704123049964
 36.6417455972962784 26.0371311936879657 28.1128704123049964
 18.3208305941766909  4.0683292100162243 28.1128704123049964
 69.0555945941766822  4.0683292100162243 28.1128704123049964
 -8.4557942167237172 26.0371311936879657 28.1128704123049964
 60.5998005941766849  4.0683292100162243 28.1128704123049964
 -2.8186545886837178 26.0371311936879657 28.1128704123049964
  5.6371394113162827 26.0371311936879657 28.1128704123049964
 26.7766245941766883  4.0683292100162243 28.1128704123049964
 14.0929334113162810 26.0371311936879657 28.1128704123049964
  1.4092846699686612 28.4780847820937346 28.1128704123049964
 23.9580968559486607 28.4780847820937346 28.1128704123049964
 52.1440065941766875  4.0683292100162243 28.1128704123049964
 22.5487274113162819 26.0371311936879657 28.1128704123049964
 56.3719881724349250  1.6273023922705114 28.1128704123049964
 64.8277821724349081  1.6273023922705114 28.1128704123049964
 28.1859515972962846 26.0371311936879657 28.1128704123049964
 31.0045214113162864 26.0371311936879657 28.1128704123049964
 -4.2279395160113378 28.4780847820937346 28.1128704123049964
 53.5533760252639937  8.1365851906925037 28.6327538495249954
  9.8650784126096909 59.3971231525932382 28.6327538495249954
 14.0930181588898407  3.2546047845410229 28.6327538495249954
 22.5488121588898416  3.2546047845410229 28.6327538495249954
  2.8186543448698407  3.2546047845410229 28.6327538495249954
  8.4557939729098397  3.2546047845410229 28.6327538495249954
 -12.6836492154302967 59.3971231525932382 28.6327538495249954
 12.6836909119563703 10.5775387790982709 28.6327538495249954
 32.4138905985897026 59.3971231525932382 28.6327538495249954
 -26.7766674014102968 59.3971231525932382 28.6327538495249954
 26.7767090979363651 10.5775387790982709 28.6327538495249954
 -8.4557945959896212 71.6020375533019688 28.6327538495249954
 80.3300852721974650  0.8136511961352557 28.6327538495249954
 74.6928610862174764  0.8136511961352557 28.6327538495249954
 49.3254790862174488  0.8136511961352557 28.6327538495249954
 33.8231755259173212 56.9561695641874692 28.6327538495249954
 11.2743632180303894 71.6020375533019688 28.6327538495249954
 31.0046057118973302 56.9561695641874692 28.6327538495249954
 76.1021882112439840  8.1365851906925037 28.6327538495249954
 47.9161518392839980  8.1365851906925037 28.6327538495249954
 -2.8186126483437688 66.7200571471504844 28.6327538495249954
 40.8697267962886173 69.1610107355562462 28.6327538495249954
 -9.8651217210161430 64.2791035587447084 28.6327538495249954
 -4.2278975350361501 64.2791035587447084 28.6327538495249954
 -1.4092432037113782 69.1610107355562462 28.6327538495249954
 -1.4093277210161486 64.2791035587447084 28.6327538495249954
 69.0556791385716195  5.6956316022867357 28.6327538495249954
  7.0464662789838490 64.2791035587447084 28.6327538495249954
 12.6836904649638509 64.2791035587447084 28.6327538495249954
 -18.3208312037113821 69.1610107355562462 28.6327538495249954
 18.3209146509438554 64.2791035587447084 28.6327538495249954
 -23.9580553896913813 69.1610107355562462 28.6327538495249954
 -32.4138493896913857 69.1610107355562462 28.6327538495249954
 -38.0510735756713814 69.1610107355562462 28.6327538495249954
 39.4603573516562420 66.7200571471504844 28.6327538495249954
 19.7301995376362349 66.7200571471504844 28.6327538495249954
 56.3719881588898417  3.2546047845410229 28.6327538495249954
 -15.5022613490561429 64.2791035587447084 28.6327538495249954
 43.6882544126097088 59.3971231525932382 28.6327538495249954
 -18.3209157210161457 64.2791035587447084 28.6327538495249954
  4.2278964243286037 69.1610107355562462 28.6327538495249954
 49.3254785985897115 59.3971231525932382 28.6327538495249954
 32.4139327962886199 69.1610107355562462 28.6327538495249954
 39.4603578392839793  8.1365851906925037 28.6327538495249954
 31.0046061588898354  3.2546047845410229 28.6327538495249954
 33.8232182112439972  8.1365851906925037 28.6327538495249954
 -0.0000005147179177 61.8380767409990000 28.6327538495249954
 26.7767086103086172 69.1610107355562462 28.6327538495249954
 19.7302000252639935  8.1365851906925037 28.6327538495249954
 25.3673814852820882 61.8380767409990000 28.6327538495249954
 31.0046056712620839 61.8380767409990000 28.6327538495249954
 36.6418298572420866 61.8380767409990000 28.6327538495249954
  5.6371818392839907  8.1365851906925037 28.6327538495249954
  0.0000422112439907  8.1365851906925037 28.6327538495249954
 42.2789699729098274  3.2546047845410229 28.6327538495249954
 -29.5952795350361448 64.2791035587447084 28.6327538495249954
 -23.9580553490561456 64.2791035587447084 28.6327538495249954
 32.4138908424035748 30.1053871743642461 28.6327538495249954
  1.4092847783305213 15.4595191852497500 28.6327538495249954
 66.2371092839163680 10.5775387790982709 28.6327538495249954
 40.8697271620094256 25.2234067682127652 28.6327538495249954
 32.4139331620094353 25.2234067682127652 28.6327538495249954
 26.7767089760294326 25.2234067682127652 28.6327538495249954
 53.5533757814501215 37.4283211689214923 28.6327538495249954
 18.3209149760294281 25.2234067682127652 28.6327538495249954
 -18.3208309598975099 39.8692747573272612 28.6327538495249954
 -12.6836913318575100 39.8692747573272612 28.6327538495249954
 -1.4092429598975091 39.8692747573272612 28.6327538495249954
  7.0465511620094325 25.2234067682127652 28.6327538495249954
 35.2325028541224938 39.8692747573272612 28.6327538495249954
 67.6463940893370506 22.7824531798069998 28.6327538495249954
 59.1906000893370532 22.7824531798069998 28.6327538495249954
 -8.4557943521757366 42.3103015750729767 28.6327538495249954
 -5.6372245381557384 42.3103015750729767 28.6327538495249954
 19.7301999033570468 22.7824531798069998 28.6327538495249954
 14.0930178338042680 42.3103015750729767 28.6327538495249954
 25.3673816478242529 42.3103015750729767 28.6327538495249954
 50.7347636478242734 42.3103015750729767 28.6327538495249954
 59.1905576478242708 42.3103015750729767 28.6327538495249954
 22.5487695954701017 37.4283211689214923 28.6327538495249954
 46.5068667900494361 25.2234067682127652 28.6327538495249954
 11.2744057814501097 37.4283211689214923 28.6327538495249954
  2.8186117814501150 37.4283211689214923 28.6327538495249954
 38.0511150283835775 30.1053871743642461 28.6327538495249954
 26.7766666564235685 30.1053871743642461 28.6327538495249954
 57.7812728424035953 30.1053871743642461 28.6327538495249954
 21.1395270283835863 30.1053871743642461 28.6327538495249954
 -16.9115882709040370 32.5463407627700150 28.6327538495249954
 15.5023028424035783 30.1053871743642461 28.6327538495249954
 -2.8185700849240374 32.5463407627700150 28.6327538495249954
  2.8186541010559618 32.5463407627700150 28.6327538495249954
  8.4557937290959586 32.5463407627700150 28.6327538495249954
 38.0510728306846602 20.3414995914012344 28.6327538495249954
 64.8277819557112025 27.6644335859584807 28.6327538495249954
 50.7347637290959668 32.5463407627700150 28.6327538495249954
 -9.8651214772022673 34.9873675805157234 28.6327538495249954
 -8.4557942302688005 27.6644335859584807 28.6327538495249954
 18.3209148947577418 34.9873675805157234 28.6327538495249954
 26.7767088947577392 34.9873675805157234 28.6327538495249954
 35.2325028947577295 34.9873675805157234 28.6327538495249954
 60.5998848947577358 34.9873675805157234 28.6327538495249954
 -14.0930184162487979 27.6644335859584807 28.6327538495249954
 52.1440909760294318 25.2234067682127652 28.6327538495249954
 45.0976241010559633 32.5463407627700150 28.6327538495249954
  4.2279389064766386 44.7512551634787386 28.6327538495249954
 26.7767090166646753 20.3414995914012344 28.6327538495249954
 32.4138907204966458 44.7512551634787386 28.6327538495249954
 -8.4557521544768282 52.0741891580359919 28.6327538495249954
 15.5023029643105232 15.4595191852497500 28.6327538495249954
  9.8650787783305205 15.4595191852497500 28.6327538495249954
 28.1859936595431719 52.0741891580359919 28.6327538495249954
 36.6417876595431693 52.0741891580359919 28.6327538495249954
 -4.2278548497094786 15.4595191852497500 28.6327538495249954
 73.2835760776181360 13.0185655968439828 28.6327538495249954
 -29.5952794537644479 54.5151427464417537 28.6327538495249954
 -18.3208310818044460 54.5151427464417537 28.6327538495249954
 -14.0929763404568273 52.0741891580359919 28.6327538495249954
 56.3719880776181483 13.0185655968439828 28.6327538495249954
 50.7347638916381456 13.0185655968439828 28.6327538495249954
 -1.4092430818044526 54.5151427464417537 28.6327538495249954
  4.2278965462355513 54.5151427464417537 28.6327538495249954
  7.0465509181955595 54.5151427464417537 28.6327538495249954
 39.4604000776181465 13.0185655968439828 28.6327538495249954
 19.7301577056581365 13.0185655968439828 28.6327538495249954
 -5.6372246600626781 56.9561695641874692 28.6327538495249954
 -5.6372242943418591 13.0185655968439828 28.6327538495249954
 14.0930177118973283 56.9561695641874692 28.6327538495249954
 -9.8650370818044468 54.5151427464417537 28.6327538495249954
 19.7301573399373318 56.9561695641874692 28.6327538495249954
 23.9580969643105171 15.4595191852497500 28.6327538495249954
 43.6882967728507978 49.6332355696302230 28.6327538495249954
 38.0511149064766485 44.7512551634787386 28.6327538495249954
 12.6836908306846716 20.3414995914012344 28.6327538495249954
  4.2278968306846716 20.3414995914012344 28.6327538495249954
 -1.4093273552953294 20.3414995914012344 28.6327538495249954
 -22.5487280208509766 47.1922087518845075 28.6327538495249954
 -9.8651213552953294 20.3414995914012344 28.6327538495249954
 -14.0929340208509810 47.1922087518845075 28.6327538495249954
 -5.6371400208509774 47.1922087518845075 28.6327538495249954
 70.4650062229628986 17.9004727736555189 28.6327538495249954
 29.5953211502905269 15.4595191852497500 28.6327538495249954
 64.8277820369829101 17.9004727736555189 28.6327538495249954
 56.3719880369828985 17.9004727736555189 28.6327538495249954
 50.7347638510029029 17.9004727736555189 28.6327538495249954
 45.0976242229628923 17.9004727736555189 28.6327538495249954
 53.5534179791490246 47.1922087518845075 28.6327538495249954
 22.5488120369828984 17.9004727736555189 28.6327538495249954
 -1.4093275991092098 49.6332355696302230 28.6327538495249954
 43.6882547783305313 15.4595191852497500 28.6327538495249954
 12.6836905868707941 49.6332355696302230 28.6327538495249954
 29.5952785868707942 49.6332355696302230 28.6327538495249954
 19.7302419791490244 47.1922087518845075 28.6327538495249954
 42.2790119674301152 37.4283211689214923 28.6327538495249954
