 H  O 
 1.0000000000000000
    84.5579400000000021    0.0000000000000000    0.0000000000000000
   -42.2789706095346958   73.2293399455724767    0.0000000000000000
     0.0000000000000000    0.0000000000000000   46.9039550000000034
 H   O  
 232 398
Cartesian
 59.1905154230351869 35.8010187766509844 28.1128704123049964
  7.0465086121347857 57.7698207603227232 28.1128704123049964
 59.1905577832762830 26.0371311936879657 28.1128704123049964
 31.0045214113162864 26.0371311936879657 28.1128704123049964
 28.1859515972962846 26.0371311936879657 28.1128704123049964
 16.9115877832762855 26.0371311936879657 28.1128704123049964
 -2.8186545886837178 26.0371311936879657 28.1128704123049964
 64.8276974113162794 26.0371311936879657 28.1128704123049964
 26.7766664261547831 57.7698207603227232 28.1128704123049964
 38.0510302401747822 57.7698207603227232 28.1128704123049964
 46.5068242401747796 57.7698207603227232 28.1128704123049964
 52.1440909895745008 23.5961043759422537 28.1128704123049964
 46.5068668035945052 23.5961043759422537 28.1128704123049964
 43.6882969895745106 23.5961043759422537 28.1128704123049964
 -28.1859523151928357 60.2107743487284921 28.1128704123049964
 32.4138906121347787 57.7698207603227232 28.1128704123049964
 38.0510728035945078 23.5961043759422537 28.1128704123049964
  4.2278542401747847 57.7698207603227232 28.1128704123049964
  4.2278544839886631 28.4780847820937346 28.1128704123049964
 -0.0000004605375943 55.3288671719169614 28.1128704123049964
 14.0930179286210446 30.9190383704995000 28.1128704123049964
  2.8185695566610427 30.9190383704995000 28.1128704123049964
 -5.6372244433389582 30.9190383704995000 28.1128704123049964
 11.2743633534824053 55.3288671719169614 28.1128704123049964
 -11.2743640713789581 30.9190383704995000 28.1128704123049964
  1.4092846699686612 28.4780847820937346 28.1128704123049964
 14.0929331675024070 55.3288671719169614 28.1128704123049964
 43.6882546699686571 28.4780847820937346 28.1128704123049964
 35.2324606699686598 28.4780847820937346 28.1128704123049964
 -29.5953217598252145 57.7698207603227232 28.1128704123049964
 26.7766666699686624 28.4780847820937346 28.1128704123049964
 12.6836484839886605 28.4780847820937346 28.1128704123049964
  7.0465088559486642 28.4780847820937346 28.1128704123049964
 63.4184124839886536 28.4780847820937346 28.1128704123049964
 16.9115877426410464 30.9190383704995000 28.1128704123049964
 35.2325029895745132 23.5961043759422537 28.1128704123049964
 -14.0930186871528367 60.2107743487284921 28.1128704123049964
 57.7812306582497541 18.7141971991307194 28.1128704123049964
 54.9626608442297453 18.7141971991307194 28.1128704123049964
 52.1440064722697443 18.7141971991307194 28.1128704123049964
 49.3254366582497497 18.7141971991307194 28.1128704123049964
 43.6882124722697469 18.7141971991307194 28.1128704123049964
 40.8696426582497523 18.7141971991307194 28.1128704123049964
 -18.3209157074710660 62.6518011664742076 28.1128704123049964
 -4.2278975214910632 62.6518011664742076 28.1128704123049964
 26.7766244722697486 18.7141971991307194 28.1128704123049964
  1.4092421065489333 62.6518011664742076 28.1128704123049964
 18.3208304722697477 18.7141971991307194 28.1128704123049964
 12.6836908442297531 18.7141971991307194 28.1128704123049964
 -7.0465515277302488 18.7141971991307194 28.1128704123049964
 29.5952784785089271 62.6518011664742076 28.1128704123049964
 35.2324184722697566 18.7141971991307194 28.1128704123049964
 23.9580546176145113 23.5961043759422537 28.1128704123049964
 69.0555944722697461 18.7141971991307194 28.1128704123049964
 -11.2744062690778684 21.1551507875364884 28.1128704123049964
 -8.4557945011728339 60.2107743487284921 28.1128704123049964
  1.4093269895745080 23.5961043759422537 28.1128704123049964
  5.6372236848071626 60.2107743487284921 28.1128704123049964
 67.6463095449421274 21.1551507875364884 28.1128704123049964
  8.4557934988271644 60.2107743487284921 28.1128704123049964
 14.0930176848071671 60.2107743487284921 28.1128704123049964
 -21.1394855214910677 62.6518011664742076 28.1128704123049964
 22.5488116848071662 60.2107743487284921 28.1128704123049964
  8.4557515449421317 21.1551507875364884 28.1128704123049964
 -35.2325037074710679 62.6518011664742076 28.1128704123049964
 -0.0000424550578693 21.1551507875364884 28.1128704123049964
 -2.8186122690778692 21.1551507875364884 28.1128704123049964
 -26.7767097074710669 62.6518011664742076 28.1128704123049964
 -5.6371820830978701 21.1551507875364884 28.1128704123049964
 45.0975393128471538 60.2107743487284921 28.1128704123049964
 25.3673817426410437 30.9190383704995000 28.1128704123049964
 -11.2744488324975958 55.3288671719169614 28.1128704123049964
 -16.9115884605376010 55.3288671719169614 28.1128704123049964
  9.8650362284558710 48.0059331773597151 28.1128704123049964
  2.8185694753893440 40.6829991828024689 28.1128704123049964
 15.5022604144358738 48.0059331773597151 28.1128704123049964
 21.1394846004158765 48.0059331773597151 28.1128704123049964
 43.6882122284558676 48.0059331773597151 28.1128704123049964
 60.5998848676675763 38.2419723650567462 28.1128704123049964
 11.2743634753893449 40.6829991828024689 28.1128704123049964
 57.7812304957075682 38.2419723650567462 28.1128704123049964
 46.5068666816875762 38.2419723650567462 28.1128704123049964
 43.6882968676675674 38.2419723650567462 28.1128704123049964
 40.8696424957075664 38.2419723650567462 28.1128704123049964
 -28.1859945128917460 50.4468867657654769 28.1128704123049964
 35.2325028676675771 38.2419723650567462 28.1128704123049964
 -22.5487703269117468 50.4468867657654769 28.1128704123049964
 52.1440908676675789 38.2419723650567462 28.1128704123049964
 26.7767088676675797 38.2419723650567462 28.1128704123049964
 -1.4093275855641247 48.0059331773597151 28.1128704123049964
 -9.8651215855641290 48.0059331773597151 28.1128704123049964
 22.5488118067141059 45.5649063596139996 28.1128704123049964
 28.1859514347540951 45.5649063596139996 28.1128704123049964
 54.9626183620817130 43.1239527712082307 28.1128704123049964
 52.1440485480617184 43.1239527712082307 28.1128704123049964
 36.6417454347540925 45.5649063596139996 28.1128704123049964
 43.6882545480617210 43.1239527712082307 28.1128704123049964
 -7.0465517715441273 48.0059331773597151 28.1128704123049964
 39.4603998067140935 45.5649063596139996 28.1128704123049964
 23.9580967340417281 43.1239527712082307 28.1128704123049964
 -4.2279396379182765 43.1239527712082307 28.1128704123049964
 -12.6837336379182783 43.1239527712082307 28.1128704123049964
 -15.5023457715441282 48.0059331773597151 28.1128704123049964
 -18.3208732659582765 43.1239527712082307 28.1128704123049964
 -23.9580974519382757 43.1239527712082307 28.1128704123049964
 45.0975394347540970 45.5649063596139996 28.1128704123049964
 -16.9116306988717469 50.4468867657654769 28.1128704123049964
 31.0045634871082498 50.4468867657654769 28.1128704123049964
 -12.6836913183124267 38.2419723650567462 28.1128704123049964
 15.5022605363428152 33.3600651882452155 28.1128704123049964
 26.7767087457606330 52.8878403541712458 28.1128704123049964
  7.0464665363428152 33.3600651882452155 28.1128704123049964
 -1.4093274636571897 33.3600651882452155 28.1128704123049964
 32.4138483738006258 52.8878403541712458 28.1128704123049964
 -9.8651214636571893 33.3600651882452155 28.1128704123049964
 29.5952787223228171 33.3600651882452155 28.1128704123049964
 43.6882967457606384 52.8878403541712458 28.1128704123049964
 62.0091275566610349 30.9190383704995000 28.1128704123049964
 49.3254363738006276 52.8878403541712458 28.1128704123049964
 47.9161939286210341 30.9190383704995000 28.1128704123049964
 -25.3673824605375984 55.3288671719169614 28.1128704123049964
 42.2789697426410385 30.9190383704995000 28.1128704123049964
 -19.7302428324975985 55.3288671719169614 28.1128704123049964
 -18.3209154636571903 33.3600651882452155 28.1128704123049964
 32.4138485363428117 33.3600651882452155 28.1128704123049964
 35.2324183503628063 33.3600651882452155 28.1128704123049964
 40.8696425363428091 33.3600651882452155 28.1128704123049964
 -15.5022611323324266 38.2419723650567462 28.1128704123049964
 47.9161514871082517 50.4468867657654769 28.1128704123049964
 50.7347214230351895 35.8010187766509844 28.1128704123049964
 -12.6836914402193699 52.8878403541712458 28.1128704123049964
 22.5487696090151921 35.8010187766509844 28.1128704123049964
 -4.2278974402193654 52.8878403541712458 28.1128704123049964
 14.0929756090151947 35.8010187766509844 28.1128704123049964
 11.2744057949951930 35.8010187766509844 28.1128704123049964
  8.4557514230351885 35.8010187766509844 28.1128704123049964
  1.4093267457606342 52.8878403541712458 28.1128704123049964
 -0.0000425769648080 35.8010187766509844 28.1128704123049964
  4.2278965597806355 52.8878403541712458 28.1128704123049964
 -19.7302003909848089 35.8010187766509844 28.1128704123049964
 46.5068667223228047 33.3600651882452155 28.1128704123049964
 43.6882123503628037 33.3600651882452155 28.1128704123049964
 64.8277820505279863 16.2731703813850075 28.1128704123049964
 35.2324181065489270 62.6518011664742076 28.1128704123049964
  5.6372238067141032 45.5649063596139996 28.1128704123049964
 42.2789694175554729 69.9747351610314468 28.1128704123049964
  4.2278964378736958 67.5337083432857384 28.1128704123049964
 74.6928187395214422  8.9502363868277595 28.1128704123049964
 74.6928187801566850  4.0683292100162243 28.1128704123049964
 -4.2278975621263015 67.5337083432857384 28.1128704123049964
 19.7301572315754683 69.9747351610314468 28.1128704123049964
 60.5998005941766849  4.0683292100162243 28.1128704123049964
 -23.9580553761463051 67.5337083432857384 28.1128704123049964
 -29.5952795621263043 67.5337083432857384 28.1128704123049964
 54.9626609661366956  4.0683292100162243 28.1128704123049964
 33.8231759051832199 11.3912632045734714 28.1128704123049964
 39.4603155332232234 11.3912632045734714 28.1128704123049964
 45.0975397192032190 11.3912632045734714 28.1128704123049964
 40.8696427801566955  4.0683292100162243 28.1128704123049964
 50.7347639051832218 11.3912632045734714 28.1128704123049964
 -38.0510735621263052 67.5337083432857384 28.1128704123049964
 56.3719035332232110 11.3912632045734714 28.1128704123049964
 45.0975815511813138 65.0927547548799765 28.1128704123049964
 42.2789271792213057 65.0927547548799765 28.1128704123049964
 64.8276975332232155 11.3912632045734714 28.1128704123049964
 39.4603573652013111 65.0927547548799765 28.1128704123049964
  4.2278969661366892  4.0683292100162243 28.1128704123049964
 81.7393701724349171  1.6273023922705114 28.1128704123049964
 25.3673391792213039 65.0927547548799765 28.1128704123049964
 52.1440911114814512  8.9502363868277595 28.1128704123049964
 22.5487693652013093 65.0927547548799765 28.1128704123049964
 80.3300429661366877  4.0683292100162243 28.1128704123049964
 29.5952784378736951 67.5337083432857384 28.1128704123049964
 -8.4557945824445344 69.9747351610314468 28.1128704123049964
 22.5487698528290750  6.5092827984219914 28.1128704123049964
 33.8231336668490670  6.5092827984219914 28.1128704123049964
 -0.0000005824445366 69.9747351610314468 28.1128704123049964
 59.1905156668490591  6.5092827984219914 28.1128704123049964
 62.0091700388090601  6.5092827984219914 28.1128704123049964
 -14.0930187684245301 69.9747351610314468 28.1128704123049964
 64.8277398528290689  6.5092827984219914 28.1128704123049964
 11.2744060388090670  6.5092827984219914 28.1128704123049964
 67.6463096668490635  6.5092827984219914 28.1128704123049964
 70.4649640388090717  6.5092827984219914 28.1128704123049964
 -19.7302429544045346 69.9747351610314468 28.1128704123049964
 73.2835338528290663  6.5092827984219914 28.1128704123049964
 -22.5488127684245363 69.9747351610314468 28.1128704123049964
  2.8186120388090696  6.5092827984219914 28.1128704123049964
 -25.3673825824445345 69.9747351610314468 28.1128704123049964
 -28.1860369544045355 69.9747351610314468 28.1128704123049964
  7.0464667395214500  8.9502363868277595 28.1128704123049964
 -33.8231765824445318 69.9747351610314468 28.1128704123049964
 -36.6418309544045329 69.9747351610314468 28.1128704123049964
 15.5022607395214518  8.9502363868277595 28.1128704123049964
 38.0510724378736924 67.5337083432857384 28.1128704123049964
 32.4138482518936897 67.5337083432857384 28.1128704123049964
 43.6882971114814538  8.9502363868277595 28.1128704123049964
 64.8277821724349081  1.6273023922705114 28.1128704123049964
 28.1859940388090742  6.5092827984219914 28.1128704123049964
  2.8186115511813119 65.0927547548799765 28.1128704123049964
 25.3673819864549230  1.6273023922705114 28.1128704123049964
 15.5023024902278443 72.4156887494372228 28.1128704123049964
 14.0930180505279825 16.2731703813850075 28.1128704123049964
 23.9580969778556039 13.8322167929792403 28.1128704123049964
 -19.7302006347986882 65.0927547548799765 28.1128704123049964
 26.7766667918756056 13.8322167929792403 28.1128704123049964
 18.3208727918756047 13.8322167929792403 28.1128704123049964
 -0.0000428207786890 65.0927547548799765 28.1128704123049964
 29.5952366058956002 13.8322167929792403 28.1128704123049964
 -11.2744066347986838 65.0927547548799765 28.1128704123049964
  5.6372240505279780 16.2731703813850075 28.1128704123049964
 35.2324607918756030 13.8322167929792403 28.1128704123049964
 38.0510306058956047 13.8322167929792403 28.1128704123049964
 74.6928609778556023 13.8322167929792403 28.1128704123049964
  7.0465084902278479 72.4156887494372228 28.1128704123049964
 12.6836481182678362 72.4156887494372228 28.1128704123049964
 -2.8185699494720202 16.2731703813850075 28.1128704123049964
 -28.1859946347986892 65.0927547548799765 28.1128704123049964
  4.2278546058956001 13.8322167929792403 28.1128704123049964
 -5.6371824488186855 65.0927547548799765 28.1128704123049964
 16.9115451792213065 65.0927547548799765 28.1128704123049964
 50.7347638645479790 16.2731703813850075 28.1128704123049964
 32.4138904902278497 72.4156887494372228 28.1128704123049964
 60.5998427918756022 13.8322167929792403 28.1128704123049964
 22.5488121724349213  1.6273023922705114 28.1128704123049964
 46.5068246058955950 13.8322167929792403 28.1128704123049964
 14.0930181724349168  1.6273023922705114 28.1128704123049964
 31.0046061724349222  1.6273023922705114 28.1128704123049964
 63.4184126058955968 13.8322167929792403 28.1128704123049964
 -4.2279398817321576 72.4156887494372228 28.1128704123049964
 -33.8232188207786848 65.0927547548799765 28.1128704123049964
 43.6882547918756003 13.8322167929792403 28.1128704123049964
 -22.5487703404568300 52.0741891580359919 28.6327538495249954
 -22.5487280208509766 47.1922087518845075 28.6327538495249954
 -19.7302005264368283 52.0741891580359919 28.6327538495249954
 52.1440907728507952 49.6332355696302230 28.6327538495249954
 -25.3673401544768282 52.0741891580359919 28.6327538495249954
 49.3254787204966547 44.7512551634787386 28.6327538495249954
 -14.0929763404568273 52.0741891580359919 28.6327538495249954
 -25.3673823928109776 47.1922087518845075 28.6327538495249954
  9.8651206103086064 69.1610107355562462 28.6327538495249954
 -8.4557521544768282 52.0741891580359919 28.6327538495249954
  1.4093266103086164 69.1610107355562462 28.6327538495249954
 16.9115874040103833 71.6020375533019688 28.6327538495249954
 -2.8186125264368322 52.0741891580359919 28.6327538495249954
 32.4138907204966458 44.7512551634787386 28.6327538495249954
 25.3673814040103807 71.6020375533019688 28.6327538495249954
 28.1859512180303895 71.6020375533019688 28.6327538495249954
 26.7766665345166501 44.7512551634787386 28.6327538495249954
 -1.4092432037113782 69.1610107355562462 28.6327538495249954
 18.3208725345166314 44.7512551634787386 28.6327538495249954
 -16.9115461544768308 52.0741891580359919 28.6327538495249954
 12.6836904243286224 69.1610107355562462 28.6327538495249954
 -25.3673825959896213 71.6020375533019688 28.6327538495249954
 43.6882967728507978 49.6332355696302230 28.6327538495249954
  2.8185692180303707 71.6020375533019688 28.6327538495249954
 -4.2278975756713866 69.1610107355562462 28.6327538495249954
 50.7347636071890307 47.1922087518845075 28.6327538495249954
 -39.4604007819696179 71.6020375533019688 28.6327538495249954
 -36.6417464100096169 71.6020375533019688 28.6327538495249954
 -14.0929340208509810 47.1922087518845075 28.6327538495249954
 47.9161937931690360 47.1922087518845075 28.6327538495249954
 -11.2743642068309775 47.1922087518845075 28.6327538495249954
 -33.8231765959896151 71.6020375533019688 28.6327538495249954
 39.4603997931690245 47.1922087518845075 28.6327538495249954
 -16.9115885959896168 71.6020375533019688 28.6327538495249954
 25.3673816071890279 47.1922087518845075 28.6327538495249954
 -22.5488127819696196 71.6020375533019688 28.6327538495249954
 -31.0046067819696169 71.6020375533019688 28.6327538495249954
 -5.6371400208509774 47.1922087518845075 28.6327538495249954
 11.2744479791490271 47.1922087518845075 28.6327538495249954
 -28.1859524100096195 71.6020375533019688 28.6327538495249954
 53.5534179791490246 47.1922087518845075 28.6327538495249954
 46.5068665868708067 49.6332355696302230 28.6327538495249954
 38.0510724243286234 69.1610107355562462 28.6327538495249954
 11.2743632180303894 71.6020375533019688 28.6327538495249954
 40.8696424008908039 49.6332355696302230 28.6327538495249954
 15.5023447962886092 69.1610107355562462 28.6327538495249954
  2.8186539791490159 47.1922087518845075 28.6327538495249954
 38.0510725868707951 49.6332355696302230 28.6327538495249954
 35.2325027728508005 49.6332355696302230 28.6327538495249954
 18.3209146103086198 69.1610107355562462 28.6327538495249954
 26.7767087728507853 49.6332355696302230 28.6327538495249954
 23.9580544008907985 49.6332355696302230 28.6327538495249954
 21.1394845868707826 49.6332355696302230 28.6327538495249954
 12.6836905868707941 49.6332355696302230 28.6327538495249954
  7.0464664008907913 49.6332355696302230 28.6327538495249954
 -9.8651215991092069 49.6332355696302230 28.6327538495249954
 -12.6836914131292051 49.6332355696302230 28.6327538495249954
 -21.1394854131292078 49.6332355696302230 28.6327538495249954
 23.9581387962886225 69.1610107355562462 28.6327538495249954
 29.5952784243286260 69.1610107355562462 28.6327538495249954
 -19.7301582068309784 47.1922087518845075 28.6327538495249954
 35.2325026103086287 69.1610107355562462 28.6327538495249954
 42.2789694852820901 61.8380767409990000 28.6327538495249954
 -21.1394854537644470 54.5151427464417537 28.6327538495249954
  8.4558358455231772 52.0741891580359919 28.6327538495249954
 12.6836904649638509 64.2791035587447084 28.6327538495249954
 12.6837329064766493 44.7512551634787386 28.6327538495249954
 15.5022602789838597 64.2791035587447084 28.6327538495249954
 -12.6836492154302967 59.3971231525932382 28.6327538495249954
 -15.5023035873902977 59.3971231525932382 28.6327538495249954
 -18.3208734014102959 59.3971231525932382 28.6327538495249954
 -21.1394432154303011 59.3971231525932382 28.6327538495249954
 -23.9580975873902986 59.3971231525932382 28.6327538495249954
  1.4092844126096999 59.3971231525932382 28.6327538495249954
 26.7767086509438528 64.2791035587447084 28.6327538495249954
 38.0510724649638732 64.2791035587447084 28.6327538495249954
 -32.4138915873902960 59.3971231525932382 28.6327538495249954
 50.7347635259173302 56.9561695641874692 28.6327538495249954
 42.2789695259173328 56.9561695641874692 28.6327538495249954
 39.4603997118973240 56.9561695641874692 28.6327538495249954
 46.5068664649638706 64.2791035587447084 28.6327538495249954
 25.3673815259173274 56.9561695641874692 28.6327538495249954
 19.7301573399373318 56.9561695641874692 28.6327538495249954
 29.5952784649638616 64.2791035587447084 28.6327538495249954
 16.9115875259173158 56.9561695641874692 28.6327538495249954
  4.2279387845697078 59.3971231525932382 28.6327538495249954
 18.3208724126097096 59.3971231525932382 28.6327538495249954
 33.8231754852820927 61.8380767409990000 28.6327538495249954
 45.0976238572420840 61.8380767409990000 28.6327538495249954
 25.3673814852820882 61.8380767409990000 28.6327538495249954
 22.5488116712620865 61.8380767409990000 28.6327538495249954
 19.7302418572420777 61.8380767409990000 28.6327538495249954
 47.9161936712620928 61.8380767409990000 28.6327538495249954
  2.8186538572420905 61.8380767409990000 28.6327538495249954
 -29.5952795350361448 64.2791035587447084 28.6327538495249954
  7.0464662789838490 64.2791035587447084 28.6327538495249954
 -0.0000005147179177 61.8380767409990000 28.6327538495249954
 -21.1394855350361439 64.2791035587447084 28.6327538495249954
 -16.9115885147179164 61.8380767409990000 28.6327538495249954
 -15.5022613490561429 64.2791035587447084 28.6327538495249954
 -7.0464673490561447 64.2791035587447084 28.6327538495249954
 -25.3673825147179137 61.8380767409990000 28.6327538495249954
 49.3254785985897115 59.3971231525932382 28.6327538495249954
 40.8696845985897141 59.3971231525932382 28.6327538495249954
 23.9580965985897052 59.3971231525932382 28.6327538495249954
 -23.9580553490561456 64.2791035587447084 28.6327538495249954
  5.6371814735631682 52.0741891580359919 28.6327538495249954
 14.0930177118973283 56.9561695641874692 28.6327538495249954
 11.2743633399373131 56.9561695641874692 28.6327538495249954
 14.0929753516562410 66.7200571471504844 28.6327538495249954
  4.2278965462355513 54.5151427464417537 28.6327538495249954
 28.1859935376362323 66.7200571471504844 28.6327538495249954
 -15.5022612677844460 54.5151427464417537 28.6327538495249954
 33.8232177236162386 66.7200571471504844 28.6327538495249954
 39.4603996712620955 61.8380767409990000 28.6327538495249954
 42.2790117236162359 66.7200571471504844 28.6327538495249954
 -26.7766250818044469 54.5151427464417537 28.6327538495249954
  7.0465509181955595 54.5151427464417537 28.6327538495249954
 -29.5952794537644479 54.5151427464417537 28.6327538495249954
 -32.4138493896913857 69.1610107355562462 28.6327538495249954
 36.6417876595431693 52.0741891580359919 28.6327538495249954
 28.1859936595431719 52.0741891580359919 28.6327538495249954
 22.5487694735631763 52.0741891580359919 28.6327538495249954
 16.9116298455231728 52.0741891580359919 28.6327538495249954
 -12.6836915756713875 69.1610107355562462 28.6327538495249954
 14.0929754735631594 52.0741891580359919 28.6327538495249954
 11.2744056595431719 52.0741891580359919 28.6327538495249954
 45.0975816595431809 52.0741891580359919 28.6327538495249954
 -36.6417886483437698 66.7200571471504844 28.6327538495249954
  0.0000417236162395 66.7200571471504844 28.6327538495249954
 15.5023449181955559 54.5151427464417537 28.6327538495249954
  8.4557935259173256 56.9561695641874692 28.6327538495249954
 -33.8231342763837688 66.7200571471504844 28.6327538495249954
  2.8185693399373224 56.9561695641874692 28.6327538495249954
 -25.3673402763837679 66.7200571471504844 28.6327538495249954
 -5.6372246600626781 56.9561695641874692 28.6327538495249954
 -11.2743642881026744 56.9561695641874692 28.6327538495249954
 -22.5487704623637697 66.7200571471504844 28.6327538495249954
 -14.0930186600626755 56.9561695641874692 28.6327538495249954
 -2.8186126483437688 66.7200571471504844 28.6327538495249954
 -28.1859522881026763 56.9561695641874692 28.6327538495249954
 -14.0929764623637634 66.7200571471504844 28.6327538495249954
 -11.2744066483437688 66.7200571471504844 28.6327538495249954
 46.5068665462355568 54.5151427464417537 28.6327538495249954
 -8.4557522763837714 66.7200571471504844 28.6327538495249954
 38.0510725462355595 54.5151427464417537 28.6327538495249954
 35.2325027322155506 54.5151427464417537 28.6327538495249954
 32.4139329181955560 54.5151427464417537 28.6327538495249954
 29.5952785462355585 54.5151427464417537 28.6327538495249954
 -16.9115462763837670 66.7200571471504844 28.6327538495249954
 -4.2278552154303037 59.3971231525932382 28.6327538495249954
  1.4092849002374601  0.8136511961352557 28.6327538495249954
  4.2279389064766386 44.7512551634787386 28.6327538495249954
 38.0511151502905278 15.4595191852497500 28.6327538495249954
 32.4138909643105251 15.4595191852497500 28.6327538495249954
 26.7766667783305188 15.4595191852497500 28.6327538495249954
 15.5023029643105232 15.4595191852497500 28.6327538495249954
  7.0465089643105223 15.4595191852497500 28.6327538495249954
  1.4092847783305213 15.4595191852497500 28.6327538495249954
 73.2835760776181360 13.0185655968439828 28.6327538495249954
 67.6463518916381474 13.0185655968439828 28.6327538495249954
 53.5533337056581473 13.0185655968439828 28.6327538495249954
 50.7347638916381456 13.0185655968439828 28.6327538495249954
 42.2789698916381340 13.0185655968439828 28.6327538495249954
 22.5488120776181340 13.0185655968439828 28.6327538495249954
 40.8696849643105153 15.4595191852497500 28.6327538495249954
 14.0930180776181420 13.0185655968439828 28.6327538495249954
  5.6372240776181393 13.0185655968439828 28.6327538495249954
  2.8185697056581414 13.0185655968439828 28.6327538495249954
 -0.0000001083618602 13.0185655968439828 28.6327538495249954
 -5.6372242943418591 13.0185655968439828 28.6327538495249954
 77.5114730979363742 10.5775387790982709 28.6327538495249954
 74.6929032839163654 10.5775387790982709 28.6327538495249954
 71.8742489119563714 10.5775387790982709 28.6327538495249954
 63.4184549119563812 10.5775387790982709 28.6327538495249954
 60.5998850979363723 10.5775387790982709 28.6327538495249954
 57.7813152839163777 10.5775387790982709 28.6327538495249954
 54.9626609119563767 10.5775387790982709 28.6327538495249954
 46.5068669119563793 10.5775387790982709 28.6327538495249954
  8.4557938916381428 13.0185655968439828 28.6327538495249954
 46.5069091502905181 15.4595191852497500 28.6327538495249954
 49.3254789643105269 15.4595191852497500 28.6327538495249954
 52.1440487783305286 15.4595191852497500 28.6327538495249954
 -5.6371820966429516 22.7824531798069998 28.6327538495249954
 -8.4557519106629488 22.7824531798069998 28.6327538495249954
 66.2370246447046753 20.3414995914012344 28.6327538495249954
 63.4184548306846807 20.3414995914012344 28.6327538495249954
 57.7812306447046780 20.3414995914012344 28.6327538495249954
 52.1440910166646745 20.3414995914012344 28.6327538495249954
 15.5022606447046662 20.3414995914012344 28.6327538495249954
 12.6836908306846716 20.3414995914012344 28.6327538495249954
  9.8651210166646699 20.3414995914012344 28.6327538495249954
  7.0464666447046698 20.3414995914012344 28.6327538495249954
  4.2278968306846716 20.3414995914012344 28.6327538495249954
 -4.2278971693153311 20.3414995914012344 28.6327538495249954
 73.2835760369829075 17.9004727736555189 28.6327538495249954
 70.4650062229628986 17.9004727736555189 28.6327538495249954
 62.0092122229629013 17.9004727736555189 28.6327538495249954
 47.9161940369829011 17.9004727736555189 28.6327538495249954
 39.4604000369828896 17.9004727736555189 28.6327538495249954
 31.0046060369829029 17.9004727736555189 28.6327538495249954
 22.5488120369828984 17.9004727736555189 28.6327538495249954
 16.9115878510028992 17.9004727736555189 28.6327538495249954
  8.4557938510029000 17.9004727736555189 28.6327538495249954
 -2.8185699630171004 17.9004727736555189 28.6327538495249954
 -5.6371397770370981 17.9004727736555189 28.6327538495249954
 69.0556367783305234 15.4595191852497500 28.6327538495249954
 66.2370669643105288 15.4595191852497500 28.6327538495249954
 60.5998427783305331 15.4595191852497500 28.6327538495249954
 57.7812729643105243 15.4595191852497500 28.6327538495249954
 40.8697272839163759 10.5775387790982709 28.6327538495249954
 32.4139332839163785 10.5775387790982709 28.6327538495249954
 29.5952789119563668 10.5775387790982709 28.6327538495249954
 26.7767090979363651 10.5775387790982709 28.6327538495249954
 78.9208003448698463  3.2546047845410229 28.6327538495249954
 76.1021459729098524  3.2546047845410229 28.6327538495249954
 67.6463519729098550  3.2546047845410229 28.6327538495249954
 64.8277821588898462  3.2546047845410229 28.6327538495249954
 62.0092123448698445  3.2546047845410229 28.6327538495249954
 59.1905579729098434  3.2546047845410229 28.6327538495249954
 50.7347639729098461  3.2546047845410229 28.6327538495249954
 45.0976243448698426  3.2546047845410229 28.6327538495249954
 39.4604001588898399  3.2546047845410229 28.6327538495249954
 36.6418303448698452  3.2546047845410229 28.6327538495249954
 31.0046061588898354  3.2546047845410229 28.6327538495249954
 28.1860363448698337  3.2546047845410229 28.6327538495249954
 25.3673819729098362  3.2546047845410229 28.6327538495249954
 69.0556369002374737  0.8136511961352557 28.6327538495249954
 60.5998429002374621  0.8136511961352557 28.6327538495249954
 57.7812730862174604  0.8136511961352557 28.6327538495249954
 54.9627032721974516  0.8136511961352557 28.6327538495249954
 52.1440489002374647  0.8136511961352557 28.6327538495249954
 49.3254790862174488  0.8136511961352557 28.6327538495249954
 46.5069092721974613  0.8136511961352557 28.6327538495249954
 43.6882549002374461  0.8136511961352557 28.6327538495249954
 35.2324609002374558  0.8136511961352557 28.6327538495249954
 26.7766669002374584  0.8136511961352557 28.6327538495249954
 21.1395272721974621  0.8136511961352557 28.6327538495249954
 15.5023030862174611  0.8136511961352557 28.6327538495249954
  9.8650789002374601  0.8136511961352557 28.6327538495249954
  7.0465090862174584  0.8136511961352557 28.6327538495249954
 -1.4093272333883895  5.6956316022867357 28.6327538495249954
 -2.8186122826229494 22.7824531798069998 28.6327538495249954
  7.0464667666116103  5.6956316022867357 28.6327538495249954
 18.3209151385716105  5.6956316022867357 28.6327538495249954
 23.9581392839163634 10.5775387790982709 28.6327538495249954
 21.1394849119563659 10.5775387790982709 28.6327538495249954
 12.6836909119563703 10.5775387790982709 28.6327538495249954
  4.2278969119563712 10.5775387790982709 28.6327538495249954
 -4.2278970880436288 10.5775387790982709 28.6327538495249954
 76.1021882112439840  8.1365851906925037 28.6327538495249954
 73.2835338392839901  8.1365851906925037 28.6327538495249954
 67.6463942112439867  8.1365851906925037 28.6327538495249954
 56.3719458392839954  8.1365851906925037 28.6327538495249954
 53.5533760252639937  8.1365851906925037 28.6327538495249954
 47.9161518392839980  8.1365851906925037 28.6327538495249954
 39.4603578392839793  8.1365851906925037 28.6327538495249954
 36.6417880252639918  8.1365851906925037 28.6327538495249954
 33.8232182112439972  8.1365851906925037 28.6327538495249954
 31.0045638392839891  8.1365851906925037 28.6327538495249954
 25.3674242112439856  8.1365851906925037 28.6327538495249954
 14.0929758392839890  8.1365851906925037 28.6327538495249954
 11.2744060252639908  8.1365851906925037 28.6327538495249954
  5.6371818392839907  8.1365851906925037 28.6327538495249954
  2.8186120252639890  8.1365851906925037 28.6327538495249954
 -2.8186121607160102  8.1365851906925037 28.6327538495249954
 77.5114731385716169  5.6956316022867357 28.6327538495249954
 71.8742489525916284  5.6956316022867357 28.6327538495249954
 63.4184549525916097  5.6956316022867357 28.6327538495249954
 38.0510729525916105  5.6956316022867357 28.6327538495249954
 29.5952789525916060  5.6956316022867357 28.6327538495249954
 26.7767091385716043  5.6956316022867357 28.6327538495249954
 15.5022607666116095  5.6956316022867357 28.6327538495249954
  5.6371817173770493 22.7824531798069998 28.6327538495249954
 11.2744059033570529 22.7824531798069998 28.6327538495249954
 14.0929757173770476 22.7824531798069998 28.6327538495249954
 31.0045635954701204 37.4283211689214923 28.6327538495249954
 25.3674239674301170 37.4283211689214923 28.6327538495249954
 22.5487695954701017 37.4283211689214923 28.6327538495249954
 19.7301997814501142 37.4283211689214923 28.6327538495249954
 16.9116299674301196 37.4283211689214923 28.6327538495249954
 14.0929755954701115 37.4283211689214923 28.6327538495249954
 11.2744057814501097 37.4283211689214923 28.6327538495249954
  8.4558359674301080 37.4283211689214923 28.6327538495249954
  5.6371815954701097 37.4283211689214923 28.6327538495249954
  2.8186117814501150 37.4283211689214923 28.6327538495249954
  0.0000419674301133 37.4283211689214923 28.6327538495249954
 -2.8186124045298877 37.4283211689214923 28.6327538495249954
 -11.2744064045298860 37.4283211689214923 28.6327538495249954
 -16.9115460325698876 37.4283211689214923 28.6327538495249954
 63.4184547087777446 34.9873675805157234 28.6327538495249954
 36.6417452180303869 71.6020375533019688 28.6327538495249954
 54.9626607087777472 34.9873675805157234 28.6327538495249954
 46.5068667087777357 34.9873675805157234 28.6327538495249954
 43.6882968947577410 34.9873675805157234 28.6327538495249954
 40.8696425227977400 34.9873675805157234 28.6327538495249954
 38.0510727087777383 34.9873675805157234 28.6327538495249954
 35.2325028947577295 34.9873675805157234 28.6327538495249954
 29.5952787087777267 34.9873675805157234 28.6327538495249954
 26.7767088947577392 34.9873675805157234 28.6327538495249954
 23.9580545227977240 34.9873675805157234 28.6327538495249954
 18.3209148947577418 34.9873675805157234 28.6327538495249954
 12.6836907087777320 34.9873675805157234 28.6327538495249954
 39.4603575954701142 37.4283211689214923 28.6327538495249954
  1.4093268947577322 34.9873675805157234 28.6327538495249954
 47.9161515954701187 37.4283211689214923 28.6327538495249954
 -21.1394853318575109 39.8692747573272612 28.6327538495249954
  1.4092845345166412 44.7512551634787386 28.6327538495249954
 -4.2278550935233552 44.7512551634787386 28.6327538495249954
 -7.0465094654833562 44.7512551634787386 28.6327538495249954
 56.3719878338042619 42.3103015750729767 28.6327538495249954
 50.7347636478242734 42.3103015750729767 28.6327538495249954
 47.9161938338042646 42.3103015750729767 28.6327538495249954
 39.4603998338042672 42.3103015750729767 28.6327538495249954
 36.6417454618442662 42.3103015750729767 28.6327538495249954
 33.8231756478242644 42.3103015750729767 28.6327538495249954
 31.0046058338042556 42.3103015750729767 28.6327538495249954
 28.1859514618442688 42.3103015750729767 28.6327538495249954
 -8.4557943521757366 42.3103015750729767 28.6327538495249954
 -16.9115883521757375 42.3103015750729767 28.6327538495249954
 -19.7301581661957393 42.3103015750729767 28.6327538495249954
 60.5998848541225001 39.8692747573272612 28.6327538495249954
 57.7813150401024913 39.8692747573272612 28.6327538495249954
 54.9626606681424974 39.8692747573272612 28.6327538495249954
 52.1440908541225028 39.8692747573272612 28.6327538495249954
 21.1394846681424795 39.8692747573272612 28.6327538495249954
 15.5023450401024956 39.8692747573272612 28.6327538495249954
  7.0465510401024849 39.8692747573272612 28.6327538495249954
 -1.4092429598975091 39.8692747573272612 28.6327538495249954
 -4.2278973318575099 39.8692747573272612 28.6327538495249954
 -7.0464671458775081 39.8692747573272612 28.6327538495249954
 -9.8650369598975125 39.8692747573272612 28.6327538495249954
 -12.6836913318575100 39.8692747573272612 28.6327538495249954
 -18.3208309598975099 39.8692747573272612 28.6327538495249954
 56.3719455954701161 37.4283211689214923 28.6327538495249954
  9.8650785345166412 44.7512551634787386 28.6327538495249954
 -4.2278972912222672 34.9873675805157234 28.6327538495249954
 -15.5022611052422672 34.9873675805157234 28.6327538495249954
 22.5488119557112086 27.6644335859584807 28.6327538495249954
 16.9115877697311987 27.6644335859584807 28.6327538495249954
 11.2743635837511977 27.6644335859584807 28.6327538495249954
  8.4557937697312031 27.6644335859584807 28.6327538495249954
 -0.0000002302687971 27.6644335859584807 28.6327538495249954
 66.2371091620094319 25.2234067682127652 28.6327538495249954
 63.4184547900494380 25.2234067682127652 28.6327538495249954
 40.8697271620094256 25.2234067682127652 28.6327538495249954
 32.4139331620094353 25.2234067682127652 28.6327538495249954
 26.7767089760294326 25.2234067682127652 28.6327538495249954
  4.2278967900494315 25.2234067682127652 28.6327538495249954
  1.4093269760294336 25.2234067682127652 28.6327538495249954
 -1.4092428379905699 25.2234067682127652 28.6327538495249954
 -7.0464670239705693 25.2234067682127652 28.6327538495249954
 -9.8650368379905675 25.2234067682127652 28.6327538495249954
 -12.6836912099505668 25.2234067682127652 28.6327538495249954
 70.4649639033570594 22.7824531798069998 28.6327538495249954
 64.8277397173770566 22.7824531798069998 28.6327538495249954
 62.0091699033570620 22.7824531798069998 28.6327538495249954
 56.3719457173770593 22.7824531798069998 28.6327538495249954
 47.9161517173770548 22.7824531798069998 28.6327538495249954
 42.2790120893370442 22.7824531798069998 28.6327538495249954
 39.4603577173770574 22.7824531798069998 28.6327538495249954
 33.8232180893370540 22.7824531798069998 28.6327538495249954
 28.1859939033570512 22.7824531798069998 28.6327538495249954
 25.3674240893370566 22.7824531798069998 28.6327538495249954
 19.7301999033570468 22.7824531798069998 28.6327538495249954
 31.0046059557112059 27.6644335859584807 28.6327538495249954
 -12.6836912912222672 34.9873675805157234 28.6327538495249954
 39.4603999557111962 27.6644335859584807 28.6327538495249954
 50.7347637697312024 27.6644335859584807 28.6327538495249954
 59.1905577290959641 32.5463407627700150 28.6327538495249954
 45.0976241010559633 32.5463407627700150 28.6327538495249954
 28.1860361010559650 32.5463407627700150 28.6327538495249954
 19.7302421010559677 32.5463407627700150 28.6327538495249954
 11.2744481010559561 32.5463407627700150 28.6327538495249954
  5.6372239150759640 32.5463407627700150 28.6327538495249954
 -2.8185700849240374 32.5463407627700150 28.6327538495249954
 -5.6371398989440404 32.5463407627700150 28.6327538495249954
 -14.0929338989440378 32.5463407627700150 28.6327538495249954
 63.4184970283835838 30.1053871743642461 28.6327538495249954
 60.5998426564235899 30.1053871743642461 28.6327538495249954
 57.7812728424035953 30.1053871743642461 28.6327538495249954
 52.1440486564235925 30.1053871743642461 28.6327538495249954
 46.5069090283835891 30.1053871743642461 28.6327538495249954
 40.8696848424035863 30.1053871743642461 28.6327538495249954
 38.0511150283835775 30.1053871743642461 28.6327538495249954
 35.2324606564235907 30.1053871743642461 28.6327538495249954
 29.5953210283835837 30.1053871743642461 28.6327538495249954
 26.7766666564235685 30.1053871743642461 28.6327538495249954
 15.5023028424035783 30.1053871743642461 28.6327538495249954
  4.2279390283835818 30.1053871743642461 28.6327538495249954
 -1.4092851575964171 30.1053871743642461 28.6327538495249954
 -9.8650791575964192 30.1053871743642461 28.6327538495249954
 -12.6836489716164174 30.1053871743642461 28.6327538495249954
 67.6463517697312113 27.6644335859584807 28.6327538495249954
 62.0091275837512086 27.6644335859584807 28.6327538495249954
 53.5533335837512112 27.6644335859584807 28.6327538495249954
 47.9161939557112078 27.6644335859584807 28.6327538495249954
 39.4603995899903808 71.6020375533019688 28.6327538495249954
