 H  O 
 1.0000000000000000
    84.5579400000000021    0.0000000000000000    0.0000000000000000
   -42.2789706095346958   73.2293399455724767    0.0000000000000000
     0.0000000000000000    0.0000000000000000   46.9039550000000034
 H   O  
 220 388
Cartesian
 -0.0000000135450799  1.6273023922705114 28.1128704123049964
 -2.8186545886837178 26.0371311936879657 28.1128704123049964
  5.6371394113162827 26.0371311936879657 28.1128704123049964
  8.4557937832762846 26.0371311936879657 28.1128704123049964
 14.0929334113162810 26.0371311936879657 28.1128704123049964
 16.9115877832762855 26.0371311936879657 28.1128704123049964
 19.7301575972962873 26.0371311936879657 28.1128704123049964
 22.5487274113162819 26.0371311936879657 28.1128704123049964
 -32.4138915738452127 57.7698207603227232 28.1128704123049964
 31.0045214113162864 26.0371311936879657 28.1128704123049964
 47.9161091675023982 55.3288671719169614 28.1128704123049964
 36.6417455972962784 26.0371311936879657 28.1128704123049964
 42.2789695394624090 55.3288671719169614 28.1128704123049964
 59.1905577832762830 26.0371311936879657 28.1128704123049964
 36.6417453534824062 55.3288671719169614 28.1128704123049964
 -15.5023035738452162 57.7698207603227232 28.1128704123049964
 33.8231755394623974 55.3288671719169614 28.1128704123049964
 67.6463517832762875 26.0371311936879657 28.1128704123049964
 16.9115875394624062 55.3288671719169614 28.1128704123049964
 11.2743633534824053 55.3288671719169614 28.1128704123049964
  8.4557935394624035 55.3288671719169614 28.1128704123049964
  2.8185693534824074 55.3288671719169614 28.1128704123049964
 -14.0930186465175975 55.3288671719169614 28.1128704123049964
 29.5952364839886641 28.4780847820937346 28.1128704123049964
 32.4138908559486651 28.4780847820937346 28.1128704123049964
 38.0510304839886544 28.4780847820937346 28.1128704123049964
 -28.1860368324975958 55.3288671719169614 28.1128704123049964
 46.5068244839886518 28.4780847820937346 28.1128704123049964
 52.1440907457606357 52.8878403541712458 28.1128704123049964
 57.7812728559486644 28.4780847820937346 28.1128704123049964
 63.4184124839886536 28.4780847820937346 28.1128704123049964
 64.8276974113162794 26.0371311936879657 28.1128704123049964
 -11.2744485886837182 26.0371311936879657 28.1128704123049964
 54.9626608035945097 23.5961043759422537 28.1128704123049964
 23.9580546176145113 23.5961043759422537 28.1128704123049964
 -26.7767097074710669 62.6518011664742076 28.1128704123049964
 56.3719880505279747 16.2731703813850075 28.1128704123049964
 62.0091276785679781 16.2731703813850075 28.1128704123049964
 70.4649216785679755 16.2731703813850075 28.1128704123049964
  4.2278968442297478 18.7141971991307194 28.1128704123049964
 -35.2325037074710679 62.6518011664742076 28.1128704123049964
  9.8650364722697521 18.7141971991307194 28.1128704123049964
 33.8231754988271618 60.2107743487284921 28.1128704123049964
 25.3673814988271609 60.2107743487284921 28.1128704123049964
 14.0930176848071671 60.2107743487284921 28.1128704123049964
  8.4557934988271644 60.2107743487284921 28.1128704123049964
 -5.6372246871528393 60.2107743487284921 28.1128704123049964
 -2.8186122690778692 21.1551507875364884 28.1128704123049964
 -0.0000424550578693 21.1551507875364884 28.1128704123049964
 -11.2743643151928357 60.2107743487284921 28.1128704123049964
 25.3673395449421299 21.1551507875364884 28.1128704123049964
 28.1859939169021310 21.1551507875364884 28.1128704123049964
  7.0465086121347857 57.7698207603227232 28.1128704123049964
 15.5022606176145086 23.5961043759422537 28.1128704123049964
 18.3208724261547857 57.7698207603227232 28.1128704123049964
  7.0464666176145112 23.5961043759422537 28.1128704123049964
  4.2278968035945095 23.5961043759422537 28.1128704123049964
  1.4093269895745080 23.5961043759422537 28.1128704123049964
 66.2370668559486688 28.4780847820937346 28.1128704123049964
 26.7766664261547831 57.7698207603227232 28.1128704123049964
 35.2324604261547876 57.7698207603227232 28.1128704123049964
 43.6882544261547849 57.7698207603227232 28.1128704123049964
 59.1905155449421230 21.1551507875364884 28.1128704123049964
 53.5533759169021195 21.1551507875364884 28.1128704123049964
 -31.0046066871528367 60.2107743487284921 28.1128704123049964
 42.2789275449421211 21.1551507875364884 28.1128704123049964
 -4.2278971964054897 23.5961043759422537 28.1128704123049964
 46.5068665597806330 52.8878403541712458 28.1128704123049964
 -8.4557942573589582 30.9190383704995000 28.1128704123049964
 -0.0000002573589589 30.9190383704995000 28.1128704123049964
  9.8651208676675761 38.2419723650567462 28.1128704123049964
 15.5022604957075725 38.2419723650567462 28.1128704123049964
 32.4138484144358685 48.0059331773597151 28.1128704123049964
 26.7766242284558658 48.0059331773597151 28.1128704123049964
 29.5952786816875744 38.2419723650567462 28.1128704123049964
 21.1394846004158765 48.0059331773597151 28.1128704123049964
 49.3254364957075708 38.2419723650567462 28.1128704123049964
 -19.7302427105906588 40.6829991828024689 28.1128704123049964
  7.0464664144358764 48.0059331773597151 28.1128704123049964
 -5.6372245246106605 40.6829991828024689 28.1128704123049964
  1.4092422284558699 48.0059331773597151 28.1128704123049964
 -7.0465517715441273 48.0059331773597151 28.1128704123049964
 -12.6836913995841307 48.0059331773597151 28.1128704123049964
 -18.3209155855641299 48.0059331773597151 28.1128704123049964
 22.5487272894093422 40.6829991828024689 28.1128704123049964
 25.3673816613693432 40.6829991828024689 28.1128704123049964
 36.6417454753893352 40.6829991828024689 28.1128704123049964
 -22.5488125652458997 45.5649063596139996 28.1128704123049964
 57.7812727340417212 43.1239527712082307 28.1128704123049964
 54.9626183620817130 43.1239527712082307 28.1128704123049964
 40.8696847340417122 43.1239527712082307 28.1128704123049964
 36.6417454347540925 45.5649063596139996 28.1128704123049964
 12.6836483620817209 43.1239527712082307 28.1128704123049964
 52.1440062284558650 48.0059331773597151 28.1128704123049964
  9.8650785480617262 43.1239527712082307 28.1128704123049964
  4.2278543620817208 43.1239527712082307 28.1128704123049964
 -12.6837336379182783 43.1239527712082307 28.1128704123049964
 -21.1395276379182775 43.1239527712082307 28.1128704123049964
 53.5533334347540944 45.5649063596139996 28.1128704123049964
 53.5533334753893371 40.6829991828024689 28.1128704123049964
 45.0975394753893397 40.6829991828024689 28.1128704123049964
 42.2789696207341024 45.5649063596139996 28.1128704123049964
 50.7347638645479790 16.2731703813850075 28.1128704123049964
 -19.7302005128917450 50.4468867657654769 28.1128704123049964
 -15.5022611323324266 38.2419723650567462 28.1128704123049964
 29.5952785597806276 52.8878403541712458 28.1128704123049964
 19.7301575566610410 30.9190383704995000 28.1128704123049964
 22.5488119286210420 30.9190383704995000 28.1128704123049964
 15.5022603738006346 52.8878403541712458 28.1128704123049964
 39.4603999286210438 30.9190383704995000 28.1128704123049964
 47.9161939286210341 30.9190383704995000 28.1128704123049964
  4.2278965597806355 52.8878403541712458 28.1128704123049964
 56.3719879286210457 30.9190383704995000 28.1128704123049964
 -1.4093276261993704 52.8878403541712458 28.1128704123049964
 -18.3209154636571903 33.3600651882452155 28.1128704123049964
 -12.6836912776771893 33.3600651882452155 28.1128704123049964
 -9.8651216261993682 52.8878403541712458 28.1128704123049964
  7.0464665363428152 33.3600651882452155 28.1128704123049964
 26.7766243503628161 33.3600651882452155 28.1128704123049964
 29.5952787223228171 33.3600651882452155 28.1128704123049964
 35.2324183503628063 33.3600651882452155 28.1128704123049964
 50.7347213011282463 50.4468867657654769 28.1128704123049964
 56.3719456090151922 35.8010187766509844 28.1128704123049964
 53.5533757949951976 35.8010187766509844 28.1128704123049964
 47.9161516090151949 35.8010187766509844 28.1128704123049964
 42.2789274230351850 35.8010187766509844 28.1128704123049964
 33.8231334230351877 35.8010187766509844 28.1128704123049964
 19.7301997949951904 35.8010187766509844 28.1128704123049964
 -16.9116306988717469 50.4468867657654769 28.1128704123049964
  8.4557513011282524 50.4468867657654769 28.1128704123049964
  2.8186117949951930 35.8010187766509844 28.1128704123049964
 -0.0000425769648080 35.8010187766509844 28.1128704123049964
 -2.8186123909848098 35.8010187766509844 28.1128704123049964
 -5.6371822050048115 35.8010187766509844 28.1128704123049964
 60.5998003503628055 33.3600651882452155 28.1128704123049964
 39.4603574871082543 50.4468867657654769 28.1128704123049964
 22.5487694871082525 50.4468867657654769 28.1128704123049964
 45.0975396785679763 16.2731703813850075 28.1128704123049964
 -12.6836911964054888 23.5961043759422537 28.1128704123049964
 39.4604000505279870 16.2731703813850075 28.1128704123049964
 -0.0000000948167802 11.3912632045734714 28.1128704123049964
  2.8185697192032206 11.3912632045734714 28.1128704123049964
 54.9626609661366956  4.0683292100162243 28.1128704123049964
 33.8231331792213084 65.0927547548799765 28.1128704123049964
 25.3673391792213039 65.0927547548799765 28.1128704123049964
  8.4557511792213162 65.0927547548799765 28.1128704123049964
 11.2743632315754621 69.9747351610314468 28.1128704123049964
 46.5068669661366982  4.0683292100162243 28.1128704123049964
  2.8186115511813119 65.0927547548799765 28.1128704123049964
 31.0045215332232189 11.3912632045734714 28.1128704123049964
 -5.6372242807967794 11.3912632045734714 28.1128704123049964
 16.9115874175554666 69.9747351610314468 28.1128704123049964
 50.7347639051832218 11.3912632045734714 28.1128704123049964
 40.8696427801566955  4.0683292100162243 28.1128704123049964
 38.0510729661366938  4.0683292100162243 28.1128704123049964
 43.6882121065489244 62.6518011664742076 28.1128704123049964
 40.8696422925289298 62.6518011664742076 28.1128704123049964
 22.5487270455954629 69.9747351610314468 28.1128704123049964
 38.0510724785089351 62.6518011664742076 28.1128704123049964
 -7.0465092081243990 13.8322167929792403 28.1128704123049964
 -4.2279393941043990 13.8322167929792403 28.1128704123049964
 -1.4093272198433096  4.0683292100162243 28.1128704123049964
 -0.0000428207786890 65.0927547548799765 28.1128704123049964
 63.4184549661366859  4.0683292100162243 28.1128704123049964
 -38.0510735621263052 67.5337083432857384 28.1128704123049964
 69.0555945941766822  4.0683292100162243 28.1128704123049964
 26.7767086238536862 67.5337083432857384 28.1128704123049964
 28.1859940388090742  6.5092827984219914 28.1128704123049964
 76.1021036668490609  6.5092827984219914 28.1128704123049964
 40.8696422518936870 67.5337083432857384 28.1128704123049964
  7.0464667395214500  8.9502363868277595 28.1128704123049964
 12.6836909255014501  8.9502363868277595 28.1128704123049964
 -4.2278975621263015 67.5337083432857384 28.1128704123049964
 -25.3673825824445345 69.9747351610314468 28.1128704123049964
 18.3209151114814510  8.9502363868277595 28.1128704123049964
 21.1394849255014528  8.9502363868277595 28.1128704123049964
 23.9580547395214474  8.9502363868277595 28.1128704123049964
 -22.5488127684245363 69.9747351610314468 28.1128704123049964
  2.8186120388090696  6.5092827984219914 28.1128704123049964
 -0.0000423331509293  6.5092827984219914 28.1128704123049964
 -9.8651217481063078 67.5337083432857384 28.1128704123049964
 -18.3209157481063052 67.5337083432857384 28.1128704123049964
 43.6882971114814538  8.9502363868277595 28.1128704123049964
 -23.9580553761463051 67.5337083432857384 28.1128704123049964
 52.1440911114814512  8.9502363868277595 28.1128704123049964
 57.7812307395214404  8.9502363868277595 28.1128704123049964
 -0.0000005824445366 69.9747351610314468 28.1128704123049964
 60.5998851114814414  8.9502363868277595 28.1128704123049964
 -29.5952795621263043 67.5337083432857384 28.1128704123049964
 29.5952784785089271 62.6518011664742076 28.1128704123049964
  9.8650787918756002 13.8322167929792403 28.1128704123049964
 31.0045638528290759  6.5092827984219914 28.1128704123049964
 78.9207158004749090  1.6273023922705114 28.1128704123049964
 -15.5023458934510643 62.6518011664742076 28.1128704123049964
 71.8742066058955942 13.8322167929792403 28.1128704123049964
  4.2278964785089341 62.6518011664742076 28.1128704123049964
 14.0930181724349168  1.6273023922705114 28.1128704123049964
 -1.4093277074710613 62.6518011664742076 28.1128704123049964
 -8.4557941354520185 16.2731703813850075 28.1128704123049964
 54.9626186058955923 13.8322167929792403 28.1128704123049964
  8.4557939864549194  1.6273023922705114 28.1128704123049964
 23.9580964902278346 72.4156887494372228 28.1128704123049964
 -7.0465518934510678 62.6518011664742076 28.1128704123049964
 -9.8651217074710615 62.6518011664742076 28.1128704123049964
 15.5023029778556030 13.8322167929792403 28.1128704123049964
 33.8231759864549275  1.6273023922705114 28.1128704123049964
 22.5488121724349213  1.6273023922705114 28.1128704123049964
 66.2370669778556049 13.8322167929792403 28.1128704123049964
 28.1859518004749177  1.6273023922705114 28.1128704123049964
 60.5998427918756022 13.8322167929792403 28.1128704123049964
 12.6836904785089395 62.6518011664742076 28.1128704123049964
 -0.0000001354520196 16.2731703813850075 28.1128704123049964
  7.0465084902278479 72.4156887494372228 28.1128704123049964
  5.6372240505279780 16.2731703813850075 28.1128704123049964
 33.8231758645479843 16.2731703813850075 28.1128704123049964
 15.5022602925289341 62.6518011664742076 28.1128704123049964
 73.2835761724349197  1.6273023922705114 28.1128704123049964
 21.1394844785089369 62.6518011664742076 28.1128704123049964
 -21.1394855214910677 62.6518011664742076 28.1128704123049964
 35.2324607918756030 13.8322167929792403 28.1128704123049964
 -22.5487703404568300 52.0741891580359919 28.6327538495249954
 -25.3673401544768282 52.0741891580359919 28.6327538495249954
 54.9626605868708040 49.6332355696302230 28.6327538495249954
  1.4093267728507877 49.6332355696302230 28.6327538495249954
 18.3208725345166314 44.7512551634787386 28.6327538495249954
 46.5068665868708067 49.6332355696302230 28.6327538495249954
 -21.1394855756713831 69.1610107355562462 28.6327538495249954
  4.2278965868707896 49.6332355696302230 28.6327538495249954
 -35.2324192037113804 69.1610107355562462 28.6327538495249954
 32.4138907204966458 44.7512551634787386 28.6327538495249954
 29.5953209064766369 44.7512551634787386 28.6327538495249954
 38.0510725868707951 49.6332355696302230 28.6327538495249954
 18.3209147728507951 49.6332355696302230 28.6327538495249954
 26.7766665345166501 44.7512551634787386 28.6327538495249954
 33.8231754040103922 71.6020375533019688 28.6327538495249954
 21.1395269064766467 44.7512551634787386 28.6327538495249954
 25.3673814040103807 71.6020375533019688 28.6327538495249954
 35.2325027728508005 49.6332355696302230 28.6327538495249954
 42.2790117236162359 66.7200571471504844 28.6327538495249954
 -26.7766252037113830 69.1610107355562462 28.6327538495249954
 26.7767087728507853 49.6332355696302230 28.6327538495249954
 43.6882967728507978 49.6332355696302230 28.6327538495249954
 36.6417875376362474 66.7200571471504844 28.6327538495249954
  4.2278964243286037 69.1610107355562462 28.6327538495249954
 -1.4093275991092098 49.6332355696302230 28.6327538495249954
 -25.3673825959896213 71.6020375533019688 28.6327538495249954
 -16.9115461544768308 52.0741891580359919 28.6327538495249954
 21.1394844243286215 69.1610107355562462 28.6327538495249954
 -28.1859524100096195 71.6020375533019688 28.6327538495249954
 -31.0046067819696169 71.6020375533019688 28.6327538495249954
 -16.9115883928109767 47.1922087518845075 28.6327538495249954
 26.7767086103086172 69.1610107355562462 28.6327538495249954
 -36.6417464100096169 71.6020375533019688 28.6327538495249954
 16.9115876071890092 47.1922087518845075 28.6327538495249954
 11.2744479791490271 47.1922087518845075 28.6327538495249954
 32.4139327962886199 69.1610107355562462 28.6327538495249954
  5.6372237931690181 47.1922087518845075 28.6327538495249954
  2.8186539791490159 47.1922087518845075 28.6327538495249954
 -39.4604007819696179 71.6020375533019688 28.6327538495249954
 -2.8185702068309761 47.1922087518845075 28.6327538495249954
 39.4603997931690245 47.1922087518845075 28.6327538495249954
 -1.4092432037113782 69.1610107355562462 28.6327538495249954
 -19.7301582068309784 47.1922087518845075 28.6327538495249954
 -22.5487280208509766 47.1922087518845075 28.6327538495249954
 -2.8185704100096114 71.6020375533019688 28.6327538495249954
 -4.2278974131292042 49.6332355696302230 28.6327538495249954
 -7.0464672271492059 49.6332355696302230 28.6327538495249954
 43.6882545345166520 44.7512551634787386 28.6327538495249954
 -8.4557945959896212 71.6020375533019688 28.6327538495249954
 -15.5022612271492086 49.6332355696302230 28.6327538495249954
  7.0465507962886189 69.1610107355562462 28.6327538495249954
 46.5069089064766459 44.7512551634787386 28.6327538495249954
 -21.1394854131292078 49.6332355696302230 28.6327538495249954
 -11.2743644100096230 71.6020375533019688 28.6327538495249954
 56.3719877931690334 47.1922087518845075 28.6327538495249954
 -16.9115885959896168 71.6020375533019688 28.6327538495249954
 57.7812727204966521 44.7512551634787386 28.6327538495249954
 47.9161937931690360 47.1922087518845075 28.6327538495249954
 -19.7301584100096186 71.6020375533019688 28.6327538495249954
 -22.5488127819696196 71.6020375533019688 28.6327538495249954
 22.5488117931690120 47.1922087518845075 28.6327538495249954
 36.6417876595431693 52.0741891580359919 28.6327538495249954
 33.8232177236162386 66.7200571471504844 28.6327538495249954
 -26.7766674014102968 59.3971231525932382 28.6327538495249954
  8.4557934852820722 61.8380767409990000 28.6327538495249954
 11.2744478572420874 61.8380767409990000 28.6327538495249954
 50.7347635259173302 56.9561695641874692 28.6327538495249954
 39.4603997118973240 56.9561695641874692 28.6327538495249954
  1.4092845345166412 44.7512551634787386 28.6327538495249954
 31.0046057118973302 56.9561695641874692 28.6327538495249954
 16.9115874852820909 61.8380767409990000 28.6327538495249954
 -21.1394432154303011 59.3971231525932382 28.6327538495249954
 25.3673814852820882 61.8380767409990000 28.6327538495249954
 22.5488117118973186 56.9561695641874692 28.6327538495249954
 14.0930177118973283 56.9561695641874692 28.6327538495249954
 31.0046056712620839 61.8380767409990000 28.6327538495249954
 33.8231754852820927 61.8380767409990000 28.6327538495249954
 -0.0000004740826793 56.9561695641874692 28.6327538495249954
 -2.8185702881026811 56.9561695641874692 28.6327538495249954
 -8.4557944740826727 56.9561695641874692 28.6327538495249954
 -11.2743642881026744 56.9561695641874692 28.6327538495249954
 28.1860358572420893 61.8380767409990000 28.6327538495249954
 36.6418298572420866 61.8380767409990000 28.6327538495249954
 -18.3208734014102959 59.3971231525932382 28.6327538495249954
  2.8186538572420905 61.8380767409990000 28.6327538495249954
 -22.5487281427579163 61.8380767409990000 28.6327538495249954
 -31.0045221427579136 61.8380767409990000 28.6327538495249954
 -33.8231765147179146 61.8380767409990000 28.6327538495249954
 -14.0929341427579153 61.8380767409990000 28.6327538495249954
 49.3254785985897115 59.3971231525932382 28.6327538495249954
 46.5069087845697027 59.3971231525932382 28.6327538495249954
 43.6882544126097088 59.3971231525932382 28.6327538495249954
 40.8696845985897141 59.3971231525932382 28.6327538495249954
 -15.5023035873902977 59.3971231525932382 28.6327538495249954
 38.0511147845697053 59.3971231525932382 28.6327538495249954
 18.3208724126097096 59.3971231525932382 28.6327538495249954
 15.5023025985896936 59.3971231525932382 28.6327538495249954
 12.6837327845697061 59.3971231525932382 28.6327538495249954
  4.2279387845697078 59.3971231525932382 28.6327538495249954
  1.4092844126096999 59.3971231525932382 28.6327538495249954
 -5.6371401427579215 61.8380767409990000 28.6327538495249954
 -9.8650794014102949 59.3971231525932382 28.6327538495249954
 -12.6836492154302967 59.3971231525932382 28.6327538495249954
 29.5953207845697079 59.3971231525932382 28.6327538495249954
 -19.7301582881026789 56.9561695641874692 28.6327538495249954
 -32.4138493490561430 64.2791035587447084 28.6327538495249954
 -23.9580553490561456 64.2791035587447084 28.6327538495249954
 45.0975816595431809 52.0741891580359919 28.6327538495249954
 -8.4557522763837714 66.7200571471504844 28.6327538495249954
 -25.3673825147179137 61.8380767409990000 28.6327538495249954
 33.8232178455231747 52.0741891580359919 28.6327538495249954
 25.3674238455231631 52.0741891580359919 28.6327538495249954
 14.0929754735631594 52.0741891580359919 28.6327538495249954
 11.2744056595431719 52.0741891580359919 28.6327538495249954
  8.4558358455231772 52.0741891580359919 28.6327538495249954
 -14.0929764623637634 66.7200571471504844 28.6327538495249954
  5.6371814735631682 52.0741891580359919 28.6327538495249954
  0.0000417236162395 66.7200571471504844 28.6327538495249954
  2.8186116595431669 52.0741891580359919 28.6327538495249954
 14.0929753516562410 66.7200571471504844 28.6327538495249954
 -5.6371823404568273 52.0741891580359919 28.6327538495249954
 19.7301995376362349 66.7200571471504844 28.6327538495249954
 22.5487693516562366 66.7200571471504844 28.6327538495249954
 -11.2744065264368292 52.0741891580359919 28.6327538495249954
 31.0045633516562411 66.7200571471504844 28.6327538495249954
 -2.8186126483437688 66.7200571471504844 28.6327538495249954
 47.9161514735631755 52.0741891580359919 28.6327538495249954
 -22.5487704623637697 66.7200571471504844 28.6327538495249954
 53.5533756595431782 52.0741891580359919 28.6327538495249954
 -31.0046066600626737 56.9561695641874692 28.6327538495249954
 -21.1394855350361439 64.2791035587447084 28.6327538495249954
 -4.2278975350361501 64.2791035587447084 28.6327538495249954
 49.3255209181955507 54.5151427464417537 28.6327538495249954
  7.0464662789838490 64.2791035587447084 28.6327538495249954
 40.8697269181955534 54.5151427464417537 28.6327538495249954
 38.0510725462355595 54.5151427464417537 28.6327538495249954
 23.9580542789838589 64.2791035587447084 28.6327538495249954
 35.2325026509438644 64.2791035587447084 28.6327538495249954
 32.4139329181955560 54.5151427464417537 28.6327538495249954
 21.1394845462355612 54.5151427464417537 28.6327538495249954
 12.6836905462355407 54.5151427464417537 28.6327538495249954
  7.0465509181955595 54.5151427464417537 28.6327538495249954
 -12.6836914537644478 54.5151427464417537 28.6327538495249954
 -33.8231342763837688 66.7200571471504844 28.6327538495249954
 -21.1394854537644470 54.5151427464417537 28.6327538495249954
 -23.9580552677844487 54.5151427464417537 28.6327538495249954
 -26.7766250818044469 54.5151427464417537 28.6327538495249954
 -25.3673402763837679 66.7200571471504844 28.6327538495249954
 -14.0929763404568273 52.0741891580359919 28.6327538495249954
 -1.4092852795033535 44.7512551634787386 28.6327538495249954
 38.0510727087777383 34.9873675805157234 28.6327538495249954
 -9.8650792795033553 44.7512551634787386 28.6327538495249954
 76.1021458916381448 13.0185655968439828 28.6327538495249954
 62.0091277056581518 13.0185655968439828 28.6327538495249954
 56.3719880776181483 13.0185655968439828 28.6327538495249954
 53.5533337056581473 13.0185655968439828 28.6327538495249954
 50.7347638916381456 13.0185655968439828 28.6327538495249954
 47.9161940776181368 13.0185655968439828 28.6327538495249954
 45.0975397056581500 13.0185655968439828 28.6327538495249954
 42.2789698916381340 13.0185655968439828 28.6327538495249954
 39.4604000776181465 13.0185655968439828 28.6327538495249954
 31.0046060776181456 13.0185655968439828 28.6327538495249954
 28.1859517056581375 13.0185655968439828 28.6327538495249954
 25.3673818916381357 13.0185655968439828 28.6327538495249954
 19.7301577056581365 13.0185655968439828 28.6327538495249954
 16.9115878916381419 13.0185655968439828 28.6327538495249954
  5.6372240776181393 13.0185655968439828 28.6327538495249954
  2.8185697056581414 13.0185655968439828 28.6327538495249954
 -2.8185699223818586 13.0185655968439828 28.6327538495249954
 77.5114730979363742 10.5775387790982709 28.6327538495249954
 74.6929032839163654 10.5775387790982709 28.6327538495249954
 69.0556790979363768 10.5775387790982709 28.6327538495249954
 63.4184549119563812 10.5775387790982709 28.6327538495249954
 60.5998850979363723 10.5775387790982709 28.6327538495249954
 57.7813152839163777 10.5775387790982709 28.6327538495249954
 54.9626609119563767 10.5775387790982709 28.6327538495249954
 46.5068669119563793 10.5775387790982709 28.6327538495249954
 -4.2278548497094786 15.4595191852497500 28.6327538495249954
  1.4092847783305213 15.4595191852497500 28.6327538495249954
  7.0465089643105223 15.4595191852497500 28.6327538495249954
 29.5953211502905269 15.4595191852497500 28.6327538495249954
 38.0510728306846602 20.3414995914012344 28.6327538495249954
 32.4138486447046574 20.3414995914012344 28.6327538495249954
 23.9580546447046672 20.3414995914012344 28.6327538495249954
  4.2278968306846716 20.3414995914012344 28.6327538495249954
  1.4093270166646681 20.3414995914012344 28.6327538495249954
 -7.0464669833353293 20.3414995914012344 28.6327538495249954
 73.2835760369829075 17.9004727736555189 28.6327538495249954
 70.4650062229628986 17.9004727736555189 28.6327538495249954
 67.6463518510029047 17.9004727736555189 28.6327538495249954
 64.8277820369829101 17.9004727736555189 28.6327538495249954
 62.0092122229629013 17.9004727736555189 28.6327538495249954
 56.3719880369828985 17.9004727736555189 28.6327538495249954
 35.2325030979363731 10.5775387790982709 28.6327538495249954
 53.5534182229629039 17.9004727736555189 28.6327538495249954
 36.6418302229629020 17.9004727736555189 28.6327538495249954
 33.8231758510028868 17.9004727736555189 28.6327538495249954
 31.0046060369829029 17.9004727736555189 28.6327538495249954
 28.1860362229629082 17.9004727736555189 28.6327538495249954
 19.7302422229628966 17.9004727736555189 28.6327538495249954
 16.9115878510028992 17.9004727736555189 28.6327538495249954
 14.0930180369829028 17.9004727736555189 28.6327538495249954
  8.4557938510029000 17.9004727736555189 28.6327538495249954
 -2.8185699630171004 17.9004727736555189 28.6327538495249954
 69.0556367783305234 15.4595191852497500 28.6327538495249954
 52.1440487783305286 15.4595191852497500 28.6327538495249954
 43.6882547783305313 15.4595191852497500 28.6327538495249954
 39.4604000369828896 17.9004727736555189 28.6327538495249954
 26.7767090979363651 10.5775387790982709 28.6327538495249954
 23.9581392839163634 10.5775387790982709 28.6327538495249954
 21.1394849119563659 10.5775387790982709 28.6327538495249954
 81.7393701588898551  3.2546047845410229 28.6327538495249954
 73.2835761588898578  3.2546047845410229 28.6327538495249954
 70.4650063448698489  3.2546047845410229 28.6327538495249954
 67.6463519729098550  3.2546047845410229 28.6327538495249954
 59.1905579729098434  3.2546047845410229 28.6327538495249954
 50.7347639729098461  3.2546047845410229 28.6327538495249954
 42.2789699729098274  3.2546047845410229 28.6327538495249954
 33.8231759729098371  3.2546047845410229 28.6327538495249954
 31.0046061588898354  3.2546047845410229 28.6327538495249954
 11.2744483448698372  3.2546047845410229 28.6327538495249954
  2.8186543448698407  3.2546047845410229 28.6327538495249954
 83.1486550862174738  0.8136511961352557 28.6327538495249954
  7.0464667666116103  5.6956316022867357 28.6327538495249954
 69.0556369002374737  0.8136511961352557 28.6327538495249954
 60.5998429002374621  0.8136511961352557 28.6327538495249954
 57.7812730862174604  0.8136511961352557 28.6327538495249954
 52.1440489002374647  0.8136511961352557 28.6327538495249954
 49.3254790862174488  0.8136511961352557 28.6327538495249954
 43.6882549002374461  0.8136511961352557 28.6327538495249954
 40.8696850862174585  0.8136511961352557 28.6327538495249954
 38.0511152721974639  0.8136511961352557 28.6327538495249954
 32.4138910862174541  0.8136511961352557 28.6327538495249954
 23.9580970862174638  0.8136511961352557 28.6327538495249954
 18.3208729002374611  0.8136511961352557 28.6327538495249954
 12.6837332721974576  0.8136511961352557 28.6327538495249954
  4.2279392721974602  0.8136511961352557 28.6327538495249954
 66.2370670862174649  0.8136511961352557 28.6327538495249954
 46.5068668306846718 20.3414995914012344 28.6327538495249954
  9.8651211385716078  5.6956316022867357 28.6327538495249954
 15.5022607666116095  5.6956316022867357 28.6327538495249954
 15.5023452839163713 10.5775387790982709 28.6327538495249954
 12.6836909119563703 10.5775387790982709 28.6327538495249954
  7.0465512839163686 10.5775387790982709 28.6327538495249954
  4.2278969119563712 10.5775387790982709 28.6327538495249954
 78.9207580252639929  8.1365851906925037 28.6327538495249954
 70.4649640252639955  8.1365851906925037 28.6327538495249954
 62.0091700252639910  8.1365851906925037 28.6327538495249954
 56.3719458392839954  8.1365851906925037 28.6327538495249954
 47.9161518392839980  8.1365851906925037 28.6327538495249954
 45.0975820252639821  8.1365851906925037 28.6327538495249954
 42.2790122112439946  8.1365851906925037 28.6327538495249954
 39.4603578392839793  8.1365851906925037 28.6327538495249954
 12.6836909525916113  5.6956316022867357 28.6327538495249954
 33.8232182112439972  8.1365851906925037 28.6327538495249954
 14.0929758392839890  8.1365851906925037 28.6327538495249954
  2.8186120252639890  8.1365851906925037 28.6327538495249954
 -2.8186121607160102  8.1365851906925037 28.6327538495249954
 80.3300429525916257  5.6956316022867357 28.6327538495249954
 71.8742489525916284  5.6956316022867357 28.6327538495249954
 60.5998851385716151  5.6956316022867357 28.6327538495249954
 57.7812307666116141  5.6956316022867357 28.6327538495249954
 43.6882971385716132  5.6956316022867357 28.6327538495249954
 32.4138487666116077  5.6956316022867357 28.6327538495249954
 26.7767091385716043  5.6956316022867357 28.6327538495249954
 23.9580547666116068  5.6956316022867357 28.6327538495249954
 21.1394849525916122  5.6956316022867357 28.6327538495249954
 25.3674242112439856  8.1365851906925037 28.6327538495249954
 -7.0465094654833562 44.7512551634787386 28.6327538495249954
 49.3254366447046735 20.3414995914012344 28.6327538495249954
 54.9626608306846691 20.3414995914012344 28.6327538495249954
  5.6371815954701097 37.4283211689214923 28.6327538495249954
  2.8186117814501150 37.4283211689214923 28.6327538495249954
  0.0000419674301133 37.4283211689214923 28.6327538495249954
 -2.8186124045298877 37.4283211689214923 28.6327538495249954
 -5.6371822185498859 37.4283211689214923 28.6327538495249954
 -8.4557520325698885 37.4283211689214923 28.6327538495249954
 -11.2744064045298860 37.4283211689214923 28.6327538495249954
 -19.7302004045298887 37.4283211689214923 28.6327538495249954
 57.7812305227977419 34.9873675805157234 28.6327538495249954
 46.5068667087777357 34.9873675805157234 28.6327538495249954
 39.4603995899903808 71.6020375533019688 28.6327538495249954
 23.9580545227977240 34.9873675805157234 28.6327538495249954
 15.5022605227977337 34.9873675805157234 28.6327538495249954
 12.6836907087777320 34.9873675805157234 28.6327538495249954
  4.2278967087777302 34.9873675805157234 28.6327538495249954
 -1.4093274772022688 34.9873675805157234 28.6327538495249954
 -7.0464671052422672 34.9873675805157234 28.6327538495249954
 59.1905577290959641 32.5463407627700150 28.6327538495249954
 56.3719879150759695 32.5463407627700150 28.6327538495249954
 53.5534181010559607 32.5463407627700150 28.6327538495249954
 50.7347637290959668 32.5463407627700150 28.6327538495249954
 47.9161939150759579 32.5463407627700150 28.6327538495249954
 45.0976241010559633 32.5463407627700150 28.6327538495249954
 42.2789697290959623 32.5463407627700150 28.6327538495249954
 39.4603999150759606 32.5463407627700150 28.6327538495249954
 19.7301997814501142 37.4283211689214923 28.6327538495249954
 22.5487695954701017 37.4283211689214923 28.6327538495249954
 25.3674239674301170 37.4283211689214923 28.6327538495249954
 28.1859937814501045 37.4283211689214923 28.6327538495249954
 -15.5023034654833562 44.7512551634787386 28.6327538495249954
 -18.3208732795033562 44.7512551634787386 28.6327538495249954
 50.7347636478242734 42.3103015750729767 28.6327538495249954
 39.4603998338042672 42.3103015750729767 28.6327538495249954
 36.6417454618442662 42.3103015750729767 28.6327538495249954
 31.0046058338042556 42.3103015750729767 28.6327538495249954
 14.0930178338042680 42.3103015750729767 28.6327538495249954
  8.4557936478242581 42.3103015750729767 28.6327538495249954
 -16.9115883521757375 42.3103015750729767 28.6327538495249954
 60.5998848541225001 39.8692747573272612 28.6327538495249954
 54.9626606681424974 39.8692747573272612 28.6327538495249954
 49.3255210401024939 39.8692747573272612 28.6327538495249954
 36.6418301010559517 32.5463407627700150 28.6327538495249954
 40.8697270401024966 39.8692747573272612 28.6327538495249954
 21.1394846681424795 39.8692747573272612 28.6327538495249954
 12.6836906681424875 39.8692747573272612 28.6327538495249954
  9.8651208541224857 39.8692747573272612 28.6327538495249954
  7.0465510401024849 39.8692747573272612 28.6327538495249954
  4.2278966681424874 39.8692747573272612 28.6327538495249954
  1.4093268541224926 39.8692747573272612 28.6327538495249954
 -7.0464671458775081 39.8692747573272612 28.6327538495249954
 -9.8650369598975125 39.8692747573272612 28.6327538495249954
 -18.3208309598975099 39.8692747573272612 28.6327538495249954
 62.0091697814501188 37.4283211689214923 28.6327538495249954
 59.1905999674301100 37.4283211689214923 28.6327538495249954
 33.8232179674301037 37.4283211689214923 28.6327538495249954
 26.7767088541224823 39.8692747573272612 28.6327538495249954
 33.8231757290959649 32.5463407627700150 28.6327538495249954
 25.3673817290959498 32.5463407627700150 28.6327538495249954
  2.8186541010559618 32.5463407627700150 28.6327538495249954
 -14.0930184162487979 27.6644335859584807 28.6327538495249954
 69.0556789760294407 25.2234067682127652 28.6327538495249954
 63.4184547900494380 25.2234067682127652 28.6327538495249954
 60.5998849760294434 25.2234067682127652 28.6327538495249954
 54.9626607900494406 25.2234067682127652 28.6327538495249954
 49.3255211620094371 25.2234067682127652 28.6327538495249954
 46.5068667900494361 25.2234067682127652 28.6327538495249954
 35.2325029760294228 25.2234067682127652 28.6327538495249954
 32.4139331620094353 25.2234067682127652 28.6327538495249954
 26.7767089760294326 25.2234067682127652 28.6327538495249954
 18.3209149760294281 25.2234067682127652 28.6327538495249954
  1.4093269760294336 25.2234067682127652 28.6327538495249954
 -11.2743640442888005 27.6644335859584807 28.6327538495249954
 -7.0464670239705693 25.2234067682127652 28.6327538495249954
 50.7348060893370558 22.7824531798069998 28.6327538495249954
 39.4603577173770574 22.7824531798069998 28.6327538495249954
 28.1859939033570512 22.7824531798069998 28.6327538495249954
 22.5487697173770485 22.7824531798069998 28.6327538495249954
 19.7301999033570468 22.7824531798069998 28.6327538495249954
 11.2744059033570529 22.7824531798069998 28.6327538495249954
  5.6371817173770493 22.7824531798069998 28.6327538495249954
 -2.8186122826229494 22.7824531798069998 28.6327538495249954
 -5.6371820966429516 22.7824531798069998 28.6327538495249954
 69.0556790166646692 20.3414995914012344 28.6327538495249954
 66.2370246447046753 20.3414995914012344 28.6327538495249954
 63.4184548306846807 20.3414995914012344 28.6327538495249954
 70.4649639033570594 22.7824531798069998 28.6327538495249954
 52.1440910166646745 20.3414995914012344 28.6327538495249954
 -8.4557942302688005 27.6644335859584807 28.6327538495249954
 -2.8185700442888009 27.6644335859584807 28.6327538495249954
 66.2370668424035927 30.1053871743642461 28.6327538495249954
 63.4184970283835838 30.1053871743642461 28.6327538495249954
 60.5998426564235899 30.1053871743642461 28.6327538495249954
 52.1440486564235925 30.1053871743642461 28.6327538495249954
 49.3254788424035837 30.1053871743642461 28.6327538495249954
 43.6882546564235881 30.1053871743642461 28.6327538495249954
 35.2324606564235907 30.1053871743642461 28.6327538495249954
 32.4138908424035748 30.1053871743642461 28.6327538495249954
 26.7766666564235685 30.1053871743642461 28.6327538495249954
 23.9580968424035810 30.1053871743642461 28.6327538495249954
 15.5023028424035783 30.1053871743642461 28.6327538495249954
 12.6837330283835765 30.1053871743642461 28.6327538495249954
 -5.6372244162487979 27.6644335859584807 28.6327538495249954
  9.8650786564235791 30.1053871743642461 28.6327538495249954
 -12.6836489716164174 30.1053871743642461 28.6327538495249954
 -15.5023033435764184 30.1053871743642461 28.6327538495249954
 47.9161939557112078 27.6644335859584807 28.6327538495249954
 45.0975395837512067 27.6644335859584807 28.6327538495249954
 42.2789697697312050 27.6644335859584807 28.6327538495249954
 33.8231757697311934 27.6644335859584807 28.6327538495249954
 19.7301575837512004 27.6644335859584807 28.6327538495249954
 16.9115877697311987 27.6644335859584807 28.6327538495249954
 14.0930179557111952 27.6644335859584807 28.6327538495249954
  5.6372239557112023 27.6644335859584807 28.6327538495249954
  2.8185695837512008 27.6644335859584807 28.6327538495249954
 -0.0000002302687971 27.6644335859584807 28.6327538495249954
 -4.2278549716164209 30.1053871743642461 28.6327538495249954
 42.2789694040103896 71.6020375533019688 28.6327538495249954
