 H  O 
 1.0000000000000000
    84.5579400000000021    0.0000000000000000    0.0000000000000000
   -42.2789706095346958   73.2293399455724767    0.0000000000000000
     0.0000000000000000    0.0000000000000000   46.9039550000000034
 H   O  
 220 346
Cartesian
  9.8651208676675761 38.2419723650567462 28.1128704123049964
 12.6836482401747883 57.7698207603227232 28.1128704123049964
 33.8231757832762838 26.0371311936879657 28.1128704123049964
 56.3719034113162749 26.0371311936879657 28.1128704123049964
 59.1905577832762830 26.0371311936879657 28.1128704123049964
 62.0091275972962777 26.0371311936879657 28.1128704123049964
 64.8276974113162794 26.0371311936879657 28.1128704123049964
 -9.8650791440513395 28.4780847820937346 28.1128704123049964
 15.5023028559486651 28.4780847820937346 28.1128704123049964
 21.1394424839886597 28.4780847820937346 28.1128704123049964
 42.2789695394624090 55.3288671719169614 28.1128704123049964
 23.9580968559486607 28.4780847820937346 28.1128704123049964
 29.5952364839886641 28.4780847820937346 28.1128704123049964
 43.6882546699686571 28.4780847820937346 28.1128704123049964
 31.0045211675023928 55.3288671719169614 28.1128704123049964
 22.5487274113162819 26.0371311936879657 28.1128704123049964
 52.1440486699686616 28.4780847820937346 28.1128704123049964
 60.5998426699686590 28.4780847820937346 28.1128704123049964
 19.7301573534824009 55.3288671719169614 28.1128704123049964
 -16.9115882573589573 30.9190383704995000 28.1128704123049964
 16.9115875394624062 55.3288671719169614 28.1128704123049964
  8.4557935394624035 55.3288671719169614 28.1128704123049964
 -0.0000002573589589 30.9190383704995000 28.1128704123049964
  5.6372239286210437 30.9190383704995000 28.1128704123049964
 -0.0000004605375943 55.3288671719169614 28.1128704123049964
 25.3673817426410437 30.9190383704995000 28.1128704123049964
 36.6417455566610357 30.9190383704995000 28.1128704123049964
 -14.0930186465175975 55.3288671719169614 28.1128704123049964
 47.9161939286210341 30.9190383704995000 28.1128704123049964
 -25.3673824605375984 55.3288671719169614 28.1128704123049964
 -12.6836912776771893 33.3600651882452155 28.1128704123049964
 28.1859513534823982 55.3288671719169614 28.1128704123049964
 49.3254363738006276 52.8878403541712458 28.1128704123049964
 16.9115877832762855 26.0371311936879657 28.1128704123049964
 14.0929334113162810 26.0371311936879657 28.1128704123049964
 -29.5952795214910651 62.6518011664742076 28.1128704123049964
 45.0975393128471538 60.2107743487284921 28.1128704123049964
 46.5068668442297550 18.7141971991307194 28.1128704123049964
 42.2789694988271592 60.2107743487284921 28.1128704123049964
 49.3254366582497497 18.7141971991307194 28.1128704123049964
 57.7812306582497541 18.7141971991307194 28.1128704123049964
 39.4603996848071645 60.2107743487284921 28.1128704123049964
 -8.4558364550578684 21.1551507875364884 28.1128704123049964
 -5.6371820830978701 21.1551507875364884 28.1128704123049964
 14.0929757309221344 21.1551507875364884 28.1128704123049964
 11.2743633128471661 60.2107743487284921 28.1128704123049964
 39.4603577309221265 21.1551507875364884 28.1128704123049964
 -0.0000005011728327 60.2107743487284921 28.1128704123049964
 42.2789275449421211 21.1551507875364884 28.1128704123049964
 15.5023026121347893 57.7698207603227232 28.1128704123049964
 -11.2743643151928357 60.2107743487284921 28.1128704123049964
 -16.9115885011728366 60.2107743487284921 28.1128704123049964
 -12.6836911964054888 23.5961043759422537 28.1128704123049964
 -9.8651213823854889 23.5961043759422537 28.1128704123049964
 -7.0464670104254905 23.5961043759422537 28.1128704123049964
 -1.4093273823854895 23.5961043759422537 28.1128704123049964
  9.8651209895745122 23.5961043759422537 28.1128704123049964
 43.6882544261547849 57.7698207603227232 28.1128704123049964
 32.4138486176145122 23.5961043759422537 28.1128704123049964
 40.8696846121347903 57.7698207603227232 28.1128704123049964
 40.8696426176145025 23.5961043759422537 28.1128704123049964
 54.9626608035945097 23.5961043759422537 28.1128704123049964
 29.5952362401747777 57.7698207603227232 28.1128704123049964
 26.7766664261547831 57.7698207603227232 28.1128704123049964
  2.8185695972962814 26.0371311936879657 28.1128704123049964
 53.5533759169021195 21.1551507875364884 28.1128704123049964
  7.0464666582497495 18.7141971991307194 28.1128704123049964
 40.8696423738006303 52.8878403541712458 28.1128704123049964
 35.2325027457606268 52.8878403541712458 28.1128704123049964
 29.5952786004158739 48.0059331773597151 28.1128704123049964
 22.5487272894093422 40.6829991828024689 28.1128704123049964
 31.0045212894093325 40.6829991828024689 28.1128704123049964
 12.6836906004158720 48.0059331773597151 28.1128704123049964
 36.6417454753893352 40.6829991828024689 28.1128704123049964
 47.9161092894093343 40.6829991828024689 28.1128704123049964
 50.7347636613693425 40.6829991828024689 28.1128704123049964
  9.8650362284558710 48.0059331773597151 28.1128704123049964
 53.5533334753893371 40.6829991828024689 28.1128704123049964
  7.0464664144358764 48.0059331773597151 28.1128704123049964
 -18.3208732659582765 43.1239527712082307 28.1128704123049964
  1.4092422284558699 48.0059331773597151 28.1128704123049964
 -12.6837336379182783 43.1239527712082307 28.1128704123049964
 -12.6836913995841307 48.0059331773597151 28.1128704123049964
 -8.4557943386306622 40.6829991828024689 28.1128704123049964
 -1.4092852659582757 43.1239527712082307 28.1128704123049964
  9.8650785480617262 43.1239527712082307 28.1128704123049964
 15.5023027340417219 43.1239527712082307 28.1128704123049964
 -23.9581397715441291 48.0059331773597151 28.1128704123049964
 21.1394423620817271 43.1239527712082307 28.1128704123049964
 45.0975394347540970 45.5649063596139996 28.1128704123049964
 23.9580967340417281 43.1239527712082307 28.1128704123049964
 26.7766665480617228 43.1239527712082307 28.1128704123049964
 35.2324605480617166 43.1239527712082307 28.1128704123049964
 42.2789696207341024 45.5649063596139996 28.1128704123049964
 38.0510303620817112 43.1239527712082307 28.1128704123049964
 40.8696847340417122 43.1239527712082307 28.1128704123049964
 52.1440485480617184 43.1239527712082307 28.1128704123049964
 -5.6372245652458988 45.5649063596139996 28.1128704123049964
 22.5488118067141059 45.5649063596139996 28.1128704123049964
 -21.1394853995841281 48.0059331773597151 28.1128704123049964
 -4.2278972776771910 33.3600651882452155 28.1128704123049964
 -11.2744487105906597 40.6829991828024689 28.1128704123049964
 -14.0930185246106596 40.6829991828024689 28.1128704123049964
 21.1394847223228126 33.3600651882452155 28.1128704123049964
 32.4138483738006258 52.8878403541712458 28.1128704123049964
 32.4138485363428117 33.3600651882452155 28.1128704123049964
 18.3209147457606356 52.8878403541712458 28.1128704123049964
 40.8696425363428091 33.3600651882452155 28.1128704123049964
  4.2278965597806355 52.8878403541712458 28.1128704123049964
 -4.2278974402193654 52.8878403541712458 28.1128704123049964
 -9.8651216261993682 52.8878403541712458 28.1128704123049964
  5.6371816090151947 35.8010187766509844 28.1128704123049964
 25.3673394230351938 35.8010187766509844 28.1128704123049964
 -12.6836914402193699 52.8878403541712458 28.1128704123049964
 36.6417877949951958 35.8010187766509844 28.1128704123049964
 59.1905154230351869 35.8010187766509844 28.1128704123049964
 -21.1394853183124276 38.2419723650567462 28.1128704123049964
 52.1440062284558650 48.0059331773597151 28.1128704123049964
 -29.5952794402193682 52.8878403541712458 28.1128704123049964
 -9.8651215042924267 38.2419723650567462 28.1128704123049964
 50.7347213011282463 50.4468867657654769 28.1128704123049964
  4.2278966816875769 38.2419723650567462 28.1128704123049964
 33.8231333011282445 50.4468867657654769 28.1128704123049964
 12.6836906816875779 38.2419723650567462 28.1128704123049964
 22.5487694871082525 50.4468867657654769 28.1128704123049964
 18.3209148676675753 38.2419723650567462 28.1128704123049964
  8.4557513011282524 50.4468867657654769 28.1128704123049964
 43.6882968676675674 38.2419723650567462 28.1128704123049964
  5.6371814871082586 50.4468867657654769 28.1128704123049964
 49.3254364957075708 38.2419723650567462 28.1128704123049964
 57.7812304957075682 38.2419723650567462 28.1128704123049964
 -16.9116306988717469 50.4468867657654769 28.1128704123049964
 60.5998848676675763 38.2419723650567462 28.1128704123049964
 -15.5022611323324266 38.2419723650567462 28.1128704123049964
  1.4092424722697507 18.7141971991307194 28.1128704123049964
 -25.3673825011728376 60.2107743487284921 28.1128704123049964
 19.7301574347541049 45.5649063596139996 28.1128704123049964
 19.7301572315754683 69.9747351610314468 28.1128704123049964
  1.4092847918756004 13.8322167929792403 28.1128704123049964
 -35.2325037481063035 67.5337083432857384 28.1128704123049964
  4.2278546058956001 13.8322167929792403 28.1128704123049964
 71.8742489661366903  4.0683292100162243 28.1128704123049964
  9.8650787918756002 13.8322167929792403 28.1128704123049964
 22.5487270455954629 69.9747351610314468 28.1128704123049964
 12.6836486058956019 13.8322167929792403 28.1128704123049964
 60.5998005941766849  4.0683292100162243 28.1128704123049964
 54.9626609661366956  4.0683292100162243 28.1128704123049964
 33.8231754175554755 69.9747351610314468 28.1128704123049964
 15.5023029778556030 13.8322167929792403 28.1128704123049964
 26.7766667918756056 13.8322167929792403 28.1128704123049964
 36.6417452315754701 69.9747351610314468 28.1128704123049964
 35.2324607918756030 13.8322167929792403 28.1128704123049964
 35.2324185941766927  4.0683292100162243 28.1128704123049964
 -40.8696856957521533 72.4156887494372228 28.1128704123049964
  2.8186115511813119 65.0927547548799765 28.1128704123049964
 54.9626186058955923 13.8322167929792403 28.1128704123049964
 63.4184126058955968 13.8322167929792403 28.1128704123049964
 32.4138487801566981  4.0683292100162243 28.1128704123049964
 76.1021459051832210 11.3912632045734714 28.1128704123049964
 -18.3209157481063052 67.5337083432857384 28.1128704123049964
 47.9161095332232136 11.3912632045734714 28.1128704123049964
 -15.5022613761463042 67.5337083432857384 28.1128704123049964
 -36.6418309544045329 69.9747351610314468 28.1128704123049964
 78.9207580388090690  6.5092827984219914 28.1128704123049964
 -33.8231765824445318 69.9747351610314468 28.1128704123049964
 23.9580547395214474  8.9502363868277595 28.1128704123049964
 -25.3673825824445345 69.9747351610314468 28.1128704123049964
 32.4138482518936897 67.5337083432857384 28.1128704123049964
 26.7767086238536862 67.5337083432857384 28.1128704123049964
 64.8277398528290689  6.5092827984219914 28.1128704123049964
 21.1394844378736906 67.5337083432857384 28.1128704123049964
 54.9626609255014458  8.9502363868277595 28.1128704123049964
 -35.2324615097721576 72.4156887494372228 28.1128704123049964
 18.3209146238536960 67.5337083432857384 28.1128704123049964
 -19.7302429544045346 69.9747351610314468 28.1128704123049964
 -16.9115885824445336 69.9747351610314468 28.1128704123049964
 -26.7767097074710669 62.6518011664742076 28.1128704123049964
 74.6928187395214422  8.9502363868277595 28.1128704123049964
 47.9161518528290671  6.5092827984219914 28.1128704123049964
 -4.2278975621263015 67.5337083432857384 28.1128704123049964
 39.4603578528290697  6.5092827984219914 28.1128704123049964
 14.0929335332232206 11.3912632045734714 28.1128704123049964
  2.8185692315754580 69.9747351610314468 28.1128704123049964
 42.2789699051832244 11.3912632045734714 28.1128704123049964
 12.6836904378736932 67.5337083432857384 28.1128704123049964
 26.7766245941766883  4.0683292100162243 28.1128704123049964
 32.4138909778556012 13.8322167929792403 28.1128704123049964
  1.4093271114814494  8.9502363868277595 28.1128704123049964
 -19.7302006347986882 65.0927547548799765 28.1128704123049964
  7.0465084902278479 72.4156887494372228 28.1128704123049964
 66.2370669778556049 13.8322167929792403 28.1128704123049964
 64.8277820505279863 16.2731703813850075 28.1128704123049964
 38.0510724785089351 62.6518011664742076 28.1128704123049964
 -15.5023036957521541 72.4156887494372228 28.1128704123049964
 -16.9116308207786865 65.0927547548799765 28.1128704123049964
 14.0930180505279825 16.2731703813850075 28.1128704123049964
 -4.2279398817321576 72.4156887494372228 28.1128704123049964
 -33.8232188207786848 65.0927547548799765 28.1128704123049964
 33.8231759864549275  1.6273023922705114 28.1128704123049964
 21.1394421182678336 72.4156887494372228 28.1128704123049964
 19.7301576785679771 16.2731703813850075 28.1128704123049964
 28.1859516785679780 16.2731703813850075 28.1128704123049964
 62.0091276785679781 16.2731703813850075 28.1128704123049964
 47.9161941724349276  1.6273023922705114 28.1128704123049964
 31.0046060505279790 16.2731703813850075 28.1128704123049964
 53.5533338004749169  1.6273023922705114 28.1128704123049964
 18.3208305941766909  4.0683292100162243 28.1128704123049964
 74.6928609778556023 13.8322167929792403 28.1128704123049964
 50.7347639864549222  1.6273023922705114 28.1128704123049964
 15.5022607801566892  4.0683292100162243 28.1128704123049964
 -9.8651213417502497 18.7141971991307194 28.1128704123049964
 -8.4558368207786891 65.0927547548799765 28.1128704123049964
 -21.1395278817321568 72.4156887494372228 28.1128704123049964
  9.8650365941766900  4.0683292100162243 28.1128704123049964
 29.5952361182678381 72.4156887494372228 28.1128704123049964
 26.7766241065489261 62.6518011664742076 28.1128704123049964
 -0.0000001354520196 16.2731703813850075 28.1128704123049964
 40.8696422925289298 62.6518011664742076 28.1128704123049964
 16.9115879864549186  1.6273023922705114 28.1128704123049964
  1.4092425941766900  4.0683292100162243 28.1128704123049964
 43.6882545345166520 44.7512551634787386 28.6327538495249954
 19.7301572180303850 71.6020375533019688 28.6327538495249954
 -15.5022613896913821 69.1610107355562462 28.6327538495249954
 40.8696847204966431 44.7512551634787386 28.6327538495249954
 -18.3208312037113821 69.1610107355562462 28.6327538495249954
 -28.1859945264368292 52.0741891580359919 28.6327538495249954
 22.5488115899903860 71.6020375533019688 28.6327538495249954
 35.2324605345166475 44.7512551634787386 28.6327538495249954
 -25.3673401544768282 52.0741891580359919 28.6327538495249954
 -16.9115461544768308 52.0741891580359919 28.6327538495249954
 32.4138907204966458 44.7512551634787386 28.6327538495249954
 23.9580967204966342 44.7512551634787386 28.6327538495249954
 -14.0929763404568273 52.0741891580359919 28.6327538495249954
 31.0046055899903834 71.6020375533019688 28.6327538495249954
 52.1440907728507952 49.6332355696302230 28.6327538495249954
  8.4557934040103735 71.6020375533019688 28.6327538495249954
 11.2744479791490271 47.1922087518845075 28.6327538495249954
 -12.6836915756713875 69.1610107355562462 28.6327538495249954
 -33.8231765959896151 71.6020375533019688 28.6327538495249954
 -25.3673825959896213 71.6020375533019688 28.6327538495249954
 16.9115876071890092 47.1922087518845075 28.6327538495249954
 19.7302419791490244 47.1922087518845075 28.6327538495249954
 31.0046057931690235 47.1922087518845075 28.6327538495249954
 -35.2324192037113804 69.1610107355562462 28.6327538495249954
 33.8231756071890288 47.1922087518845075 28.6327538495249954
 35.2325026103086287 69.1610107355562462 28.6327538495249954
 42.2789696071890333 47.1922087518845075 28.6327538495249954
 -2.8185702068309761 47.1922087518845075 28.6327538495249954
 32.4139327962886199 69.1610107355562462 28.6327538495249954
 -26.7767095991092070 49.6332355696302230 28.6327538495249954
 -23.9580552271492060 49.6332355696302230 28.6327538495249954
 -16.9115885959896168 71.6020375533019688 28.6327538495249954
 -19.7301582068309784 47.1922087518845075 28.6327538495249954
 21.1394844243286215 69.1610107355562462 28.6327538495249954
 -2.8185704100096114 71.6020375533019688 28.6327538495249954
 -12.6836914131292051 49.6332355696302230 28.6327538495249954
 -22.5487280208509766 47.1922087518845075 28.6327538495249954
  5.6372235899903860 71.6020375533019688 28.6327538495249954
 18.3209146103086198 69.1610107355562462 28.6327538495249954
 12.6836904243286224 69.1610107355562462 28.6327538495249954
  9.8651207728507995 49.6332355696302230 28.6327538495249954
 -4.2278975756713866 69.1610107355562462 28.6327538495249954
 -7.0464673896913883 69.1610107355562462 28.6327538495249954
 49.3254364008908013 49.6332355696302230 28.6327538495249954
  7.0464664008907913 49.6332355696302230 28.6327538495249954
 -28.1859523287379155 61.8380767409990000 28.6327538495249954
  0.0000418455231652 52.0741891580359919 28.6327538495249954
 -18.3208734014102959 59.3971231525932382 28.6327538495249954
 -23.9580975873902986 59.3971231525932382 28.6327538495249954
 -26.7767097210161431 64.2791035587447084 28.6327538495249954
 21.1395269064766467 44.7512551634787386 28.6327538495249954
 45.0975393399373274 56.9561695641874692 28.6327538495249954
 -9.8651217210161430 64.2791035587447084 28.6327538495249954
 42.2789695259173328 56.9561695641874692 28.6327538495249954
 -32.4138493490561430 64.2791035587447084 28.6327538495249954
 -7.0464673490561447 64.2791035587447084 28.6327538495249954
 31.0046057118973302 56.9561695641874692 28.6327538495249954
 -4.2278975350361501 64.2791035587447084 28.6327538495249954
 28.1859513399373292 56.9561695641874692 28.6327538495249954
 25.3673815259173274 56.9561695641874692 28.6327538495249954
  1.4093266509438596 64.2791035587447084 28.6327538495249954
 16.9115875259173158 56.9561695641874692 28.6327538495249954
 14.0930177118973283 56.9561695641874692 28.6327538495249954
 39.4603997118973240 56.9561695641874692 28.6327538495249954
 -15.5023035873902977 59.3971231525932382 28.6327538495249954
 -35.2325037210161440 64.2791035587447084 28.6327538495249954
 -7.0465095873903012 59.3971231525932382 28.6327538495249954
 -25.3673825147179137 61.8380767409990000 28.6327538495249954
 -31.0045221427579136 61.8380767409990000 28.6327538495249954
 -33.8231765147179146 61.8380767409990000 28.6327538495249954
 49.3254785985897115 59.3971231525932382 28.6327538495249954
 -0.0000005147179177 61.8380767409990000 28.6327538495249954
 43.6882544126097088 59.3971231525932382 28.6327538495249954
  5.6372236712620847 61.8380767409990000 28.6327538495249954
  8.4557934852820722 61.8380767409990000 28.6327538495249954
 40.8696845985897141 59.3971231525932382 28.6327538495249954
 11.2744478572420874 61.8380767409990000 28.6327538495249954
 26.7766664126097069 59.3971231525932382 28.6327538495249954
 23.9580965985897052 59.3971231525932382 28.6327538495249954
 15.5023025985896936 59.3971231525932382 28.6327538495249954
 12.6837327845697061 59.3971231525932382 28.6327538495249954
 39.4603996712620955 61.8380767409990000 28.6327538495249954
  9.8650784126096909 59.3971231525932382 28.6327538495249954
 42.2789694852820901 61.8380767409990000 28.6327538495249954
  4.2278964649638544 64.2791035587447084 28.6327538495249954
  7.0464662789838490 64.2791035587447084 28.6327538495249954
 11.2743633399373131 56.9561695641874692 28.6327538495249954
 -0.0000004740826793 56.9561695641874692 28.6327538495249954
 -1.4092430818044526 54.5151427464417537 28.6327538495249954
 -4.2278974537644496 54.5151427464417537 28.6327538495249954
 -9.8650370818044468 54.5151427464417537 28.6327538495249954
 -12.6836914537644478 54.5151427464417537 28.6327538495249954
 -2.8186126483437688 66.7200571471504844 28.6327538495249954
  5.6371813516562215 66.7200571471504844 28.6327538495249954
 -26.7766250818044469 54.5151427464417537 28.6327538495249954
 53.5533756595431782 52.0741891580359919 28.6327538495249954
 50.7348058455231694 52.0741891580359919 28.6327538495249954
  8.4558357236162376 66.7200571471504844 28.6327538495249954
 33.8232178455231747 52.0741891580359919 28.6327538495249954
 22.5487693516562366 66.7200571471504844 28.6327538495249954
 22.5487694735631763 52.0741891580359919 28.6327538495249954
 31.0045633516562411 66.7200571471504844 28.6327538495249954
  5.6371814735631682 52.0741891580359919 28.6327538495249954
 33.8232177236162386 66.7200571471504844 28.6327538495249954
  2.8186116595431669 52.0741891580359919 28.6327538495249954
 -5.6371824623637705 66.7200571471504844 28.6327538495249954
 -8.4557521544768282 52.0741891580359919 28.6327538495249954
 -14.0929764623637634 66.7200571471504844 28.6327538495249954
 -16.9115462763837670 66.7200571471504844 28.6327538495249954
 -2.8185702881026811 56.9561695641874692 28.6327538495249954
  9.8651206509438563 64.2791035587447084 28.6327538495249954
 -5.6372246600626781 56.9561695641874692 28.6327538495249954
 21.1394844649638500 64.2791035587447084 28.6327538495249954
 -8.4557944740826727 56.9561695641874692 28.6327538495249954
 -16.9115884740826736 56.9561695641874692 28.6327538495249954
 -19.7301582881026789 56.9561695641874692 28.6327538495249954
 -25.3673824740826745 56.9561695641874692 28.6327538495249954
 35.2325026509438644 64.2791035587447084 28.6327538495249954
 43.6882967322155622 54.5151427464417537 28.6327538495249954
 -36.6417886483437698 66.7200571471504844 28.6327538495249954
 40.8697269181955534 54.5151427464417537 28.6327538495249954
 32.4139329181955560 54.5151427464417537 28.6327538495249954
 29.5952785462355585 54.5151427464417537 28.6327538495249954
 -33.8231342763837688 66.7200571471504844 28.6327538495249954
 -19.7302006483437680 66.7200571471504844 28.6327538495249954
 18.3209147322155452 54.5151427464417537 28.6327538495249954
  1.4093267322155492 54.5151427464417537 28.6327538495249954
 -23.9580552677844487 54.5151427464417537 28.6327538495249954
  1.4092849002374601  0.8136511961352557 28.6327538495249954
 -4.2278550935233552 44.7512551634787386 28.6327538495249954
 32.4138909643105251 15.4595191852497500 28.6327538495249954
 29.5953211502905269 15.4595191852497500 28.6327538495249954
 26.7766667783305188 15.4595191852497500 28.6327538495249954
 18.3208727783305179 15.4595191852497500 28.6327538495249954
 15.5023029643105232 15.4595191852497500 28.6327538495249954
 12.6837331502905215 15.4595191852497500 28.6327538495249954
  9.8650787783305205 15.4595191852497500 28.6327538495249954
  1.4092847783305213 15.4595191852497500 28.6327538495249954
 -1.4092850356894804 15.4595191852497500 28.6327538495249954
 -7.0465092216694787 15.4595191852497500 28.6327538495249954
 76.1021458916381448 13.0185655968439828 28.6327538495249954
 67.6463518916381474 13.0185655968439828 28.6327538495249954
 64.8277820776181386 13.0185655968439828 28.6327538495249954
 47.9161940776181368 13.0185655968439828 28.6327538495249954
 36.6417457056581313 13.0185655968439828 28.6327538495249954
 33.8231758916381438 13.0185655968439828 28.6327538495249954
 31.0046060776181456 13.0185655968439828 28.6327538495249954
 16.9115878916381419 13.0185655968439828 28.6327538495249954
 14.0930180776181420 13.0185655968439828 28.6327538495249954
 11.2743637056581409 13.0185655968439828 28.6327538495249954
  2.8185697056581414 13.0185655968439828 28.6327538495249954
 77.5114730979363742 10.5775387790982709 28.6327538495249954
 74.6929032839163654 10.5775387790982709 28.6327538495249954
 40.8696849643105153 15.4595191852497500 28.6327538495249954
 49.3255212839163661 10.5775387790982709 28.6327538495249954
 49.3254789643105269 15.4595191852497500 28.6327538495249954
 60.5998427783305331 15.4595191852497500 28.6327538495249954
 43.6882970166646629 20.3414995914012344 28.6327538495249954
 40.8696426447046761 20.3414995914012344 28.6327538495249954
 23.9580546447046672 20.3414995914012344 28.6327538495249954
 21.1394848306846654 20.3414995914012344 28.6327538495249954
 -7.0464669833353293 20.3414995914012344 28.6327538495249954
 -9.8651213552953294 20.3414995914012344 28.6327538495249954
 67.6463518510029047 17.9004727736555189 28.6327538495249954
 64.8277820369829101 17.9004727736555189 28.6327538495249954
 62.0092122229629013 17.9004727736555189 28.6327538495249954
 59.1905578510029073 17.9004727736555189 28.6327538495249954
 47.9161940369829011 17.9004727736555189 28.6327538495249954
 33.8231758510028868 17.9004727736555189 28.6327538495249954
 31.0046060369829029 17.9004727736555189 28.6327538495249954
 22.5488120369828984 17.9004727736555189 28.6327538495249954
 19.7302422229628966 17.9004727736555189 28.6327538495249954
 16.9115878510028992 17.9004727736555189 28.6327538495249954
  8.4557938510029000 17.9004727736555189 28.6327538495249954
  2.8186542229628988 17.9004727736555189 28.6327538495249954
 -0.0000001489970986 17.9004727736555189 28.6327538495249954
 -8.4557941489970982 17.9004727736555189 28.6327538495249954
 74.6928609643105261 15.4595191852497500 28.6327538495249954
 66.2370669643105288 15.4595191852497500 28.6327538495249954
 63.4184971502905270 15.4595191852497500 28.6327538495249954
 54.9627031502905297 15.4595191852497500 28.6327538495249954
 46.5068669119563793 10.5775387790982709 28.6327538495249954
 43.6882970979363634 10.5775387790982709 28.6327538495249954
 40.8697272839163759 10.5775387790982709 28.6327538495249954
  1.4093271385716108  5.6956316022867357 28.6327538495249954
 70.4650063448698489  3.2546047845410229 28.6327538495249954
 56.3719881588898417  3.2546047845410229 28.6327538495249954
 53.5534183448698329  3.2546047845410229 28.6327538495249954
 50.7347639729098461  3.2546047845410229 28.6327538495249954
 36.6418303448698452  3.2546047845410229 28.6327538495249954
 33.8231759729098371  3.2546047845410229 28.6327538495249954
 31.0046061588898354  3.2546047845410229 28.6327538495249954
 16.9115879729098388  3.2546047845410229 28.6327538495249954
 14.0930181588898407  3.2546047845410229 28.6327538495249954
 11.2744483448698372  3.2546047845410229 28.6327538495249954
 -0.0000000270901599  3.2546047845410229 28.6327538495249954
 83.1486550862174738  0.8136511961352557 28.6327538495249954
 74.6928610862174764  0.8136511961352557 28.6327538495249954
 71.8742912721974676  0.8136511961352557 28.6327538495249954
 69.0556369002374737  0.8136511961352557 28.6327538495249954
 54.9627032721974516  0.8136511961352557 28.6327538495249954
 52.1440489002374647  0.8136511961352557 28.6327538495249954
 49.3254790862174488  0.8136511961352557 28.6327538495249954
 38.0511152721974639  0.8136511961352557 28.6327538495249954
 18.3208729002374611  0.8136511961352557 28.6327538495249954
 15.5023030862174611  0.8136511961352557 28.6327538495249954
 12.6837332721974576  0.8136511961352557 28.6327538495249954
  4.2278969525916086  5.6956316022867357 28.6327538495249954
 12.6836909525916113  5.6956316022867357 28.6327538495249954
 15.5022607666116095  5.6956316022867357 28.6327538495249954
 26.7767091385716043  5.6956316022867357 28.6327538495249954
 18.3209150979363713 10.5775387790982709 28.6327538495249954
  1.4093270979363695 10.5775387790982709 28.6327538495249954
 76.1021882112439840  8.1365851906925037 28.6327538495249954
 73.2835338392839901  8.1365851906925037 28.6327538495249954
 64.8277398392839928  8.1365851906925037 28.6327538495249954
 62.0091700252639910  8.1365851906925037 28.6327538495249954
 56.3719458392839954  8.1365851906925037 28.6327538495249954
 45.0975820252639821  8.1365851906925037 28.6327538495249954
 42.2790122112439946  8.1365851906925037 28.6327538495249954
 39.4603578392839793  8.1365851906925037 28.6327538495249954
 28.1859940252639873  8.1365851906925037 28.6327538495249954
 46.5068668306846718 20.3414995914012344 28.6327538495249954
 25.3674242112439856  8.1365851906925037 28.6327538495249954
  2.8186120252639890  8.1365851906925037 28.6327538495249954
  0.0000422112439907  8.1365851906925037 28.6327538495249954
 77.5114731385716169  5.6956316022867357 28.6327538495249954
 74.6928187666116230  5.6956316022867357 28.6327538495249954
 63.4184549525916097  5.6956316022867357 28.6327538495249954
 60.5998851385716151  5.6956316022867357 28.6327538495249954
 54.9626609525916123  5.6956316022867357 28.6327538495249954
 49.3254367666116167  5.6956316022867357 28.6327538495249954
 38.0510729525916105  5.6956316022867357 28.6327538495249954
 35.2325031385716159  5.6956316022867357 28.6327538495249954
 32.4138487666116077  5.6956316022867357 28.6327538495249954
 22.5487698392839881  8.1365851906925037 28.6327538495249954
 -1.4092852795033535 44.7512551634787386 28.6327538495249954
 54.9626608306846691 20.3414995914012344 28.6327538495249954
 -11.2744062826229499 22.7824531798069998 28.6327538495249954
 59.1905999674301100 37.4283211689214923 28.6327538495249954
 47.9161515954701187 37.4283211689214923 28.6327538495249954
 45.0975817814501099 37.4283211689214923 28.6327538495249954
 36.6417877814501125 37.4283211689214923 28.6327538495249954
 25.3674239674301170 37.4283211689214923 28.6327538495249954
 16.9116299674301196 37.4283211689214923 28.6327538495249954
 14.0929755954701115 37.4283211689214923 28.6327538495249954
 33.8231754040103922 71.6020375533019688 28.6327538495249954
  5.6371815954701097 37.4283211689214923 28.6327538495249954
 -5.6371822185498859 37.4283211689214923 28.6327538495249954
 -11.2744064045298860 37.4283211689214923 28.6327538495249954
 -19.7302004045298887 37.4283211689214923 28.6327538495249954
 60.5998848947577358 34.9873675805157234 28.6327538495249954
 40.8696425227977400 34.9873675805157234 28.6327538495249954
 38.0510727087777383 34.9873675805157234 28.6327538495249954
 35.2325028947577295 34.9873675805157234 28.6327538495249954
 32.4138485227977426 34.9873675805157234 28.6327538495249954
 -1.4093274772022688 34.9873675805157234 28.6327538495249954
 -4.2278972912222672 34.9873675805157234 28.6327538495249954
 -9.8651214772022673 34.9873675805157234 28.6327538495249954
 -12.6836912912222672 34.9873675805157234 28.6327538495249954
 50.7347637290959668 32.5463407627700150 28.6327538495249954
 47.9161939150759579 32.5463407627700150 28.6327538495249954
 62.0091697814501188 37.4283211689214923 28.6327538495249954
 36.6418301010559517 32.5463407627700150 28.6327538495249954
 -21.1394853318575109 39.8692747573272612 28.6327538495249954
 -9.8650369598975125 39.8692747573272612 28.6327538495249954
 -18.3208732795033562 44.7512551634787386 28.6327538495249954
 53.5533334618442680 42.3103015750729767 28.6327538495249954
 50.7347636478242734 42.3103015750729767 28.6327538495249954
 39.4603998338042672 42.3103015750729767 28.6327538495249954
 36.6417454618442662 42.3103015750729767 28.6327538495249954
 25.3673816478242529 42.3103015750729767 28.6327538495249954
 22.5488118338042653 42.3103015750729767 28.6327538495249954
 19.7301574618442501 42.3103015750729767 28.6327538495249954
 11.2743634618442599 42.3103015750729767 28.6327538495249954
  2.8185694618442589 42.3103015750729767 28.6327538495249954
 -0.0000003521757358 42.3103015750729767 28.6327538495249954
 -2.8185701661957374 42.3103015750729767 28.6327538495249954
 -11.2743641661957401 42.3103015750729767 28.6327538495249954
 -14.0930185381557376 42.3103015750729767 28.6327538495249954
 60.5998848541225001 39.8692747573272612 28.6327538495249954
 52.1440908541225028 39.8692747573272612 28.6327538495249954
 49.3255210401024939 39.8692747573272612 28.6327538495249954
 32.4139330401024850 39.8692747573272612 28.6327538495249954
 21.1394846681424795 39.8692747573272612 28.6327538495249954
 12.6836906681424875 39.8692747573272612 28.6327538495249954
  9.8651208541224857 39.8692747573272612 28.6327538495249954
  7.0465510401024849 39.8692747573272612 28.6327538495249954
  1.4093268541224926 39.8692747573272612 28.6327538495249954
 -12.6836913318575100 39.8692747573272612 28.6327538495249954
 33.8231757290959649 32.5463407627700150 28.6327538495249954
 25.3673817290959498 32.5463407627700150 28.6327538495249954
 22.5488119150759623 32.5463407627700150 28.6327538495249954
  5.6372239557112023 27.6644335859584807 28.6327538495249954
  2.8185695837512008 27.6644335859584807 28.6327538495249954
 -0.0000002302687971 27.6644335859584807 28.6327538495249954
 60.5998849760294434 25.2234067682127652 28.6327538495249954
 40.8697271620094256 25.2234067682127652 28.6327538495249954
 38.0510727900494388 25.2234067682127652 28.6327538495249954
 35.2325029760294228 25.2234067682127652 28.6327538495249954
 32.4139331620094353 25.2234067682127652 28.6327538495249954
 18.3209149760294281 25.2234067682127652 28.6327538495249954
 15.5023451620094264 25.2234067682127652 28.6327538495249954
 12.6836907900494289 25.2234067682127652 28.6327538495249954
  1.4093269760294336 25.2234067682127652 28.6327538495249954
 -1.4092428379905699 25.2234067682127652 28.6327538495249954
 -9.8650368379905675 25.2234067682127652 28.6327538495249954
 67.6463940893370506 22.7824531798069998 28.6327538495249954
 53.5533759033570504 22.7824531798069998 28.6327538495249954
 42.2790120893370442 22.7824531798069998 28.6327538495249954
 39.4603577173770574 22.7824531798069998 28.6327538495249954
 36.6417879033570415 22.7824531798069998 28.6327538495249954
 31.0045637173770388 22.7824531798069998 28.6327538495249954
 14.0929757173770476 22.7824531798069998 28.6327538495249954
  8.4558360893370512 22.7824531798069998 28.6327538495249954
 -8.4557519106629488 22.7824531798069998 28.6327538495249954
 14.0930179557111952 27.6644335859584807 28.6327538495249954
 19.7301575837512004 27.6644335859584807 28.6327538495249954
 22.5488119557112086 27.6644335859584807 28.6327538495249954
 25.3673817697312032 27.6644335859584807 28.6327538495249954
  8.4557937290959586 32.5463407627700150 28.6327538495249954
 -2.8185700849240374 32.5463407627700150 28.6327538495249954
 -5.6371398989440404 32.5463407627700150 28.6327538495249954
 -8.4557942709040379 32.5463407627700150 28.6327538495249954
 -14.0929338989440378 32.5463407627700150 28.6327538495249954
 66.2370668424035927 30.1053871743642461 28.6327538495249954
 60.5998426564235899 30.1053871743642461 28.6327538495249954
 52.1440486564235925 30.1053871743642461 28.6327538495249954
 49.3254788424035837 30.1053871743642461 28.6327538495249954
 46.5069090283835891 30.1053871743642461 28.6327538495249954
 26.7766666564235685 30.1053871743642461 28.6327538495249954
 57.7812306447046780 20.3414995914012344 28.6327538495249954
 23.9580968424035810 30.1053871743642461 28.6327538495249954
  9.8650786564235791 30.1053871743642461 28.6327538495249954
  7.0465088424035836 30.1053871743642461 28.6327538495249954
  4.2279390283835818 30.1053871743642461 28.6327538495249954
 -1.4092851575964171 30.1053871743642461 28.6327538495249954
 -4.2278549716164209 30.1053871743642461 28.6327538495249954
 64.8277819557112025 27.6644335859584807 28.6327538495249954
 62.0091275837512086 27.6644335859584807 28.6327538495249954
 59.1905577697312140 27.6644335859584807 28.6327538495249954
 50.7347637697312024 27.6644335859584807 28.6327538495249954
 47.9161939557112078 27.6644335859584807 28.6327538495249954
 42.2789697697312050 27.6644335859584807 28.6327538495249954
 21.1395270283835863 30.1053871743642461 28.6327538495249954
 42.2789694040103896 71.6020375533019688 28.6327538495249954
