 H  O 
 1.0000000000000000
    84.5579400000000021    0.0000000000000000    0.0000000000000000
   -42.2789706095346958   73.2293399455724767    0.0000000000000000
     0.0000000000000000    0.0000000000000000   46.9039550000000034
 H   O  
 206 402
Cartesian
 -0.0000000135450799  1.6273023922705114 28.1128704123049964
 29.5952788442297496 18.7141971991307194 28.1128704123049964
 42.2789694988271592 60.2107743487284921 28.1128704123049964
 38.0510728442297577 18.7141971991307194 28.1128704123049964
 40.8696426582497523 18.7141971991307194 28.1128704123049964
 52.1440062284558650 48.0059331773597151 28.1128704123049964
 62.0091697949951950 35.8010187766509844 28.1128704123049964
 63.4184548442297569 18.7141971991307194 28.1128704123049964
 25.3673814988271609 60.2107743487284921 28.1128704123049964
 16.9115874988271635 60.2107743487284921 28.1128704123049964
 11.2743633128471661 60.2107743487284921 28.1128704123049964
 47.9161516090151949 35.8010187766509844 28.1128704123049964
  9.8651208676675761 38.2419723650567462 28.1128704123049964
 19.7301999169021336 21.1551507875364884 28.1128704123049964
 -2.8185703151928343 60.2107743487284921 28.1128704123049964
 42.2789275449421211 21.1551507875364884 28.1128704123049964
 42.2789274230351850 35.8010187766509844 28.1128704123049964
 -11.2743643151928357 60.2107743487284921 28.1128704123049964
 39.4603576090151904 35.8010187766509844 28.1128704123049964
 59.1905155449421230 21.1551507875364884 28.1128704123049964
 -25.3673825011728376 60.2107743487284921 28.1128704123049964
 46.5068242401747796 57.7698207603227232 28.1128704123049964
 -12.6836911964054888 23.5961043759422537 28.1128704123049964
 40.8696846121347903 57.7698207603227232 28.1128704123049964
 -7.0464670104254905 23.5961043759422537 28.1128704123049964
 28.1859939169021310 21.1551507875364884 28.1128704123049964
 35.2324604261547876 57.7698207603227232 28.1128704123049964
 21.1394848442297523 18.7141971991307194 28.1128704123049964
  7.0464666582497495 18.7141971991307194 28.1128704123049964
 38.0510726816875717 38.2419723650567462 28.1128704123049964
 -8.4557941354520185 16.2731703813850075 28.1128704123049964
 -33.8232188207786848 65.0927547548799765 28.1128704123049964
  2.8185696785679806 16.2731703813850075 28.1128704123049964
 11.2743636785679815 16.2731703813850075 28.1128704123049964
 -36.6417886347986865 65.0927547548799765 28.1128704123049964
 16.9115878645479825 16.2731703813850075 28.1128704123049964
 15.5022604144358738 48.0059331773597151 28.1128704123049964
 22.5488120505279817 16.2731703813850075 28.1128704123049964
 25.3673818645479834 16.2731703813850075 28.1128704123049964
 43.6882121065489244 62.6518011664742076 28.1128704123049964
 -29.5952795214910651 62.6518011664742076 28.1128704123049964
 33.8231757426410411 30.9190383704995000 28.1128704123049964
 29.5952784785089271 62.6518011664742076 28.1128704123049964
 56.3719880505279747 16.2731703813850075 28.1128704123049964
 23.9580542925289315 62.6518011664742076 28.1128704123049964
 23.9580544957075787 38.2419723650567462 28.1128704123049964
 70.4649216785679755 16.2731703813850075 28.1128704123049964
  1.4092421065489333 62.6518011664742076 28.1128704123049964
 -9.8651213417502497 18.7141971991307194 28.1128704123049964
 -7.0465515277302488 18.7141971991307194 28.1128704123049964
 18.3209148676675753 38.2419723650567462 28.1128704123049964
 40.8696424144358730 48.0059331773597151 28.1128704123049964
  1.4092424722697507 18.7141971991307194 28.1128704123049964
 38.0510724785089351 62.6518011664742076 28.1128704123049964
 35.2324605480617166 43.1239527712082307 28.1128704123049964
 15.5022606176145086 23.5961043759422537 28.1128704123049964
 11.2744057949951930 35.8010187766509844 28.1128704123049964
 28.1859513534823982 55.3288671719169614 28.1128704123049964
 45.0975816730882570 50.4468867657654769 28.1128704123049964
  4.2278544839886631 28.4780847820937346 28.1128704123049964
 19.7301573534824009 55.3288671719169614 28.1128704123049964
 16.9115875394624062 55.3288671719169614 28.1128704123049964
  9.8650363503628089 33.3600651882452155 28.1128704123049964
 21.1394424839886597 28.4780847820937346 28.1128704123049964
 11.2743633534824053 55.3288671719169614 28.1128704123049964
 53.5533756730882544 50.4468867657654769 28.1128704123049964
 -14.0930186465175975 55.3288671719169614 28.1128704123049964
 46.5068244839886518 28.4780847820937346 28.1128704123049964
 -4.2279395160113378 28.4780847820937346 28.1128704123049964
 -23.9580552542393690 52.8878403541712458 28.1128704123049964
 -7.0465516496371885 33.3600651882452155 28.1128704123049964
 38.0510725597806356 52.8878403541712458 28.1128704123049964
 -11.2743640713789581 30.9190383704995000 28.1128704123049964
 -12.6836914402193699 52.8878403541712458 28.1128704123049964
 -5.6372244433389582 30.9190383704995000 28.1128704123049964
 59.1905577426410403 30.9190383704995000 28.1128704123049964
  2.8185695566610427 30.9190383704995000 28.1128704123049964
 50.7347637426410429 30.9190383704995000 28.1128704123049964
  8.4557937426410454 30.9190383704995000 28.1128704123049964
 -7.0464672542393672 52.8878403541712458 28.1128704123049964
 12.6836905597806329 52.8878403541712458 28.1128704123049964
 46.5068665597806330 52.8878403541712458 28.1128704123049964
 18.3208303503628116 33.3600651882452155 28.1128704123049964
 -15.5023033300313369 28.4780847820937346 28.1128704123049964
 26.7766243503628161 33.3600651882452155 28.1128704123049964
  2.8186117949951930 35.8010187766509844 28.1128704123049964
 -2.8186123909848098 35.8010187766509844 28.1128704123049964
 -8.4558365769648098 35.8010187766509844 28.1128704123049964
 46.5068668035945052 23.5961043759422537 28.1128704123049964
 52.1440909895745008 23.5961043759422537 28.1128704123049964
 -14.0929762050048097 35.8010187766509844 28.1128704123049964
 57.7812306176145043 23.5961043759422537 28.1128704123049964
 60.5998849895745124 23.5961043759422537 28.1128704123049964
 16.9115453011282568 50.4468867657654769 28.1128704123049964
 66.2370246176145088 23.5961043759422537 28.1128704123049964
 22.5487694871082525 50.4468867657654769 28.1128704123049964
 -0.0000002167237204 26.0371311936879657 28.1128704123049964
 25.3673393011282471 50.4468867657654769 28.1128704123049964
 52.1440063503628082 33.3600651882452155 28.1128704123049964
 -29.5953217598252145 57.7698207603227232 28.1128704123049964
 25.3673817832762829 26.0371311936879657 28.1128704123049964
 -32.4138915738452127 57.7698207603227232 28.1128704123049964
 46.5068667223228047 33.3600651882452155 28.1128704123049964
 31.0045214113162864 26.0371311936879657 28.1128704123049964
 33.8231757832762838 26.0371311936879657 28.1128704123049964
 36.6417455972962784 26.0371311936879657 28.1128704123049964
 50.7347635394624064 55.3288671719169614 28.1128704123049964
 47.9161094113162704 26.0371311936879657 28.1128704123049964
 40.8696425363428091 33.3600651882452155 28.1128704123049964
 31.0045634871082498 50.4468867657654769 28.1128704123049964
 -28.1859946347986892 65.0927547548799765 28.1128704123049964
 49.3254789778556031 13.8322167929792403 28.1128704123049964
 45.0975396785679763 16.2731703813850075 28.1128704123049964
 -1.4093276261993704 52.8878403541712458 28.1128704123049964
 39.4603152894093299 40.6829991828024689 28.1128704123049964
 -18.3208735097721558 72.4156887494372228 28.1128704123049964
 62.0091700388090601  6.5092827984219914 28.1128704123049964
 -15.5023036957521541 72.4156887494372228 28.1128704123049964
 21.1394849661366919  4.0683292100162243 28.1128704123049964
 43.6882547918756003 13.8322167929792403 28.1128704123049964
  9.8650785480617262 43.1239527712082307 28.1128704123049964
 70.4649640388090717  6.5092827984219914 28.1128704123049964
  9.8650365941766900  4.0683292100162243 28.1128704123049964
 33.8231756207340979 45.5649063596139996 28.1128704123049964
 76.1021036668490609  6.5092827984219914 28.1128704123049964
 22.5487272894093422 40.6829991828024689 28.1128704123049964
 -4.2278970744985491  8.9502363868277595 28.1128704123049964
 12.6836483620817209 43.1239527712082307 28.1128704123049964
 -1.4093272604785494  8.9502363868277595 28.1128704123049964
 -4.2279398817321576 72.4156887494372228 28.1128704123049964
  1.4093271114814494  8.9502363868277595 28.1128704123049964
 45.0975394347540970 45.5649063596139996 28.1128704123049964
 50.7347636207340997 45.5649063596139996 28.1128704123049964
 52.1440911114814512  8.9502363868277595 28.1128704123049964
 26.7767086238536862 67.5337083432857384 28.1128704123049964
 -19.7301581932858987 45.5649063596139996 28.1128704123049964
 33.8231754175554755 69.9747351610314468 28.1128704123049964
 47.9161518528290671  6.5092827984219914 28.1128704123049964
 36.6417880388090680  6.5092827984219914 28.1128704123049964
 52.1440065941766875  4.0683292100162243 28.1128704123049964
 54.9626609661366956  4.0683292100162243 28.1128704123049964
 25.3673814175554639 69.9747351610314468 28.1128704123049964
 -16.9115883792659005 45.5649063596139996 28.1128704123049964
 -7.0465094519382783 43.1239527712082307 28.1128704123049964
 11.2743632315754621 69.9747351610314468 28.1128704123049964
 77.5113885941766796  4.0683292100162243 28.1128704123049964
 -4.2279396379182765 43.1239527712082307 28.1128704123049964
 -23.9580974519382757 43.1239527712082307 28.1128704123049964
 -32.4138916957521559 72.4156887494372228 28.1128704123049964
 -29.5953218817321577 72.4156887494372228 28.1128704123049964
  5.6371818528290705  6.5092827984219914 28.1128704123049964
  8.4557516668490695  6.5092827984219914 28.1128704123049964
 11.2744060388090670  6.5092827984219914 28.1128704123049964
 14.0929758528290687  6.5092827984219914 28.1128704123049964
 -0.0000003792658964 45.5649063596139996 28.1128704123049964
  8.4557936207341040 45.5649063596139996 28.1128704123049964
 25.3673396668490696  6.5092827984219914 28.1128704123049964
 47.9161092894093343 40.6829991828024689 28.1128704123049964
 31.0045638528290759  6.5092827984219914 28.1128704123049964
 -26.7766675097721567 72.4156887494372228 28.1128704123049964
 42.2789696613693309 40.6829991828024689 28.1128704123049964
 21.1394844378736906 67.5337083432857384 28.1128704123049964
 78.9207158004749090  1.6273023922705114 28.1128704123049964
 15.5022602518936878 67.5337083432857384 28.1128704123049964
 -4.2278973995841262 48.0059331773597151 28.1128704123049964
 59.1905579051832120 11.3912632045734714 28.1128704123049964
 57.7812304957075682 38.2419723650567462 28.1128704123049964
 64.8276975332232155 11.3912632045734714 28.1128704123049964
 31.0046061724349222  1.6273023922705114 28.1128704123049964
 54.9626606816875736 38.2419723650567462 28.1128704123049964
 73.2834915332232129 11.3912632045734714 28.1128704123049964
  8.4557511792213162 65.0927547548799765 28.1128704123049964
  5.6371813652013136 65.0927547548799765 28.1128704123049964
 42.2789699051832244 11.3912632045734714 28.1128704123049964
 23.9580964902278346 72.4156887494372228 28.1128704123049964
  1.4092847918756004 13.8322167929792403 28.1128704123049964
  5.6372241724349186  1.6273023922705114 28.1128704123049964
  7.0465089778555976 13.8322167929792403 28.1128704123049964
  1.4092422284558699 48.0059331773597151 28.1128704123049964
  7.0464664144358764 48.0059331773597151 28.1128704123049964
 23.9580969778556039 13.8322167929792403 28.1128704123049964
 -22.5487704488186900 65.0927547548799765 28.1128704123049964
 29.5952366058956002 13.8322167929792403 28.1128704123049964
 32.4138909778556012 13.8322167929792403 28.1128704123049964
 52.1440908676675789 38.2419723650567462 28.1128704123049964
 -7.0465517715441273 48.0059331773597151 28.1128704123049964
 -19.7302427105906588 40.6829991828024689 28.1128704123049964
 36.6417457192032217 11.3912632045734714 28.1128704123049964
 18.3208725480617254 43.1239527712082307 28.1128704123049964
 12.6836904378736932 67.5337083432857384 28.1128704123049964
  1.4092843042478451 72.4156887494372228 28.1128704123049964
 56.3719878067141025 45.5649063596139996 28.1128704123049964
 64.8277821724349081  1.6273023922705114 28.1128704123049964
  7.0464662518936976 67.5337083432857384 28.1128704123049964
  7.0465084902278479 72.4156887494372228 28.1128704123049964
 -9.8651215855641290 48.0059331773597151 28.1128704123049964
 -7.0464673761463033 67.5337083432857384 28.1128704123049964
 -1.4093277481063067 67.5337083432857384 28.1128704123049964
 39.4603150455954648 69.9747351610314468 28.1128704123049964
 -5.6372245246106605 40.6829991828024689 28.1128704123049964
 11.2743637192032189 11.3912632045734714 28.1128704123049964
 39.4604001724349231  1.6273023922705114 28.1128704123049964
 -12.6836915621263024 67.5337083432857384 28.1128704123049964
 -15.5022613761463042 67.5337083432857384 28.1128704123049964
 -38.0510735621263052 67.5337083432857384 28.1128704123049964
 36.6417458004749221  1.6273023922705114 28.1128704123049964
 35.2325027728508005 49.6332355696302230 28.6327538495249954
 -21.1394430935233544 44.7512551634787386 28.6327538495249954
 50.7347636478242734 42.3103015750729767 28.6327538495249954
 -11.2744065264368292 52.0741891580359919 28.6327538495249954
 53.5533334618442680 42.3103015750729767 28.6327538495249954
 43.6882967728507978 49.6332355696302230 28.6327538495249954
 54.9626605868708040 49.6332355696302230 28.6327538495249954
 -14.0929763404568273 52.0741891580359919 28.6327538495249954
 59.1905576478242708 42.3103015750729767 28.6327538495249954
 -2.8186125264368322 52.0741891580359919 28.6327538495249954
 -25.3673401544768282 52.0741891580359919 28.6327538495249954
 11.2744479791490271 47.1922087518845075 28.6327538495249954
 -12.6836490935233588 44.7512551634787386 28.6327538495249954
 -21.1394854131292078 49.6332355696302230 28.6327538495249954
 -23.9580552271492060 49.6332355696302230 28.6327538495249954
 -26.7767095991092070 49.6332355696302230 28.6327538495249954
 -22.5487280208509766 47.1922087518845075 28.6327538495249954
 -14.0929340208509810 47.1922087518845075 28.6327538495249954
 47.9161937931690360 47.1922087518845075 28.6327538495249954
 -15.5022612271492086 49.6332355696302230 28.6327538495249954
 42.2789696071890333 47.1922087518845075 28.6327538495249954
 36.6418299791490298 47.1922087518845075 28.6327538495249954
 25.3673816071890279 47.1922087518845075 28.6327538495249954
 22.5488117931690120 47.1922087518845075 28.6327538495249954
 19.7302419791490244 47.1922087518845075 28.6327538495249954
 -2.8185702068309761 47.1922087518845075 28.6327538495249954
  5.6372237931690181 47.1922087518845075 28.6327538495249954
 -11.2743642068309775 47.1922087518845075 28.6327538495249954
 29.5952785868707942 49.6332355696302230 28.6327538495249954
 -12.6836914131292051 49.6332355696302230 28.6327538495249954
 40.8696847204966431 44.7512551634787386 28.6327538495249954
 -9.8650792795033553 44.7512551634787386 28.6327538495249954
 -4.2278550935233552 44.7512551634787386 28.6327538495249954
 -1.4092852795033535 44.7512551634787386 28.6327538495249954
 26.7767087728507853 49.6332355696302230 28.6327538495249954
 12.6836905868707941 49.6332355696302230 28.6327538495249954
  9.8651207728507995 49.6332355696302230 28.6327538495249954
 52.1440485345166493 44.7512551634787386 28.6327538495249954
 29.5953209064766369 44.7512551634787386 28.6327538495249954
  4.2278965868707896 49.6332355696302230 28.6327538495249954
  1.4093267728507877 49.6332355696302230 28.6327538495249954
 -1.4093275991092098 49.6332355696302230 28.6327538495249954
 -4.2278974131292042 49.6332355696302230 28.6327538495249954
 -9.8651215991092069 49.6332355696302230 28.6327538495249954
 38.0511149064766485 44.7512551634787386 28.6327538495249954
  7.0464664008907913 49.6332355696302230 28.6327538495249954
 32.4138907204966458 44.7512551634787386 28.6327538495249954
 16.9115875259173158 56.9561695641874692 28.6327538495249954
  8.4558358455231772 52.0741891580359919 28.6327538495249954
 28.1859935376362323 66.7200571471504844 28.6327538495249954
 25.3674237236162377 66.7200571471504844 28.6327538495249954
 11.2744055376362251 66.7200571471504844 28.6327538495249954
  2.8186115376362340 66.7200571471504844 28.6327538495249954
 -11.2744066483437688 66.7200571471504844 28.6327538495249954
 -16.9115462763837670 66.7200571471504844 28.6327538495249954
 43.6882966509438617 64.2791035587447084 28.6327538495249954
 40.8696422789838678 64.2791035587447084 28.6327538495249954
 26.7767086509438528 64.2791035587447084 28.6327538495249954
 23.9580542789838589 64.2791035587447084 28.6327538495249954
 18.3209146509438554 64.2791035587447084 28.6327538495249954
 31.0045633516562411 66.7200571471504844 28.6327538495249954
 12.6836904649638509 64.2791035587447084 28.6327538495249954
 -4.2278975350361501 64.2791035587447084 28.6327538495249954
 -9.8651217210161430 64.2791035587447084 28.6327538495249954
 -12.6836915350361448 64.2791035587447084 28.6327538495249954
 -15.5022613490561429 64.2791035587447084 28.6327538495249954
 -18.3209157210161457 64.2791035587447084 28.6327538495249954
 -26.7767097210161431 64.2791035587447084 28.6327538495249954
 -32.4138493490561430 64.2791035587447084 28.6327538495249954
 47.9161936712620928 61.8380767409990000 28.6327538495249954
 39.4603996712620955 61.8380767409990000 28.6327538495249954
 33.8231754852820927 61.8380767409990000 28.6327538495249954
 28.1860358572420893 61.8380767409990000 28.6327538495249954
  9.8651206509438563 64.2791035587447084 28.6327538495249954
  5.6372236712620847 61.8380767409990000 28.6327538495249954
 36.6417875376362474 66.7200571471504844 28.6327538495249954
 42.2790117236162359 66.7200571471504844 28.6327538495249954
 22.5488115899903860 71.6020375533019688 28.6327538495249954
 19.7301572180303850 71.6020375533019688 28.6327538495249954
 14.0930175899903762 71.6020375533019688 28.6327538495249954
 -0.0000005959896168 71.6020375533019688 28.6327538495249954
 -2.8185704100096114 71.6020375533019688 28.6327538495249954
 -8.4557945959896212 71.6020375533019688 28.6327538495249954
 -11.2743644100096230 71.6020375533019688 28.6327538495249954
 -19.7301584100096186 71.6020375533019688 28.6327538495249954
 -33.8231765959896151 71.6020375533019688 28.6327538495249954
 -39.4604007819696179 71.6020375533019688 28.6327538495249954
 23.9581387962886225 69.1610107355562462 28.6327538495249954
 39.4603573516562420 66.7200571471504844 28.6327538495249954
 12.6836904243286224 69.1610107355562462 28.6327538495249954
  7.0465507962886189 69.1610107355562462 28.6327538495249954
  4.2278964243286037 69.1610107355562462 28.6327538495249954
  1.4093266103086164 69.1610107355562462 28.6327538495249954
 -9.8650372037113900 69.1610107355562462 28.6327538495249954
 -15.5022613896913821 69.1610107355562462 28.6327538495249954
 -18.3208312037113821 69.1610107355562462 28.6327538495249954
 -21.1394855756713831 69.1610107355562462 28.6327538495249954
 -23.9580553896913813 69.1610107355562462 28.6327538495249954
 -26.7766252037113830 69.1610107355562462 28.6327538495249954
 -29.5952795756713840 69.1610107355562462 28.6327538495249954
 -35.2324192037113804 69.1610107355562462 28.6327538495249954
  9.8651206103086064 69.1610107355562462 28.6327538495249954
  0.0000418455231652 52.0741891580359919 28.6327538495249954
 -22.5487281427579163 61.8380767409990000 28.6327538495249954
 -28.1859523287379155 61.8380767409990000 28.6327538495249954
 -19.7301582881026789 56.9561695641874692 28.6327538495249954
 -22.5488126600626764 56.9561695641874692 28.6327538495249954
 -28.1859522881026763 56.9561695641874692 28.6327538495249954
 52.1440907322155596 54.5151427464417537 28.6327538495249954
 49.3255209181955507 54.5151427464417537 28.6327538495249954
 46.5068665462355568 54.5151427464417537 28.6327538495249954
 43.6882967322155622 54.5151427464417537 28.6327538495249954
 40.8697269181955534 54.5151427464417537 28.6327538495249954
 38.0510725462355595 54.5151427464417537 28.6327538495249954
 32.4139329181955560 54.5151427464417537 28.6327538495249954
 29.5952785462355585 54.5151427464417537 28.6327538495249954
 -16.9115884740826736 56.9561695641874692 28.6327538495249954
 23.9581389181955480 54.5151427464417537 28.6327538495249954
 -4.2278974537644496 54.5151427464417537 28.6327538495249954
 -15.5022612677844460 54.5151427464417537 28.6327538495249954
 -18.3208310818044460 54.5151427464417537 28.6327538495249954
 50.7348058455231694 52.0741891580359919 28.6327538495249954
 42.2790118455231720 52.0741891580359919 28.6327538495249954
 33.8232178455231747 52.0741891580359919 28.6327538495249954
 28.1859936595431719 52.0741891580359919 28.6327538495249954
 25.3674238455231631 52.0741891580359919 28.6327538495249954
 22.5487694735631763 52.0741891580359919 28.6327538495249954
 16.9116298455231728 52.0741891580359919 28.6327538495249954
 14.0929754735631594 52.0741891580359919 28.6327538495249954
 15.5023449181955559 54.5151427464417537 28.6327538495249954
 -25.3673825147179137 61.8380767409990000 28.6327538495249954
 -14.0930186600626755 56.9561695641874692 28.6327538495249954
 -8.4557944740826727 56.9561695641874692 28.6327538495249954
 -33.8231765147179146 61.8380767409990000 28.6327538495249954
 49.3254785985897115 59.3971231525932382 28.6327538495249954
 38.0511147845697053 59.3971231525932382 28.6327538495249954
 35.2324604126097114 59.3971231525932382 28.6327538495249954
 32.4138905985897026 59.3971231525932382 28.6327538495249954
 29.5953207845697079 59.3971231525932382 28.6327538495249954
 26.7766664126097069 59.3971231525932382 28.6327538495249954
 21.1395267845696964 59.3971231525932382 28.6327538495249954
 15.5023025985896936 59.3971231525932382 28.6327538495249954
  7.0465085985897025 59.3971231525932382 28.6327538495249954
 -1.4092854014103018 59.3971231525932382 28.6327538495249954
 -11.2743642881026744 56.9561695641874692 28.6327538495249954
 -7.0465095873903012 59.3971231525932382 28.6327538495249954
 -21.1394432154303011 59.3971231525932382 28.6327538495249954
 47.9161937118973214 56.9561695641874692 28.6327538495249954
 39.4603997118973240 56.9561695641874692 28.6327538495249954
 31.0046057118973302 56.9561695641874692 28.6327538495249954
 14.0930177118973283 56.9561695641874692 28.6327538495249954
 11.2743633399373131 56.9561695641874692 28.6327538495249954
  8.4557935259173256 56.9561695641874692 28.6327538495249954
  5.6372237118973310 56.9561695641874692 28.6327538495249954
 -0.0000004740826793 56.9561695641874692 28.6327538495249954
 -2.8185702881026811 56.9561695641874692 28.6327538495249954
 -5.6372246600626781 56.9561695641874692 28.6327538495249954
 -15.5023035873902977 59.3971231525932382 28.6327538495249954
 47.9161938338042646 42.3103015750729767 28.6327538495249954
 -16.9115460325698876 37.4283211689214923 28.6327538495249954
 31.0046058338042556 42.3103015750729767 28.6327538495249954
 71.8742911502905173 15.4595191852497500 28.6327538495249954
 66.2370669643105288 15.4595191852497500 28.6327538495249954
 60.5998427783305331 15.4595191852497500 28.6327538495249954
 57.7812729643105243 15.4595191852497500 28.6327538495249954
 52.1440487783305286 15.4595191852497500 28.6327538495249954
 49.3254789643105269 15.4595191852497500 28.6327538495249954
 46.5069091502905181 15.4595191852497500 28.6327538495249954
 40.8696849643105153 15.4595191852497500 28.6327538495249954
 38.0511151502905278 15.4595191852497500 28.6327538495249954
 21.1395271502905153 15.4595191852497500 28.6327538495249954
 12.6837331502905215 15.4595191852497500 28.6327538495249954
 -7.0465092216694787 15.4595191852497500 28.6327538495249954
 74.6928609643105261 15.4595191852497500 28.6327538495249954
 76.1021458916381448 13.0185655968439828 28.6327538495249954
 39.4604000776181465 13.0185655968439828 28.6327538495249954
 28.1859517056581375 13.0185655968439828 28.6327538495249954
 19.7301577056581365 13.0185655968439828 28.6327538495249954
 14.0930180776181420 13.0185655968439828 28.6327538495249954
  8.4557938916381428 13.0185655968439828 28.6327538495249954
  2.8185697056581414 13.0185655968439828 28.6327538495249954
 -0.0000001083618602 13.0185655968439828 28.6327538495249954
 -5.6372242943418591 13.0185655968439828 28.6327538495249954
 77.5114730979363742 10.5775387790982709 28.6327538495249954
 69.0556790979363768 10.5775387790982709 28.6327538495249954
 63.4184549119563812 10.5775387790982709 28.6327538495249954
 54.9626609119563767 10.5775387790982709 28.6327538495249954
 53.5533337056581473 13.0185655968439828 28.6327538495249954
 46.5068669119563793 10.5775387790982709 28.6327538495249954
 -2.8185699630171004 17.9004727736555189 28.6327538495249954
  8.4557938510029000 17.9004727736555189 28.6327538495249954
  0.0000420893370479 22.7824531798069998 28.6327538495249954
 -2.8186122826229494 22.7824531798069998 28.6327538495249954
 -11.2744062826229499 22.7824531798069998 28.6327538495249954
 71.8742488306846781 20.3414995914012344 28.6327538495249954
 69.0556790166646692 20.3414995914012344 28.6327538495249954
 63.4184548306846807 20.3414995914012344 28.6327538495249954
 60.5998850166646719 20.3414995914012344 28.6327538495249954
 57.7812306447046780 20.3414995914012344 28.6327538495249954
 54.9626608306846691 20.3414995914012344 28.6327538495249954
 49.3254366447046735 20.3414995914012344 28.6327538495249954
 38.0510728306846602 20.3414995914012344 28.6327538495249954
 18.3209150166646637 20.3414995914012344 28.6327538495249954
 -0.0000001489970986 17.9004727736555189 28.6327538495249954
 15.5022606447046662 20.3414995914012344 28.6327538495249954
 -1.4093273552953294 20.3414995914012344 28.6327538495249954
 -4.2278971693153311 20.3414995914012344 28.6327538495249954
 -7.0464669833353293 20.3414995914012344 28.6327538495249954
 -9.8651213552953294 20.3414995914012344 28.6327538495249954
 73.2835760369829075 17.9004727736555189 28.6327538495249954
 59.1905578510029073 17.9004727736555189 28.6327538495249954
 47.9161940369829011 17.9004727736555189 28.6327538495249954
 45.0976242229628923 17.9004727736555189 28.6327538495249954
 36.6418302229629020 17.9004727736555189 28.6327538495249954
 33.8231758510028868 17.9004727736555189 28.6327538495249954
 31.0046060369829029 17.9004727736555189 28.6327538495249954
 25.3673818510029001 17.9004727736555189 28.6327538495249954
  4.2278968306846716 20.3414995914012344 28.6327538495249954
 40.8697272839163759 10.5775387790982709 28.6327538495249954
 38.0510729119563607 10.5775387790982709 28.6327538495249954
 32.4139332839163785 10.5775387790982709 28.6327538495249954
 81.7393701588898551  3.2546047845410229 28.6327538495249954
 73.2835761588898578  3.2546047845410229 28.6327538495249954
 67.6463519729098550  3.2546047845410229 28.6327538495249954
 59.1905579729098434  3.2546047845410229 28.6327538495249954
 56.3719881588898417  3.2546047845410229 28.6327538495249954
 50.7347639729098461  3.2546047845410229 28.6327538495249954
 45.0976243448698426  3.2546047845410229 28.6327538495249954
 42.2789699729098274  3.2546047845410229 28.6327538495249954
 39.4604001588898399  3.2546047845410229 28.6327538495249954
 36.6418303448698452  3.2546047845410229 28.6327538495249954
 33.8231759729098371  3.2546047845410229 28.6327538495249954
 31.0046061588898354  3.2546047845410229 28.6327538495249954
 -1.4093272333883895  5.6956316022867357 28.6327538495249954
 28.1860363448698337  3.2546047845410229 28.6327538495249954
 22.5488121588898416  3.2546047845410229 28.6327538495249954
 16.9115879729098388  3.2546047845410229 28.6327538495249954
  8.4557939729098397  3.2546047845410229 28.6327538495249954
 80.3300852721974650  0.8136511961352557 28.6327538495249954
 77.5114309002374711  0.8136511961352557 28.6327538495249954
 74.6928610862174764  0.8136511961352557 28.6327538495249954
 69.0556369002374737  0.8136511961352557 28.6327538495249954
 60.5998429002374621  0.8136511961352557 28.6327538495249954
 54.9627032721974516  0.8136511961352557 28.6327538495249954
 40.8696850862174585  0.8136511961352557 28.6327538495249954
 35.2324609002374558  0.8136511961352557 28.6327538495249954
 12.6837332721974576  0.8136511961352557 28.6327538495249954
 25.3673819729098362  3.2546047845410229 28.6327538495249954
  1.4093271385716108  5.6956316022867357 28.6327538495249954
  4.2278969525916086  5.6956316022867357 28.6327538495249954
 15.5022607666116095  5.6956316022867357 28.6327538495249954
 23.9581392839163634 10.5775387790982709 28.6327538495249954
 21.1394849119563659 10.5775387790982709 28.6327538495249954
 18.3209150979363713 10.5775387790982709 28.6327538495249954
 15.5023452839163713 10.5775387790982709 28.6327538495249954
  4.2278969119563712 10.5775387790982709 28.6327538495249954
  1.4093270979363695 10.5775387790982709 28.6327538495249954
 78.9207580252639929  8.1365851906925037 28.6327538495249954
 76.1021882112439840  8.1365851906925037 28.6327538495249954
 73.2835338392839901  8.1365851906925037 28.6327538495249954
 70.4649640252639955  8.1365851906925037 28.6327538495249954
 67.6463942112439867  8.1365851906925037 28.6327538495249954
 64.8277398392839928  8.1365851906925037 28.6327538495249954
 62.0091700252639910  8.1365851906925037 28.6327538495249954
 59.1906002112439964  8.1365851906925037 28.6327538495249954
 56.3719458392839954  8.1365851906925037 28.6327538495249954
 22.5487698392839881  8.1365851906925037 28.6327538495249954
 14.0929758392839890  8.1365851906925037 28.6327538495249954
  8.4558362112439873  8.1365851906925037 28.6327538495249954
  2.8186120252639890  8.1365851906925037 28.6327538495249954
 80.3300429525916257  5.6956316022867357 28.6327538495249954
 74.6928187666116230  5.6956316022867357 28.6327538495249954
 66.2370247666116256  5.6956316022867357 28.6327538495249954
 57.7812307666116141  5.6956316022867357 28.6327538495249954
 49.3254367666116167  5.6956316022867357 28.6327538495249954
 43.6882971385716132  5.6956316022867357 28.6327538495249954
 29.5952789525916060  5.6956316022867357 28.6327538495249954
 23.9580547666116068  5.6956316022867357 28.6327538495249954
  2.8186119033570516 22.7824531798069998 28.6327538495249954
  8.4558360893370512 22.7824531798069998 28.6327538495249954
 11.2744059033570529 22.7824531798069998 28.6327538495249954
 14.0929757173770476 22.7824531798069998 28.6327538495249954
 36.6417877814501125 37.4283211689214923 28.6327538495249954
 33.8232179674301037 37.4283211689214923 28.6327538495249954
 28.1859937814501045 37.4283211689214923 28.6327538495249954
 25.3674239674301170 37.4283211689214923 28.6327538495249954
 22.5487695954701017 37.4283211689214923 28.6327538495249954
 14.0929755954701115 37.4283211689214923 28.6327538495249954
  8.4558359674301080 37.4283211689214923 28.6327538495249954
 -5.6371822185498859 37.4283211689214923 28.6327538495249954
 28.1859512180303895 71.6020375533019688 28.6327538495249954
 60.5998848947577358 34.9873675805157234 28.6327538495249954
 57.7812305227977419 34.9873675805157234 28.6327538495249954
 54.9626607087777472 34.9873675805157234 28.6327538495249954
 39.4603575954701142 37.4283211689214923 28.6327538495249954
 52.1440908947577384 34.9873675805157234 28.6327538495249954
 38.0510727087777383 34.9873675805157234 28.6327538495249954
 35.2325028947577295 34.9873675805157234 28.6327538495249954
 23.9580545227977240 34.9873675805157234 28.6327538495249954
 21.1394847087777364 34.9873675805157234 28.6327538495249954
 15.5022605227977337 34.9873675805157234 28.6327538495249954
 12.6836907087777320 34.9873675805157234 28.6327538495249954
  1.4093268947577322 34.9873675805157234 28.6327538495249954
 -9.8651214772022673 34.9873675805157234 28.6327538495249954
 -18.3209154772022664 34.9873675805157234 28.6327538495249954
 64.8277819150759740 32.5463407627700150 28.6327538495249954
 56.3719879150759695 32.5463407627700150 28.6327538495249954
 53.5534181010559607 32.5463407627700150 28.6327538495249954
 49.3254365227977445 34.9873675805157234 28.6327538495249954
 42.2790119674301152 37.4283211689214923 28.6327538495249954
 45.0975817814501099 37.4283211689214923 28.6327538495249954
 47.9161515954701187 37.4283211689214923 28.6327538495249954
 25.3673816478242529 42.3103015750729767 28.6327538495249954
 22.5488118338042653 42.3103015750729767 28.6327538495249954
 16.9115876478242626 42.3103015750729767 28.6327538495249954
  8.4557936478242581 42.3103015750729767 28.6327538495249954
 -8.4557943521757366 42.3103015750729767 28.6327538495249954
 -16.9115883521757375 42.3103015750729767 28.6327538495249954
 -19.7301581661957393 42.3103015750729767 28.6327538495249954
 -22.5488125381557367 42.3103015750729767 28.6327538495249954
 60.5998848541225001 39.8692747573272612 28.6327538495249954
 57.7813150401024913 39.8692747573272612 28.6327538495249954
 49.3255210401024939 39.8692747573272612 28.6327538495249954
 35.2325028541224938 39.8692747573272612 28.6327538495249954
 32.4139330401024850 39.8692747573272612 28.6327538495249954
 26.7767088541224823 39.8692747573272612 28.6327538495249954
 21.1394846681424795 39.8692747573272612 28.6327538495249954
 18.3209148541224920 39.8692747573272612 28.6327538495249954
 15.5023450401024956 39.8692747573272612 28.6327538495249954
 12.6836906681424875 39.8692747573272612 28.6327538495249954
  9.8651208541224857 39.8692747573272612 28.6327538495249954
  7.0465510401024849 39.8692747573272612 28.6327538495249954
  4.2278966681424874 39.8692747573272612 28.6327538495249954
  1.4093268541224926 39.8692747573272612 28.6327538495249954
 -1.4092429598975091 39.8692747573272612 28.6327538495249954
 -9.8650369598975125 39.8692747573272612 28.6327538495249954
 -15.5022611458775117 39.8692747573272612 28.6327538495249954
 59.1905999674301100 37.4283211689214923 28.6327538495249954
 50.7348059674301126 37.4283211689214923 28.6327538495249954
 42.2789697290959623 32.5463407627700150 28.6327538495249954
 36.6417454618442662 42.3103015750729767 28.6327538495249954
 39.4603999150759606 32.5463407627700150 28.6327538495249954
 22.5488119150759623 32.5463407627700150 28.6327538495249954
  8.4557937697312031 27.6644335859584807 28.6327538495249954
 -0.0000002302687971 27.6644335859584807 28.6327538495249954
 -2.8185700442888009 27.6644335859584807 28.6327538495249954
 -8.4557942302688005 27.6644335859584807 28.6327538495249954
 -11.2743640442888005 27.6644335859584807 28.6327538495249954
 69.0556789760294407 25.2234067682127652 28.6327538495249954
 66.2371091620094319 25.2234067682127652 28.6327538495249954
 63.4184547900494380 25.2234067682127652 28.6327538495249954
 60.5998849760294434 25.2234067682127652 28.6327538495249954
 49.3255211620094371 25.2234067682127652 28.6327538495249954
 40.8697271620094256 25.2234067682127652 28.6327538495249954
 29.5952787900494201 25.2234067682127652 28.6327538495249954
 11.2743635837511977 27.6644335859584807 28.6327538495249954
 26.7767089760294326 25.2234067682127652 28.6327538495249954
 18.3209149760294281 25.2234067682127652 28.6327538495249954
 15.5023451620094264 25.2234067682127652 28.6327538495249954
 12.6836907900494289 25.2234067682127652 28.6327538495249954
 70.4649639033570594 22.7824531798069998 28.6327538495249954
 62.0091699033570620 22.7824531798069998 28.6327538495249954
 56.3719457173770593 22.7824531798069998 28.6327538495249954
 47.9161517173770548 22.7824531798069998 28.6327538495249954
 36.6417879033570415 22.7824531798069998 28.6327538495249954
 33.8232180893370540 22.7824531798069998 28.6327538495249954
 31.0045637173770388 22.7824531798069998 28.6327538495249954
 22.5487697173770485 22.7824531798069998 28.6327538495249954
 16.9116300893370450 22.7824531798069998 28.6327538495249954
 21.1394847900494298 25.2234067682127652 28.6327538495249954
 16.9115877697311987 27.6644335859584807 28.6327538495249954
 28.1859515837511907 27.6644335859584807 28.6327538495249954
 33.8231757697311934 27.6644335859584807 28.6327538495249954
 14.0930179150759578 32.5463407627700150 28.6327538495249954
  5.6372239150759640 32.5463407627700150 28.6327538495249954
  2.8186541010559618 32.5463407627700150 28.6327538495249954
 -0.0000002709040391 32.5463407627700150 28.6327538495249954
 -2.8185700849240374 32.5463407627700150 28.6327538495249954
 -11.2743640849240396 32.5463407627700150 28.6327538495249954
 -16.9115882709040370 32.5463407627700150 28.6327538495249954
 49.3254788424035837 30.1053871743642461 28.6327538495249954
 46.5069090283835891 30.1053871743642461 28.6327538495249954
 43.6882546564235881 30.1053871743642461 28.6327538495249954
 40.8696848424035863 30.1053871743642461 28.6327538495249954
 38.0511150283835775 30.1053871743642461 28.6327538495249954
 29.5953210283835837 30.1053871743642461 28.6327538495249954
 26.7766666564235685 30.1053871743642461 28.6327538495249954
 23.9580968424035810 30.1053871743642461 28.6327538495249954
  9.8650786564235791 30.1053871743642461 28.6327538495249954
  7.0465088424035836 30.1053871743642461 28.6327538495249954
 -1.4092851575964171 30.1053871743642461 28.6327538495249954
 -7.0465093435764183 30.1053871743642461 28.6327538495249954
 64.8277819557112025 27.6644335859584807 28.6327538495249954
 62.0091275837512086 27.6644335859584807 28.6327538495249954
 59.1905577697312140 27.6644335859584807 28.6327538495249954
 53.5533335837512112 27.6644335859584807 28.6327538495249954
 50.7347637697312024 27.6644335859584807 28.6327538495249954
 45.0975395837512067 27.6644335859584807 28.6327538495249954
 42.2789697697312050 27.6644335859584807 28.6327538495249954
 39.4603999557111962 27.6644335859584807 28.6327538495249954
 25.3673817290959498 32.5463407627700150 28.6327538495249954
 36.6417452180303869 71.6020375533019688 28.6327538495249954
