 H  O 
 1.0000000000000000
    84.5579400000000021    0.0000000000000000    0.0000000000000000
   -42.2789706095346958   73.2293399455724767    0.0000000000000000
     0.0000000000000000    0.0000000000000000   46.9039550000000034
 H   O  
 311 177
Cartesian
 -0.0000000135450799  1.6273023922705114 28.1128704123049964
 31.0046058067141033 45.5649063596139996 28.1128704123049964
 22.5488118067141059 45.5649063596139996 28.1128704123049964
 19.7301574347541049 45.5649063596139996 28.1128704123049964
 14.0930178067140996 45.5649063596139996 28.1128704123049964
 11.2743634347540986 45.5649063596139996 28.1128704123049964
  5.6372238067141032 45.5649063596139996 28.1128704123049964
  2.8185694347540982 45.5649063596139996 28.1128704123049964
 -0.0000003792658964 45.5649063596139996 28.1128704123049964
 -5.6372245652458988 45.5649063596139996 28.1128704123049964
 36.6417454347540925 45.5649063596139996 28.1128704123049964
 -11.2743641932859031 45.5649063596139996 28.1128704123049964
 54.9626183620817130 43.1239527712082307 28.1128704123049964
 49.3254787340417238 43.1239527712082307 28.1128704123049964
 43.6882545480617210 43.1239527712082307 28.1128704123049964
 35.2324605480617166 43.1239527712082307 28.1128704123049964
 32.4138907340417219 43.1239527712082307 28.1128704123049964
 26.7766665480617228 43.1239527712082307 28.1128704123049964
 23.9580967340417281 43.1239527712082307 28.1128704123049964
  9.8650785480617262 43.1239527712082307 28.1128704123049964
  7.0465087340417254 43.1239527712082307 28.1128704123049964
 -16.9115883792659005 45.5649063596139996 28.1128704123049964
  1.4092845480617260 43.1239527712082307 28.1128704123049964
 39.4603998067140935 45.5649063596139996 28.1128704123049964
 53.5533334347540944 45.5649063596139996 28.1128704123049964
 -2.8186125128917427 50.4468867657654769 28.1128704123049964
 -5.6371823269117440 50.4468867657654769 28.1128704123049964
 -11.2744065128917477 50.4468867657654769 28.1128704123049964
 -14.0929763269117494 50.4468867657654769 28.1128704123049964
 -25.3674246988717442 50.4468867657654769 28.1128704123049964
 52.1440062284558650 48.0059331773597151 28.1128704123049964
 32.4138484144358685 48.0059331773597151 28.1128704123049964
 26.7766242284558658 48.0059331773597151 28.1128704123049964
 23.9580544144358711 48.0059331773597151 28.1128704123049964
 45.0975394347540970 45.5649063596139996 28.1128704123049964
 21.1394846004158765 48.0059331773597151 28.1128704123049964
 15.5022604144358738 48.0059331773597151 28.1128704123049964
  7.0464664144358764 48.0059331773597151 28.1128704123049964
  1.4092422284558699 48.0059331773597151 28.1128704123049964
 -1.4093275855641247 48.0059331773597151 28.1128704123049964
 -7.0465517715441273 48.0059331773597151 28.1128704123049964
 -9.8651215855641290 48.0059331773597151 28.1128704123049964
 -18.3209155855641299 48.0059331773597151 28.1128704123049964
 -21.1394853995841281 48.0059331773597151 28.1128704123049964
 -26.7767095855641273 48.0059331773597151 28.1128704123049964
 18.3208302284558755 48.0059331773597151 28.1128704123049964
 -1.4092852659582757 43.1239527712082307 28.1128704123049964
 -7.0465094519382783 43.1239527712082307 28.1128704123049964
 -15.5023034519382783 43.1239527712082307 28.1128704123049964
 31.0045636090151895 35.8010187766509844 28.1128704123049964
 25.3673394230351938 35.8010187766509844 28.1128704123049964
 22.5487696090151921 35.8010187766509844 28.1128704123049964
 11.2744057949951930 35.8010187766509844 28.1128704123049964
  5.6371816090151947 35.8010187766509844 28.1128704123049964
 -2.8186123909848098 35.8010187766509844 28.1128704123049964
 -8.4558365769648098 35.8010187766509844 28.1128704123049964
 -11.2744063909848098 35.8010187766509844 28.1128704123049964
 -16.9116305769648072 35.8010187766509844 28.1128704123049964
 36.6417877949951958 35.8010187766509844 28.1128704123049964
 46.5068667223228047 33.3600651882452155 28.1128704123049964
 15.5022605363428152 33.3600651882452155 28.1128704123049964
  9.8650363503628089 33.3600651882452155 28.1128704123049964
  1.4092423503628120 33.3600651882452155 28.1128704123049964
 -12.6836912776771893 33.3600651882452155 28.1128704123049964
 -15.5023456496371885 33.3600651882452155 28.1128704123049964
 62.0091275566610349 30.9190383704995000 28.1128704123049964
 59.1905577426410403 30.9190383704995000 28.1128704123049964
 53.5533335566610376 30.9190383704995000 28.1128704123049964
 50.7347637426410429 30.9190383704995000 28.1128704123049964
 23.9580545363428143 33.3600651882452155 28.1128704123049964
 42.2789274230351850 35.8010187766509844 28.1128704123049964
 45.0975817949951860 35.8010187766509844 28.1128704123049964
 53.5533757949951976 35.8010187766509844 28.1128704123049964
 -21.1395276379182775 43.1239527712082307 28.1128704123049964
 50.7347636613693425 40.6829991828024689 28.1128704123049964
 45.0975394753893397 40.6829991828024689 28.1128704123049964
 36.6417454753893352 40.6829991828024689 28.1128704123049964
 31.0045212894093325 40.6829991828024689 28.1128704123049964
 22.5487272894093422 40.6829991828024689 28.1128704123049964
 14.0929332894093395 40.6829991828024689 28.1128704123049964
  2.8185694753893440 40.6829991828024689 28.1128704123049964
 -11.2744487105906597 40.6829991828024689 28.1128704123049964
 60.5998848676675763 38.2419723650567462 28.1128704123049964
 57.7812304957075682 38.2419723650567462 28.1128704123049964
 54.9626606816875736 38.2419723650567462 28.1128704123049964
 52.1440908676675789 38.2419723650567462 28.1128704123049964
 43.6882968676675674 38.2419723650567462 28.1128704123049964
 40.8696424957075664 38.2419723650567462 28.1128704123049964
 29.5952361182678381 72.4156887494372228 28.1128704123049964
 15.5022604957075725 38.2419723650567462 28.1128704123049964
  7.0464664957075716 38.2419723650567462 28.1128704123049964
 -1.4093275042924258 38.2419723650567462 28.1128704123049964
 -9.8651215042924267 38.2419723650567462 28.1128704123049964
 -21.1394853183124276 38.2419723650567462 28.1128704123049964
  2.8186116730882564 50.4468867657654769 28.1128704123049964
 14.0929754871082551 50.4468867657654769 28.1128704123049964
 22.5487694871082525 50.4468867657654769 28.1128704123049964
 31.0045634871082498 50.4468867657654769 28.1128704123049964
 -21.1394855621263069 67.5337083432857384 28.1128704123049964
 -26.7767097481063061 67.5337083432857384 28.1128704123049964
 -29.5952795621263043 67.5337083432857384 28.1128704123049964
 45.0975815511813138 65.0927547548799765 28.1128704123049964
 39.4603573652013111 65.0927547548799765 28.1128704123049964
 14.0929753652013119 65.0927547548799765 28.1128704123049964
  8.4557511792213162 65.0927547548799765 28.1128704123049964
 -0.0000428207786890 65.0927547548799765 28.1128704123049964
 -8.4558368207786891 65.0927547548799765 28.1128704123049964
 -18.3209157481063052 67.5337083432857384 28.1128704123049964
 -11.2744066347986838 65.0927547548799765 28.1128704123049964
 -16.9116308207786865 65.0927547548799765 28.1128704123049964
 -22.5487704488186900 65.0927547548799765 28.1128704123049964
 46.5068664785089325 62.6518011664742076 28.1128704123049964
 38.0510724785089351 62.6518011664742076 28.1128704123049964
 35.2324181065489270 62.6518011664742076 28.1128704123049964
 26.7766241065489261 62.6518011664742076 28.1128704123049964
  9.8650361065489385 62.6518011664742076 28.1128704123049964
  1.4092421065489333 62.6518011664742076 28.1128704123049964
 -7.0465518934510678 62.6518011664742076 28.1128704123049964
 -14.0929764488186855 65.0927547548799765 28.1128704123049964
  9.8651206238536986 67.5337083432857384 28.1128704123049964
 21.1394844378736906 67.5337083432857384 28.1128704123049964
 26.7767086238536862 67.5337083432857384 28.1128704123049964
 18.3208723042478390 72.4156887494372228 28.1128704123049964
 -12.6837338817321594 72.4156887494372228 28.1128704123049964
 -18.3208735097721558 72.4156887494372228 28.1128704123049964
 -21.1395278817321568 72.4156887494372228 28.1128704123049964
 -26.7766675097721567 72.4156887494372228 28.1128704123049964
 -29.5953218817321577 72.4156887494372228 28.1128704123049964
 -32.4138916957521559 72.4156887494372228 28.1128704123049964
 -35.2324615097721576 72.4156887494372228 28.1128704123049964
 -38.0511158817321586 72.4156887494372228 28.1128704123049964
 36.6417452315754701 69.9747351610314468 28.1128704123049964
 33.8231754175554755 69.9747351610314468 28.1128704123049964
 14.0929330455954638 69.9747351610314468 28.1128704123049964
 11.2743632315754621 69.9747351610314468 28.1128704123049964
 -0.0000005824445366 69.9747351610314468 28.1128704123049964
 -2.8186549544045376 69.9747351610314468 28.1128704123049964
 -8.4557945824445344 69.9747351610314468 28.1128704123049964
 -14.0930187684245301 69.9747351610314468 28.1128704123049964
 -22.5488127684245363 69.9747351610314468 28.1128704123049964
 -33.8231765824445318 69.9747351610314468 28.1128704123049964
 -39.4604007684245346 69.9747351610314468 28.1128704123049964
 38.0510724378736924 67.5337083432857384 28.1128704123049964
 -9.8651217074710615 62.6518011664742076 28.1128704123049964
 47.9161939286210341 30.9190383704995000 28.1128704123049964
 -12.6836915214910633 62.6518011664742076 28.1128704123049964
 -26.7767097074710669 62.6518011664742076 28.1128704123049964
 -5.6372246465175939 55.3288671719169614 28.1128704123049964
 -11.2744488324975958 55.3288671719169614 28.1128704123049964
 -16.9115884605376010 55.3288671719169614 28.1128704123049964
 -25.3673824605375984 55.3288671719169614 28.1128704123049964
 -31.0046066465175976 55.3288671719169614 28.1128704123049964
 49.3254363738006276 52.8878403541712458 28.1128704123049964
 43.6882967457606384 52.8878403541712458 28.1128704123049964
 32.4138483738006258 52.8878403541712458 28.1128704123049964
 26.7767087457606330 52.8878403541712458 28.1128704123049964
  5.6371391675024016 55.3288671719169614 28.1128704123049964
 12.6836905597806329 52.8878403541712458 28.1128704123049964
  1.4093267457606342 52.8878403541712458 28.1128704123049964
 -1.4093276261993704 52.8878403541712458 28.1128704123049964
 -7.0464672542393672 52.8878403541712458 28.1128704123049964
 -9.8651216261993682 52.8878403541712458 28.1128704123049964
 -18.3209156261993691 52.8878403541712458 28.1128704123049964
 -21.1394854402193673 52.8878403541712458 28.1128704123049964
 53.5533756730882544 50.4468867657654769 28.1128704123049964
 50.7347213011282463 50.4468867657654769 28.1128704123049964
 36.6417876730882455 50.4468867657654769 28.1128704123049964
  7.0464663738006301 52.8878403541712458 28.1128704123049964
 28.1859513534823982 55.3288671719169614 28.1128704123049964
 31.0045211675023928 55.3288671719169614 28.1128704123049964
 39.4603151675024009 55.3288671719169614 28.1128704123049964
 -32.4139338934510661 62.6518011664742076 28.1128704123049964
 47.9161936848071619 60.2107743487284921 28.1128704123049964
 36.6417453128471564 60.2107743487284921 28.1128704123049964
 25.3673814988271609 60.2107743487284921 28.1128704123049964
 22.5488116848071662 60.2107743487284921 28.1128704123049964
 19.7301573128471581 60.2107743487284921 28.1128704123049964
 16.9115874988271635 60.2107743487284921 28.1128704123049964
  8.4557934988271644 60.2107743487284921 28.1128704123049964
  5.6372236848071626 60.2107743487284921 28.1128704123049964
 -0.0000005011728327 60.2107743487284921 28.1128704123049964
 -14.0930186871528367 60.2107743487284921 28.1128704123049964
 49.3254786121347877 57.7698207603227232 28.1128704123049964
 32.4138906121347787 57.7698207603227232 28.1128704123049964
 23.9580966121347885 57.7698207603227232 28.1128704123049964
  9.8650784261547866 57.7698207603227232 28.1128704123049964
  1.4092844261547897 57.7698207603227232 28.1128704123049964
 -9.8650793878652134 57.7698207603227232 28.1128704123049964
 -12.6837337598252144 57.7698207603227232 28.1128704123049964
 -26.7766673878652135 57.7698207603227232 28.1128704123049964
 -29.5953217598252145 57.7698207603227232 28.1128704123049964
 -32.4138915738452127 57.7698207603227232 28.1128704123049964
 -21.1394855214910677 62.6518011664742076 28.1128704123049964
 39.4603999286210438 30.9190383704995000 28.1128704123049964
 26.7767088676675797 38.2419723650567462 28.1128704123049964
 38.0510301182678390 72.4156887494372228 28.1128704123049964
 14.0929757309221344 21.1551507875364884 28.1128704123049964
  5.6371817309221299 21.1551507875364884 28.1128704123049964
  2.8186119169021282 21.1551507875364884 28.1128704123049964
 -5.6371820830978701 21.1551507875364884 28.1128704123049964
 70.4649640388090717  6.5092827984219914 28.1128704123049964
 69.0555944722697461 18.7141971991307194 28.1128704123049964
 64.8277398528290689  6.5092827984219914 28.1128704123049964
 63.4184548442297569 18.7141971991307194 28.1128704123049964
  1.4093271114814494  8.9502363868277595 28.1128704123049964
 38.0510728442297577 18.7141971991307194 28.1128704123049964
 35.2324184722697566 18.7141971991307194 28.1128704123049964
 29.5952788442297496 18.7141971991307194 28.1128704123049964
 26.7766244722697486 18.7141971991307194 28.1128704123049964
 23.9580546582497540 18.7141971991307194 28.1128704123049964
 60.5998004722697488 18.7141971991307194 28.1128704123049964
  7.0464666582497495 18.7141971991307194 28.1128704123049964
 56.3719458528290644  6.5092827984219914 28.1128704123049964
 22.5487697309221353 21.1551507875364884 28.1128704123049964
 71.8742489661366903  4.0683292100162243 28.1128704123049964
 21.1394848035945166 23.5961043759422537 28.1128704123049964
 15.5022606176145086 23.5961043759422537 28.1128704123049964
  9.8651209895745122 23.5961043759422537 28.1128704123049964
 74.6928187801566850  4.0683292100162243 28.1128704123049964
 -7.0464670104254905 23.5961043759422537 28.1128704123049964
 19.7301999169021336 21.1551507875364884 28.1128704123049964
 -9.8651213823854889 23.5961043759422537 28.1128704123049964
 59.1905155449421230 21.1551507875364884 28.1128704123049964
 80.3300429661366877  4.0683292100162243 28.1128704123049964
 25.3673396668490696  6.5092827984219914 28.1128704123049964
 33.8231336668490670  6.5092827984219914 28.1128704123049964
 33.8231335449421309 21.1551507875364884 28.1128704123049964
 31.0045637309221327 21.1551507875364884 28.1128704123049964
 64.8277397309221328 21.1551507875364884 28.1128704123049964
  7.0464667395214500  8.9502363868277595 28.1128704123049964
  1.4092424722697507 18.7141971991307194 28.1128704123049964
 15.5022607395214518  8.9502363868277595 28.1128704123049964
 69.0556367918755996 13.8322167929792403 28.1128704123049964
 69.0556791114814530  8.9502363868277595 28.1128704123049964
 60.5998427918756022 13.8322167929792403 28.1128704123049964
 77.5114731114814504  8.9502363868277595 28.1128704123049964
 54.9626186058955923 13.8322167929792403 28.1128704123049964
  8.4557939051832172 11.3912632045734714 28.1128704123049964
 74.6928609778556023 13.8322167929792403 28.1128704123049964
 25.3673819051832226 11.3912632045734714 28.1128704123049964
 29.5952366058956002 13.8322167929792403 28.1128704123049964
 23.9580969778556039 13.8322167929792403 28.1128704123049964
  4.2278546058956001 13.8322167929792403 28.1128704123049964
 -4.2279393941043990 13.8322167929792403 28.1128704123049964
 67.6463519051832236 11.3912632045734714 28.1128704123049964
 64.8276975332232155 11.3912632045734714 28.1128704123049964
 38.0510306058956047 13.8322167929792403 28.1128704123049964
 -8.4557941354520185 16.2731703813850075 28.1128704123049964
  5.6372240505279780 16.2731703813850075 28.1128704123049964
 11.2743636785679815 16.2731703813850075 28.1128704123049964
 -7.0465515277302488 18.7141971991307194 28.1128704123049964
 73.2835760505279836 16.2731703813850075 28.1128704123049964
 56.3719880505279747 16.2731703813850075 28.1128704123049964
 21.1394849255014528  8.9502363868277595 28.1128704123049964
 38.0510729255014510  8.9502363868277595 28.1128704123049964
 50.7347638645479790 16.2731703813850075 28.1128704123049964
 40.8696427395214528  8.9502363868277595 28.1128704123049964
 47.9161940505279844 16.2731703813850075 28.1128704123049964
 42.2789698645479817 16.2731703813850075 28.1128704123049964
 14.0930179286210446 30.9190383704995000 28.1128704123049964
 25.3673818645479834 16.2731703813850075 28.1128704123049964
 46.5068669255014484  8.9502363868277595 28.1128704123049964
 52.1440911114814512  8.9502363868277595 28.1128704123049964
 60.5998851114814414  8.9502363868277595 28.1128704123049964
 16.9115878645479825 16.2731703813850075 28.1128704123049964
 23.9580546176145113 23.5961043759422537 28.1128704123049964
 29.5952788035945140 23.5961043759422537 28.1128704123049964
 50.7347215449421185 21.1551507875364884 28.1128704123049964
 12.6836909661366875  4.0683292100162243 28.1128704123049964
 11.2743635972962863 26.0371311936879657 28.1128704123049964
 14.0929334113162810 26.0371311936879657 28.1128704123049964
 38.0510729661366938  4.0683292100162243 28.1128704123049964
 32.4138487801566981  4.0683292100162243 28.1128704123049964
 39.4603154113162731 26.0371311936879657 28.1128704123049964
 50.7347637832762715 26.0371311936879657 28.1128704123049964
 59.1905577832762830 26.0371311936879657 28.1128704123049964
 67.6463517832762875 26.0371311936879657 28.1128704123049964
 -7.0465093300313377 28.4780847820937346 28.1128704123049964
  7.0465088559486642 28.4780847820937346 28.1128704123049964
  9.8650786699686659 28.4780847820937346 28.1128704123049964
 18.3208726699686650 28.4780847820937346 28.1128704123049964
  4.2278969661366892  4.0683292100162243 28.1128704123049964
  5.6371394113162827 26.0371311936879657 28.1128704123049964
 26.7766666699686624 28.4780847820937346 28.1128704123049964
 73.2835761724349197  1.6273023922705114 28.1128704123049964
 35.2324606699686598 28.4780847820937346 28.1128704123049964
 56.3719881724349250  1.6273023922705114 28.1128704123049964
 40.8696848559486625 28.4780847820937346 28.1128704123049964
 46.5068244839886518 28.4780847820937346 28.1128704123049964
 54.9626184839886562 28.4780847820937346 28.1128704123049964
 33.8231759864549275  1.6273023922705114 28.1128704123049964
 16.9115879864549186  1.6273023922705114 28.1128704123049964
 63.4184124839886536 28.4780847820937346 28.1128704123049964
 -14.0930184433389574 30.9190383704995000 28.1128704123049964
 -5.6372244433389582 30.9190383704995000 28.1128704123049964
  2.8185695566610427 30.9190383704995000 28.1128704123049964
  5.6372239286210437 30.9190383704995000 28.1128704123049964
 -1.4093272198433096  4.0683292100162243 28.1128704123049964
 43.6882125941766972  4.0683292100162243 28.1128704123049964
 62.0091277192032209 11.3912632045734714 28.1128704123049964
 -5.6372244027037182 26.0371311936879657 28.1128704123049964
 60.5998005941766849  4.0683292100162243 28.1128704123049964
 -2.8186545886837178 26.0371311936879657 28.1128704123049964
 63.4184548035945070 23.5961043759422537 28.1128704123049964
 69.0556789895745169 23.5961043759422537 28.1128704123049964
 57.7812307801566902  4.0683292100162243 28.1128704123049964
 52.1440065941766875  4.0683292100162243 28.1128704123049964
 -11.2744485886837182 26.0371311936879657 28.1128704123049964
 38.0510728035945078 23.5961043759422537 28.1128704123049964
 46.5068668035945052 23.5961043759422537 28.1128704123049964
 -8.4557942167237172 26.0371311936879657 28.1128704123049964
 35.2325030979363731 10.5775387790982709 28.6327538495249954
 14.0930177118973283 56.9561695641874692 28.6327538495249954
  2.8186115376362340 66.7200571471504844 28.6327538495249954
 54.9627032721974516  0.8136511961352557 28.6327538495249954
 70.4650063448698489  3.2546047845410229 28.6327538495249954
 49.3254790862174488  0.8136511961352557 28.6327538495249954
 46.5069092721974613  0.8136511961352557 28.6327538495249954
 43.6882549002374461  0.8136511961352557 28.6327538495249954
 40.8696850862174585  0.8136511961352557 28.6327538495249954
  0.0000417236162395 66.7200571471504844 28.6327538495249954
 64.8277398392839928  8.1365851906925037 28.6327538495249954
 35.2324609002374558  0.8136511961352557 28.6327538495249954
 73.2835338392839901  8.1365851906925037 28.6327538495249954
 62.0092123448698445  3.2546047845410229 28.6327538495249954
 -36.6417886483437698 66.7200571471504844 28.6327538495249954
 -2.8186126483437688 66.7200571471504844 28.6327538495249954
 -16.9115885959896168 71.6020375533019688 28.6327538495249954
 32.4139332839163785 10.5775387790982709 28.6327538495249954
 45.0975393399373274 56.9561695641874692 28.6327538495249954
 26.7767090979363651 10.5775387790982709 28.6327538495249954
 -29.5952372154302985 59.3971231525932382 28.6327538495249954
 22.5488115899903860 71.6020375533019688 28.6327538495249954
  1.4092849002374601  0.8136511961352557 28.6327538495249954
 28.1859513399373292 56.9561695641874692 28.6327538495249954
 -23.9580975873902986 59.3971231525932382 28.6327538495249954
 28.1859512180303895 71.6020375533019688 28.6327538495249954
 -5.6371824623637705 66.7200571471504844 28.6327538495249954
 40.8697267962886173 69.1610107355562462 28.6327538495249954
 19.7301573399373318 56.9561695641874692 28.6327538495249954
 -4.2278552154303037 59.3971231525932382 28.6327538495249954
 -33.8231342763837688 66.7200571471504844 28.6327538495249954
 -18.3208734014102959 59.3971231525932382 28.6327538495249954
 78.9208003448698463  3.2546047845410229 28.6327538495249954
 42.2790122112439946  8.1365851906925037 28.6327538495249954
 38.0511147845697053 59.3971231525932382 28.6327538495249954
 22.5488116712620865 61.8380767409990000 28.6327538495249954
 -1.4093277210161486 64.2791035587447084 28.6327538495249954
  5.6371818392839907  8.1365851906925037 28.6327538495249954
 28.1860363448698337  3.2546047845410229 28.6327538495249954
 31.0046056712620839 61.8380767409990000 28.6327538495249954
 -32.4138493896913857 69.1610107355562462 28.6327538495249954
 -18.3208312037113821 69.1610107355562462 28.6327538495249954
 35.2325031385716159  5.6956316022867357 28.6327538495249954
 31.0045633516562411 66.7200571471504844 28.6327538495249954
 42.2789694852820901 61.8380767409990000 28.6327538495249954
 49.3254367666116167  5.6956316022867357 28.6327538495249954
 36.6417875376362474 66.7200571471504844 28.6327538495249954
 54.9626609525916123  5.6956316022867357 28.6327538495249954
 -35.2325037210161440 64.2791035587447084 28.6327538495249954
 -2.8186121607160102  8.1365851906925037 28.6327538495249954
 22.5488121588898416  3.2546047845410229 28.6327538495249954
 16.9115879729098388  3.2546047845410229 28.6327538495249954
 11.2744478572420874 61.8380767409990000 28.6327538495249954
 15.5023447962886092 69.1610107355562462 28.6327538495249954
 -33.8231765147179146 61.8380767409990000 28.6327538495249954
 11.2744055376362251 66.7200571471504844 28.6327538495249954
 23.9580542789838589 64.2791035587447084 28.6327538495249954
  7.0465507962886189 69.1610107355562462 28.6327538495249954
 36.6417880252639918  8.1365851906925037 28.6327538495249954
 18.3209146509438554 64.2791035587447084 28.6327538495249954
  1.4093266103086164 69.1610107355562462 28.6327538495249954
 -11.2743643287379136 61.8380767409990000 28.6327538495249954
 16.9116302112439918  8.1365851906925037 28.6327538495249954
 57.7813152839163777 10.5775387790982709 28.6327538495249954
  8.4557939729098397  3.2546047845410229 28.6327538495249954
 11.2744060252639908  8.1365851906925037 28.6327538495249954
 67.6463519729098550  3.2546047845410229 28.6327538495249954
  5.6372236712620847 61.8380767409990000 28.6327538495249954
 29.5952784649638616 64.2791035587447084 28.6327538495249954
 -25.3673402763837679 66.7200571471504844 28.6327538495249954
  9.8650786564235791 30.1053871743642461 28.6327538495249954
 -0.0000004740826793 56.9561695641874692 28.6327538495249954
 21.1394847900494298 25.2234067682127652 28.6327538495249954
 16.9116299674301196 37.4283211689214923 28.6327538495249954
  1.4093269760294336 25.2234067682127652 28.6327538495249954
 -18.3208309598975099 39.8692747573272612 28.6327538495249954
 -15.5022611458775117 39.8692747573272612 28.6327538495249954
 -7.0464671458775081 39.8692747573272612 28.6327538495249954
 70.4649639033570594 22.7824531798069998 28.6327538495249954
 18.3209148541224920 39.8692747573272612 28.6327538495249954
 62.0091699033570620 22.7824531798069998 28.6327538495249954
 32.4139330401024850 39.8692747573272612 28.6327538495249954
 -5.6371822185498859 37.4283211689214923 28.6327538495249954
 53.5533759033570504 22.7824531798069998 28.6327538495249954
 46.5068666681425000 39.8692747573272612 28.6327538495249954
 54.9626606681424974 39.8692747573272612 28.6327538495249954
 33.8232180893370540 22.7824531798069998 28.6327538495249954
 -14.0930185381557376 42.3103015750729767 28.6327538495249954
 -8.4557943521757366 42.3103015750729767 28.6327538495249954
 -2.8185701661957374 42.3103015750729767 28.6327538495249954
 11.2744059033570529 22.7824531798069998 28.6327538495249954
 11.2743634618442599 42.3103015750729767 28.6327538495249954
  0.0000420893370479 22.7824531798069998 28.6327538495249954
 28.1859514618442688 42.3103015750729767 28.6327538495249954
 40.8697270401024966 39.8692747573272612 28.6327538495249954
 54.9626607900494406 25.2234067682127652 28.6327538495249954
 60.5998848947577358 34.9873675805157234 28.6327538495249954
 54.9626607087777472 34.9873675805157234 28.6327538495249954
 -1.4092851575964171 30.1053871743642461 28.6327538495249954
 -9.8650791575964192 30.1053871743642461 28.6327538495249954
 66.2370668424035927 30.1053871743642461 28.6327538495249954
 62.0091275837512086 27.6644335859584807 28.6327538495249954
  5.6372239150759640 32.5463407627700150 28.6327538495249954
 56.3719879557112051 27.6644335859584807 28.6327538495249954
 19.7302421010559677 32.5463407627700150 28.6327538495249954
 25.3673817290959498 32.5463407627700150 28.6327538495249954
 28.1860361010559650 32.5463407627700150 28.6327538495249954
 33.8231757290959649 32.5463407627700150 28.6327538495249954
 45.0976241010559633 32.5463407627700150 28.6327538495249954
 45.0975395837512067 27.6644335859584807 28.6327538495249954
 -12.6836912912222672 34.9873675805157234 28.6327538495249954
 36.6417455837512094 27.6644335859584807 28.6327538495249954
 -7.0464671052422672 34.9873675805157234 28.6327538495249954
 31.0046059557112059 27.6644335859584807 28.6327538495249954
  1.4093268947577322 34.9873675805157234 28.6327538495249954
 22.5488119557112086 27.6644335859584807 28.6327538495249954
 12.6836907087777320 34.9873675805157234 28.6327538495249954
 14.0930179557111952 27.6644335859584807 28.6327538495249954
 40.8696425227977400 34.9873675805157234 28.6327538495249954
 -5.6372244162487979 27.6644335859584807 28.6327538495249954
 49.3254365227977445 34.9873675805157234 28.6327538495249954
 -8.4557519106629488 22.7824531798069998 28.6327538495249954
 53.5533334618442680 42.3103015750729767 28.6327538495249954
 54.9626608306846691 20.3414995914012344 28.6327538495249954
 59.1905576478242708 42.3103015750729767 28.6327538495249954
 46.5069091502905181 15.4595191852497500 28.6327538495249954
 40.8696424008908039 49.6332355696302230 28.6327538495249954
 26.7766667783305188 15.4595191852497500 28.6327538495249954
 54.9626605868708040 49.6332355696302230 28.6327538495249954
 -25.3673401544768282 52.0741891580359919 28.6327538495249954
 21.1395271502905153 15.4595191852497500 28.6327538495249954
 64.8277820776181386 13.0185655968439828 28.6327538495249954
 16.9116298455231728 52.0741891580359919 28.6327538495249954
 22.5487694735631763 52.0741891580359919 28.6327538495249954
 28.1859936595431719 52.0741891580359919 28.6327538495249954
 50.7347638916381456 13.0185655968439828 28.6327538495249954
 47.9161940776181368 13.0185655968439828 28.6327538495249954
 45.0975397056581500 13.0185655968439828 28.6327538495249954
 33.8231758916381438 13.0185655968439828 28.6327538495249954
 -12.6836914537644478 54.5151427464417537 28.6327538495249954
 19.7301577056581365 13.0185655968439828 28.6327538495249954
 14.0930180776181420 13.0185655968439828 28.6327538495249954
  8.4557938916381428 13.0185655968439828 28.6327538495249954
 35.2325027322155506 54.5151427464417537 28.6327538495249954
 52.1440907322155596 54.5151427464417537 28.6327538495249954
 -0.0000001083618602 13.0185655968439828 28.6327538495249954
 -5.6372242943418591 13.0185655968439828 28.6327538495249954
 -5.6372246600626781 56.9561695641874692 28.6327538495249954
 18.3209147728507951 49.6332355696302230 28.6327538495249954
  5.6372237118973310 56.9561695641874692 28.6327538495249954
 12.6836905868707941 49.6332355696302230 28.6327538495249954
 52.1440487783305286 15.4595191852497500 28.6327538495249954
 46.5068668306846718 20.3414995914012344 28.6327538495249954
 43.6882970166646629 20.3414995914012344 28.6327538495249954
 40.8696426447046761 20.3414995914012344 28.6327538495249954
  4.2279389064766386 44.7512551634787386 28.6327538495249954
 26.7767090166646753 20.3414995914012344 28.6327538495249954
 15.5023027204966439 44.7512551634787386 28.6327538495249954
 21.1395269064766467 44.7512551634787386 28.6327538495249954
 18.3209150166646637 20.3414995914012344 28.6327538495249954
  9.8651210166646699 20.3414995914012344 28.6327538495249954
 73.2835760369829075 17.9004727736555189 28.6327538495249954
 -22.5487280208509766 47.1922087518845075 28.6327538495249954
 67.6463518510029047 17.9004727736555189 28.6327538495249954
 -2.8185702068309761 47.1922087518845075 28.6327538495249954
 39.4604000369828896 17.9004727736555189 28.6327538495249954
  2.8186539791490159 47.1922087518845075 28.6327538495249954
 31.0046060369829029 17.9004727736555189 28.6327538495249954
  2.8186542229628988 17.9004727736555189 28.6327538495249954
 33.8231756071890288 47.1922087518845075 28.6327538495249954
 50.7347636071890307 47.1922087518845075 28.6327538495249954
 -2.8185699630171004 17.9004727736555189 28.6327538495249954
 -18.3209155991092061 49.6332355696302230 28.6327538495249954
 -7.0464672271492059 49.6332355696302230 28.6327538495249954
 60.5998427783305331 15.4595191852497500 28.6327538495249954
  7.0464664008907913 49.6332355696302230 28.6327538495249954
 46.5068665868708067 49.6332355696302230 28.6327538495249954
