 H  O 
 1.0000000000000000
    84.5579400000000021    0.0000000000000000    0.0000000000000000
   -42.2789706095346958   73.2293399455724767    0.0000000000000000
     0.0000000000000000    0.0000000000000000   46.9039550000000034
 H   O  
 236 313
Cartesian
  4.2278968442297478 18.7141971991307194 28.1128704123049964
 11.2744059169021327 21.1551507875364884 28.1128704123049964
 33.8231333011282445 50.4468867657654769 28.1128704123049964
 19.7301999169021336 21.1551507875364884 28.1128704123049964
 57.7812304957075682 38.2419723650567462 28.1128704123049964
 28.1859939169021310 21.1551507875364884 28.1128704123049964
 54.9626606816875736 38.2419723650567462 28.1128704123049964
 36.6417879169021319 21.1551507875364884 28.1128704123049964
 39.4603577309221265 21.1551507875364884 28.1128704123049964
 59.1905155449421230 21.1551507875364884 28.1128704123049964
 36.6417876730882455 50.4468867657654769 28.1128704123049964
 46.5068666816875762 38.2419723650567462 28.1128704123049964
 -26.7767097074710669 62.6518011664742076 28.1128704123049964
  8.4557515449421317 21.1551507875364884 28.1128704123049964
 43.6882968676675674 38.2419723650567462 28.1128704123049964
 -9.8651213823854889 23.5961043759422537 28.1128704123049964
 -1.4093273823854895 23.5961043759422537 28.1128704123049964
 39.4603996848071645 60.2107743487284921 28.1128704123049964
  7.0464666176145112 23.5961043759422537 28.1128704123049964
 15.5022606176145086 23.5961043759422537 28.1128704123049964
 42.2789273011282489 50.4468867657654769 28.1128704123049964
 38.0510726816875717 38.2419723650567462 28.1128704123049964
 47.9161514871082517 50.4468867657654769 28.1128704123049964
 32.4138484957075690 38.2419723650567462 28.1128704123049964
 19.7301573128471581 60.2107743487284921 28.1128704123049964
 23.9580544957075787 38.2419723650567462 28.1128704123049964
 18.3209148676675753 38.2419723650567462 28.1128704123049964
 -35.2325037074710679 62.6518011664742076 28.1128704123049964
 52.1440909895745008 23.5961043759422537 28.1128704123049964
 -2.8186122690778692 21.1551507875364884 28.1128704123049964
 35.2324183503628063 33.3600651882452155 28.1128704123049964
 59.1905578645479835 16.2731703813850075 28.1128704123049964
 62.0091276785679781 16.2731703813850075 28.1128704123049964
 64.8277820505279863 16.2731703813850075 28.1128704123049964
 -16.9116308207786865 65.0927547548799765 28.1128704123049964
 70.4649216785679755 16.2731703813850075 28.1128704123049964
 73.2835760505279836 16.2731703813850075 28.1128704123049964
 -9.8651213417502497 18.7141971991307194 28.1128704123049964
 16.9115453011282568 50.4468867657654769 28.1128704123049964
 -4.2278971557702505 18.7141971991307194 28.1128704123049964
 -1.4093273417502492 18.7141971991307194 28.1128704123049964
 -18.3208732659582765 43.1239527712082307 28.1128704123049964
 -16.9115884605376010 55.3288671719169614 28.1128704123049964
 -5.6371820830978701 21.1551507875364884 28.1128704123049964
 40.8696422925289298 62.6518011664742076 28.1128704123049964
 35.2324181065489270 62.6518011664742076 28.1128704123049964
 46.5068667223228047 33.3600651882452155 28.1128704123049964
 26.7766244722697486 18.7141971991307194 28.1128704123049964
 26.7766241065489261 62.6518011664742076 28.1128704123049964
 -0.0000003386306579 40.6829991828024689 28.1128704123049964
 40.8696426582497523 18.7141971991307194 28.1128704123049964
 21.1394844785089369 62.6518011664742076 28.1128704123049964
 25.3673393011282471 50.4468867657654769 28.1128704123049964
 54.9626608442297453 18.7141971991307194 28.1128704123049964
 60.5998004722697488 18.7141971991307194 28.1128704123049964
 11.2743633534824053 55.3288671719169614 28.1128704123049964
 -11.2744487105906597 40.6829991828024689 28.1128704123049964
 -21.1395276379182775 43.1239527712082307 28.1128704123049964
 -4.2279396379182765 43.1239527712082307 28.1128704123049964
 12.6836906816875779 38.2419723650567462 28.1128704123049964
 60.5998849895745124 23.5961043759422537 28.1128704123049964
 18.3208726699686650 28.4780847820937346 28.1128704123049964
 -4.2279397598252162 57.7698207603227232 28.1128704123049964
 54.9626184839886562 28.4780847820937346 28.1128704123049964
 57.7812728559486644 28.4780847820937346 28.1128704123049964
 12.6836905597806329 52.8878403541712458 28.1128704123049964
 -23.9580975738452153 57.7698207603227232 28.1128704123049964
 -26.7766673878652135 57.7698207603227232 28.1128704123049964
 -16.9115882573589573 30.9190383704995000 28.1128704123049964
 -11.2743640713789581 30.9190383704995000 28.1128704123049964
 18.3208303503628116 33.3600651882452155 28.1128704123049964
 -2.8185700713789608 30.9190383704995000 28.1128704123049964
  2.8185695566610427 30.9190383704995000 28.1128704123049964
 -1.4092853878652121 57.7698207603227232 28.1128704123049964
 -29.5953217598252145 57.7698207603227232 28.1128704123049964
 -32.4138915738452127 57.7698207603227232 28.1128704123049964
 19.7301575566610410 30.9190383704995000 28.1128704123049964
  9.8650363503628089 33.3600651882452155 28.1128704123049964
 22.5487271675023955 55.3288671719169614 28.1128704123049964
 45.0975393534824036 55.3288671719169614 28.1128704123049964
 50.7347214230351895 35.8010187766509844 28.1128704123049964
 33.8231757426410411 30.9190383704995000 28.1128704123049964
 38.0510301182678390 72.4156887494372228 28.1128704123049964
 42.2789697426410385 30.9190383704995000 28.1128704123049964
 36.6417453534824062 55.3288671719169614 28.1128704123049964
 33.8231755394623974 55.3288671719169614 28.1128704123049964
 64.8277819286210502 30.9190383704995000 28.1128704123049964
  8.4557937426410454 30.9190383704995000 28.1128704123049964
 57.7812306176145043 23.5961043759422537 28.1128704123049964
 -9.8651215042924267 38.2419723650567462 28.1128704123049964
 15.5023026121347893 57.7698207603227232 28.1128704123049964
 63.4184548035945070 23.5961043759422537 28.1128704123049964
 66.2370246176145088 23.5961043759422537 28.1128704123049964
 69.0556789895745169 23.5961043759422537 28.1128704123049964
  2.8185693128471621 60.2107743487284921 28.1128704123049964
 -2.8186545886837178 26.0371311936879657 28.1128704123049964
  8.4557937832762846 26.0371311936879657 28.1128704123049964
 -0.0000005011728327 60.2107743487284921 28.1128704123049964
 16.9115877832762855 26.0371311936879657 28.1128704123049964
  9.8651208676675761 38.2419723650567462 28.1128704123049964
 22.5487274113162819 26.0371311936879657 28.1128704123049964
 26.7766243503628161 33.3600651882452155 28.1128704123049964
 31.0045214113162864 26.0371311936879657 28.1128704123049964
 -7.0464671323324293 38.2419723650567462 28.1128704123049964
 -14.0930186871528367 60.2107743487284921 28.1128704123049964
 39.4603154113162731 26.0371311936879657 28.1128704123049964
  7.0464664957075716 38.2419723650567462 28.1128704123049964
 45.0975395972962758 26.0371311936879657 28.1128704123049964
 50.7347637832762715 26.0371311936879657 28.1128704123049964
 53.5533335972962803 26.0371311936879657 28.1128704123049964
 -22.5488126871528358 60.2107743487284921 28.1128704123049964
  4.2278966816875769 38.2419723650567462 28.1128704123049964
 -28.1859523151928357 60.2107743487284921 28.1128704123049964
 16.9115875394624062 55.3288671719169614 28.1128704123049964
 -4.2279395160113378 28.4780847820937346 28.1128704123049964
 46.5068242401747796 57.7698207603227232 28.1128704123049964
 21.1394847223228126 33.3600651882452155 28.1128704123049964
 36.6417455972962784 26.0371311936879657 28.1128704123049964
 53.5533335566610376 30.9190383704995000 28.1128704123049964
 36.6417456785679860 16.2731703813850075 28.1128704123049964
 25.3673818645479834 16.2731703813850075 28.1128704123049964
 69.0555945941766822  4.0683292100162243 28.1128704123049964
 11.2743632315754621 69.9747351610314468 28.1128704123049964
 74.6928187801566850  4.0683292100162243 28.1128704123049964
 77.5113885941766796  4.0683292100162243 28.1128704123049964
  8.4557934175554603 69.9747351610314468 28.1128704123049964
 -11.2744488324975958 55.3288671719169614 28.1128704123049964
 -0.0000423331509293  6.5092827984219914 28.1128704123049964
  5.6371818528290705  6.5092827984219914 28.1128704123049964
  2.8185692315754580 69.9747351610314468 28.1128704123049964
 11.2744060388090670  6.5092827984219914 28.1128704123049964
 14.0929758528290687  6.5092827984219914 28.1128704123049964
 -2.8185701932858982 45.5649063596139996 28.1128704123049964
 11.2743634347540986 45.5649063596139996 28.1128704123049964
 -5.6372247684245327 69.9747351610314468 28.1128704123049964
 -14.0930187684245301 69.9747351610314468 28.1128704123049964
 -8.4557943792659014 45.5649063596139996 28.1128704123049964
 -14.0930185652459006 45.5649063596139996 28.1128704123049964
 73.2835338528290663  6.5092827984219914 28.1128704123049964
 -31.0046067684245337 69.9747351610314468 28.1128704123049964
 38.0510726004158641 48.0059331773597151 28.1128704123049964
 -4.2278970744985491  8.9502363868277595 28.1128704123049964
 -39.4604007684245346 69.9747351610314468 28.1128704123049964
  1.4093271114814494  8.9502363868277595 28.1128704123049964
 12.6836909255014501  8.9502363868277595 28.1128704123049964
 15.5022607395214518  8.9502363868277595 28.1128704123049964
 43.6882966238536952 67.5337083432857384 28.1128704123049964
 -5.6372245652458988 45.5649063596139996 28.1128704123049964
 31.0046060505279790 16.2731703813850075 28.1128704123049964
 60.5998005941766849  4.0683292100162243 28.1128704123049964
 49.3254367801566929  4.0683292100162243 28.1128704123049964
 35.2324603042478444 72.4156887494372228 28.1128704123049964
 16.9115879864549186  1.6273023922705114 28.1128704123049964
 25.3673819864549230  1.6273023922705114 28.1128704123049964
  9.8650362284558710 48.0059331773597151 28.1128704123049964
 29.5952361182678381 72.4156887494372228 28.1128704123049964
 21.1394421182678336 72.4156887494372228 28.1128704123049964
 -18.3209155855641299 48.0059331773597151 28.1128704123049964
 -21.1395278817321568 72.4156887494372228 28.1128704123049964
 47.9161941724349276  1.6273023922705114 28.1128704123049964
 -26.7766675097721567 72.4156887494372228 28.1128704123049964
 18.3208302284558755 48.0059331773597151 28.1128704123049964
 -32.4138916957521559 72.4156887494372228 28.1128704123049964
 54.9626609661366956  4.0683292100162243 28.1128704123049964
 56.3719878067141025 45.5649063596139996 28.1128704123049964
 81.7393701724349171  1.6273023922705114 28.1128704123049964
 36.6417452315754701 69.9747351610314468 28.1128704123049964
  7.0464667801566900  4.0683292100162243 28.1128704123049964
 42.2789696207341024 45.5649063596139996 28.1128704123049964
 39.4603998067140935 45.5649063596139996 28.1128704123049964
 31.0045210455954674 69.9747351610314468 28.1128704123049964
 23.9580547801566937  4.0683292100162243 28.1128704123049964
 33.8231756207340979 45.5649063596139996 28.1128704123049964
 32.4138487801566981  4.0683292100162243 28.1128704123049964
 28.1859514347540951 45.5649063596139996 28.1128704123049964
 40.8696427801566955  4.0683292100162243 28.1128704123049964
 22.5488118067141059 45.5649063596139996 28.1128704123049964
 53.5533334347540944 45.5649063596139996 28.1128704123049964
 40.8696422518936870 67.5337083432857384 28.1128704123049964
 21.1394849255014528  8.9502363868277595 28.1128704123049964
 29.5952789255014537  8.9502363868277595 28.1128704123049964
  7.0465089778555976 13.8322167929792403 28.1128704123049964
 39.4603573652013111 65.0927547548799765 28.1128704123049964
 12.6836486058956019 13.8322167929792403 28.1128704123049964
 -5.6371823269117440 50.4468867657654769 28.1128704123049964
 54.9626607223228163 33.3600651882452155 28.1128704123049964
 22.5487693652013093 65.0927547548799765 28.1128704123049964
  4.2278543620817208 43.1239527712082307 28.1128704123049964
 14.0929753652013119 65.0927547548799765 28.1128704123049964
 11.2744055511813173 65.0927547548799765 28.1128704123049964
 40.8696849778556057 13.8322167929792403 28.1128704123049964
 43.6882547918756003 13.8322167929792403 28.1128704123049964
 49.3254789778556031 13.8322167929792403 28.1128704123049964
  4.2278546058956001 13.8322167929792403 28.1128704123049964
  2.8186116730882564 50.4468867657654769 28.1128704123049964
  2.8186115511813119 65.0927547548799765 28.1128704123049964
 63.4184126058955968 13.8322167929792403 28.1128704123049964
 -5.6371824488186855 65.0927547548799765 28.1128704123049964
 -8.4558368207786891 65.0927547548799765 28.1128704123049964
 69.0556367918755996 13.8322167929792403 28.1128704123049964
 -11.2744066347986838 65.0927547548799765 28.1128704123049964
 74.6928609778556023 13.8322167929792403 28.1128704123049964
 -2.8185699494720202 16.2731703813850075 28.1128704123049964
 -0.0000001354520196 16.2731703813850075 28.1128704123049964
  2.8185696785679806 16.2731703813850075 28.1128704123049964
 16.9115878645479825 16.2731703813850075 28.1128704123049964
 49.3254365363428136 33.3600651882452155 28.1128704123049964
  5.6371813652013136 65.0927547548799765 28.1128704123049964
 26.7767091114814519  8.9502363868277595 28.1128704123049964
 -1.4092850221444004 13.8322167929792403 28.1128704123049964
 -2.8186548324975988 55.3288671719169614 28.1128704123049964
 38.0510724378736924 67.5337083432857384 28.1128704123049964
 -0.0000425769648080 35.8010187766509844 28.1128704123049964
 40.8696427395214528  8.9502363868277595 28.1128704123049964
 43.6882971114814538  8.9502363868277595 28.1128704123049964
 15.5022602518936878 67.5337083432857384 28.1128704123049964
 49.3254367395214430  8.9502363868277595 28.1128704123049964
 52.1440911114814512  8.9502363868277595 28.1128704123049964
 -8.4558365769648098 35.8010187766509844 28.1128704123049964
 57.7812307395214404  8.9502363868277595 28.1128704123049964
 12.6836483620817209 43.1239527712082307 28.1128704123049964
 66.2370247395214449  8.9502363868277595 28.1128704123049964
 43.6882545480617210 43.1239527712082307 28.1128704123049964
 62.0091275566610349 30.9190383704995000 28.1128704123049964
 -14.0929762050048097 35.8010187766509844 28.1128704123049964
 -14.0929763269117494 50.4468867657654769 28.1128704123049964
 47.9161095332232136 11.3912632045734714 28.1128704123049964
 45.0975397192032190 11.3912632045734714 28.1128704123049964
  2.8185693534824074 55.3288671719169614 28.1128704123049964
 74.6928187395214422  8.9502363868277595 28.1128704123049964
 33.8231759051832199 11.3912632045734714 28.1128704123049964
 36.6417457192032217 11.3912632045734714 28.1128704123049964
 -29.5952795621263043 67.5337083432857384 28.1128704123049964
 -19.7302005128917450 50.4468867657654769 28.1128704123049964
 -22.5487703269117468 50.4468867657654769 28.1128704123049964
 -28.1859945128917460 50.4468867657654769 28.1128704123049964
 39.4603574735631781 52.0741891580359919 28.6327538495249954
 36.6417876595431693 52.0741891580359919 28.6327538495249954
 31.0045634735631737 52.0741891580359919 28.6327538495249954
 45.0975816595431809 52.0741891580359919 28.6327538495249954
 33.8232178455231747 52.0741891580359919 28.6327538495249954
  1.4092849002374601  0.8136511961352557 28.6327538495249954
 25.3674238455231631 52.0741891580359919 28.6327538495249954
 14.0930177931690217 47.1922087518845075 28.6327538495249954
 19.7302419791490244 47.1922087518845075 28.6327538495249954
 36.6418299791490298 47.1922087518845075 28.6327538495249954
 42.2789696071890333 47.1922087518845075 28.6327538495249954
 45.0976239791490272 47.1922087518845075 28.6327538495249954
 50.7347636071890307 47.1922087518845075 28.6327538495249954
 53.5534179791490246 47.1922087518845075 28.6327538495249954
 56.3719877931690334 47.1922087518845075 28.6327538495249954
 -15.5022612271492086 49.6332355696302230 28.6327538495249954
 -9.8651215991092069 49.6332355696302230 28.6327538495249954
 28.1859936595431719 52.0741891580359919 28.6327538495249954
 -1.4093275991092098 49.6332355696302230 28.6327538495249954
 21.1394845868707826 49.6332355696302230 28.6327538495249954
 29.5952785868707942 49.6332355696302230 28.6327538495249954
 32.4138484008907994 49.6332355696302230 28.6327538495249954
 52.1440907728507952 49.6332355696302230 28.6327538495249954
 -16.9115461544768308 52.0741891580359919 28.6327538495249954
  0.0000418455231652 52.0741891580359919 28.6327538495249954
  8.4558358455231772 52.0741891580359919 28.6327538495249954
 16.9116298455231728 52.0741891580359919 28.6327538495249954
 19.7301996595431604 52.0741891580359919 28.6327538495249954
 22.5487694735631763 52.0741891580359919 28.6327538495249954
 12.6836905868707941 49.6332355696302230 28.6327538495249954
 -29.5952794537644479 54.5151427464417537 28.6327538495249954
 15.5023025985896936 59.3971231525932382 28.6327538495249954
 -21.1394854537644470 54.5151427464417537 28.6327538495249954
  8.4558357236162376 66.7200571471504844 28.6327538495249954
 -2.8186126483437688 66.7200571471504844 28.6327538495249954
 -8.4557522763837714 66.7200571471504844 28.6327538495249954
 -11.2744066483437688 66.7200571471504844 28.6327538495249954
 -14.0929764623637634 66.7200571471504844 28.6327538495249954
 -28.1859946483437653 66.7200571471504844 28.6327538495249954
 -33.8231342763837688 66.7200571471504844 28.6327538495249954
 -36.6417886483437698 66.7200571471504844 28.6327538495249954
 43.6882966509438617 64.2791035587447084 28.6327538495249954
 40.8696422789838678 64.2791035587447084 28.6327538495249954
 29.5952784649638616 64.2791035587447084 28.6327538495249954
 26.7767086509438528 64.2791035587447084 28.6327538495249954
 18.3209146509438554 64.2791035587447084 28.6327538495249954
  7.0464662789838490 64.2791035587447084 28.6327538495249954
 -12.6836915350361448 64.2791035587447084 28.6327538495249954
 -15.5022613490561429 64.2791035587447084 28.6327538495249954
 -21.1394855350361439 64.2791035587447084 28.6327538495249954
 11.2744055376362251 66.7200571471504844 28.6327538495249954
 28.1859935376362323 66.7200571471504844 28.6327538495249954
 36.6417875376362474 66.7200571471504844 28.6327538495249954
 -35.2324192037113804 69.1610107355562462 28.6327538495249954
 33.8231754040103922 71.6020375533019688 28.6327538495249954
 16.9115874040103833 71.6020375533019688 28.6327538495249954
 -25.3673825959896213 71.6020375533019688 28.6327538495249954
 -28.1859524100096195 71.6020375533019688 28.6327538495249954
 -36.6417464100096169 71.6020375533019688 28.6327538495249954
 38.0510724243286234 69.1610107355562462 28.6327538495249954
 35.2325026103086287 69.1610107355562462 28.6327538495249954
 32.4139327962886199 69.1610107355562462 28.6327538495249954
 45.0976238572420840 61.8380767409990000 28.6327538495249954
 23.9581387962886225 69.1610107355562462 28.6327538495249954
 15.5023447962886092 69.1610107355562462 28.6327538495249954
 12.6836904243286224 69.1610107355562462 28.6327538495249954
  7.0465507962886189 69.1610107355562462 28.6327538495249954
 -1.4092432037113782 69.1610107355562462 28.6327538495249954
 -9.8650372037113900 69.1610107355562462 28.6327538495249954
 -18.3208312037113821 69.1610107355562462 28.6327538495249954
 -23.9580553896913813 69.1610107355562462 28.6327538495249954
 -26.7766252037113830 69.1610107355562462 28.6327538495249954
 21.1394844243286215 69.1610107355562462 28.6327538495249954
 -26.7766250818044469 54.5151427464417537 28.6327538495249954
 36.6418298572420866 61.8380767409990000 28.6327538495249954
 22.5488116712620865 61.8380767409990000 28.6327538495249954
 -32.4138915873902960 59.3971231525932382 28.6327538495249954
 42.2789695259173328 56.9561695641874692 28.6327538495249954
 14.0930177118973283 56.9561695641874692 28.6327538495249954
 -0.0000004740826793 56.9561695641874692 28.6327538495249954
 -8.4557944740826727 56.9561695641874692 28.6327538495249954
 -28.1859522881026763 56.9561695641874692 28.6327538495249954
 49.3255209181955507 54.5151427464417537 28.6327538495249954
 46.5068665462355568 54.5151427464417537 28.6327538495249954
 40.8697269181955534 54.5151427464417537 28.6327538495249954
 38.0510725462355595 54.5151427464417537 28.6327538495249954
 29.5952785462355585 54.5151427464417537 28.6327538495249954
 26.7767087322155568 54.5151427464417537 28.6327538495249954
 15.5023449181955559 54.5151427464417537 28.6327538495249954
  7.0465509181955595 54.5151427464417537 28.6327538495249954
 -4.2278974537644496 54.5151427464417537 28.6327538495249954
 -7.0464672677844442 54.5151427464417537 28.6327538495249954
 -12.6836914537644478 54.5151427464417537 28.6327538495249954
 -26.7766674014102968 59.3971231525932382 28.6327538495249954
 -18.3208734014102959 59.3971231525932382 28.6327538495249954
 -9.8650794014102949 59.3971231525932382 28.6327538495249954
 -4.2278552154303037 59.3971231525932382 28.6327538495249954
 16.9115874852820909 61.8380767409990000 28.6327538495249954
 11.2744478572420874 61.8380767409990000 28.6327538495249954
  8.4557934852820722 61.8380767409990000 28.6327538495249954
  5.6372236712620847 61.8380767409990000 28.6327538495249954
 -0.0000005147179177 61.8380767409990000 28.6327538495249954
 -8.4557945147179190 61.8380767409990000 28.6327538495249954
 -11.2743643287379136 61.8380767409990000 28.6327538495249954
 -19.7301583287379145 61.8380767409990000 28.6327538495249954
 31.0046056712620839 61.8380767409990000 28.6327538495249954
 -22.5487281427579163 61.8380767409990000 28.6327538495249954
 38.0511147845697053 59.3971231525932382 28.6327538495249954
 32.4138905985897026 59.3971231525932382 28.6327538495249954
 29.5953207845697079 59.3971231525932382 28.6327538495249954
 23.9580965985897052 59.3971231525932382 28.6327538495249954
  5.6372237931690181 47.1922087518845075 28.6327538495249954
 12.6837327845697061 59.3971231525932382 28.6327538495249954
  9.8650784126096909 59.3971231525932382 28.6327538495249954
  4.2279387845697078 59.3971231525932382 28.6327538495249954
 -31.0045221427579136 61.8380767409990000 28.6327538495249954
 -0.0000003928109814 47.1922087518845075 28.6327538495249954
 40.8696425227977400 34.9873675805157234 28.6327538495249954
 -11.2743642068309775 47.1922087518845075 28.6327538495249954
 -5.6371397770370981 17.9004727736555189 28.6327538495249954
 66.2370669643105288 15.4595191852497500 28.6327538495249954
 57.7812729643105243 15.4595191852497500 28.6327538495249954
 21.1395271502905153 15.4595191852497500 28.6327538495249954
 73.2835760776181360 13.0185655968439828 28.6327538495249954
 67.6463518916381474 13.0185655968439828 28.6327538495249954
 64.8277820776181386 13.0185655968439828 28.6327538495249954
 62.0091277056581518 13.0185655968439828 28.6327538495249954
 56.3719880776181483 13.0185655968439828 28.6327538495249954
 -0.0000001489970986 17.9004727736555189 28.6327538495249954
 53.5533337056581473 13.0185655968439828 28.6327538495249954
 33.8231758916381438 13.0185655968439828 28.6327538495249954
 28.1859517056581375 13.0185655968439828 28.6327538495249954
 22.5488120776181340 13.0185655968439828 28.6327538495249954
 19.7301577056581365 13.0185655968439828 28.6327538495249954
 16.9115878916381419 13.0185655968439828 28.6327538495249954
  8.4557938916381428 13.0185655968439828 28.6327538495249954
 -5.6372242943418591 13.0185655968439828 28.6327538495249954
 63.4184549119563812 10.5775387790982709 28.6327538495249954
 60.5998850979363723 10.5775387790982709 28.6327538495249954
 39.4604000776181465 13.0185655968439828 28.6327538495249954
  8.4557938510029000 17.9004727736555189 28.6327538495249954
 11.2744482229629011 17.9004727736555189 28.6327538495249954
 14.0930180369829028 17.9004727736555189 28.6327538495249954
 33.8232180893370540 22.7824531798069998 28.6327538495249954
 31.0045637173770388 22.7824531798069998 28.6327538495249954
 28.1859939033570512 22.7824531798069998 28.6327538495249954
 25.3674240893370566 22.7824531798069998 28.6327538495249954
  2.8186119033570516 22.7824531798069998 28.6327538495249954
 -11.2744062826229499 22.7824531798069998 28.6327538495249954
 69.0556790166646692 20.3414995914012344 28.6327538495249954
 66.2370246447046753 20.3414995914012344 28.6327538495249954
 63.4184548306846807 20.3414995914012344 28.6327538495249954
 60.5998850166646719 20.3414995914012344 28.6327538495249954
 32.4138486447046574 20.3414995914012344 28.6327538495249954
 23.9580546447046672 20.3414995914012344 28.6327538495249954
 18.3209150166646637 20.3414995914012344 28.6327538495249954
 -9.8651213552953294 20.3414995914012344 28.6327538495249954
 70.4650062229628986 17.9004727736555189 28.6327538495249954
 67.6463518510029047 17.9004727736555189 28.6327538495249954
 50.7347638510029029 17.9004727736555189 28.6327538495249954
 45.0976242229628923 17.9004727736555189 28.6327538495249954
 39.4604000369828896 17.9004727736555189 28.6327538495249954
 28.1860362229629082 17.9004727736555189 28.6327538495249954
 22.5488120369828984 17.9004727736555189 28.6327538495249954
 43.6882970979363634 10.5775387790982709 28.6327538495249954
 36.6417879033570415 22.7824531798069998 28.6327538495249954
 18.3209150979363713 10.5775387790982709 28.6327538495249954
  9.8651210979363722 10.5775387790982709 28.6327538495249954
 64.8277821588898462  3.2546047845410229 28.6327538495249954
 45.0976243448698426  3.2546047845410229 28.6327538495249954
 36.6418303448698452  3.2546047845410229 28.6327538495249954
 28.1860363448698337  3.2546047845410229 28.6327538495249954
 19.7302423448698399  3.2546047845410229 28.6327538495249954
 14.0930181588898407  3.2546047845410229 28.6327538495249954
 11.2744483448698372  3.2546047845410229 28.6327538495249954
  2.8186543448698407  3.2546047845410229 28.6327538495249954
 74.6928610862174764  0.8136511961352557 28.6327538495249954
 73.2835761588898578  3.2546047845410229 28.6327538495249954
 71.8742912721974676  0.8136511961352557 28.6327538495249954
 57.7812730862174604  0.8136511961352557 28.6327538495249954
 52.1440489002374647  0.8136511961352557 28.6327538495249954
 46.5069092721974613  0.8136511961352557 28.6327538495249954
 43.6882549002374461  0.8136511961352557 28.6327538495249954
 38.0511152721974639  0.8136511961352557 28.6327538495249954
 35.2324609002374558  0.8136511961352557 28.6327538495249954
 32.4138910862174541  0.8136511961352557 28.6327538495249954
 29.5953212721974559  0.8136511961352557 28.6327538495249954
 12.6837332721974576  0.8136511961352557 28.6327538495249954
 66.2370670862174649  0.8136511961352557 28.6327538495249954
 78.9208003448698463  3.2546047845410229 28.6327538495249954
 -1.4093272333883895  5.6956316022867357 28.6327538495249954
  9.8651211385716078  5.6956316022867357 28.6327538495249954
  7.0465512839163686 10.5775387790982709 28.6327538495249954
  1.4093270979363695 10.5775387790982709 28.6327538495249954
 70.4649640252639955  8.1365851906925037 28.6327538495249954
 62.0091700252639910  8.1365851906925037 28.6327538495249954
 53.5533760252639937  8.1365851906925037 28.6327538495249954
 47.9161518392839980  8.1365851906925037 28.6327538495249954
 39.4603578392839793  8.1365851906925037 28.6327538495249954
 33.8232182112439972  8.1365851906925037 28.6327538495249954
 31.0045638392839891  8.1365851906925037 28.6327538495249954
 25.3674242112439856  8.1365851906925037 28.6327538495249954
 16.9116302112439918  8.1365851906925037 28.6327538495249954
 -2.8186121607160102  8.1365851906925037 28.6327538495249954
 80.3300429525916257  5.6956316022867357 28.6327538495249954
 77.5114731385716169  5.6956316022867357 28.6327538495249954
 63.4184549525916097  5.6956316022867357 28.6327538495249954
 54.9626609525916123  5.6956316022867357 28.6327538495249954
 46.5068669525916008  5.6956316022867357 28.6327538495249954
 26.7767091385716043  5.6956316022867357 28.6327538495249954
 23.9580547666116068  5.6956316022867357 28.6327538495249954
 18.3209151385716105  5.6956316022867357 28.6327538495249954
 15.5022607666116095  5.6956316022867357 28.6327538495249954
 12.6836909119563703 10.5775387790982709 28.6327538495249954
 -5.6371400208509774 47.1922087518845075 28.6327538495249954
 39.4603577173770574 22.7824531798069998 28.6327538495249954
 47.9161517173770548 22.7824531798069998 28.6327538495249954
 -7.0464671458775081 39.8692747573272612 28.6327538495249954
 -15.5022611458775117 39.8692747573272612 28.6327538495249954
 -21.1394853318575109 39.8692747573272612 28.6327538495249954
 53.5533757814501215 37.4283211689214923 28.6327538495249954
 42.2790119674301152 37.4283211689214923 28.6327538495249954
 33.8232179674301037 37.4283211689214923 28.6327538495249954
 28.1859937814501045 37.4283211689214923 28.6327538495249954
  8.4558359674301080 37.4283211689214923 28.6327538495249954
  2.8186117814501150 37.4283211689214923 28.6327538495249954
 -4.2278973318575099 39.8692747573272612 28.6327538495249954
 -5.6371822185498859 37.4283211689214923 28.6327538495249954
 60.5998848947577358 34.9873675805157234 28.6327538495249954
 57.7812305227977419 34.9873675805157234 28.6327538495249954
 54.9626607087777472 34.9873675805157234 28.6327538495249954
 46.5068667087777357 34.9873675805157234 28.6327538495249954
 43.6882968947577410 34.9873675805157234 28.6327538495249954
 35.2325028947577295 34.9873675805157234 28.6327538495249954
 32.4138485227977426 34.9873675805157234 28.6327538495249954
 29.5952787087777267 34.9873675805157234 28.6327538495249954
 26.7767088947577392 34.9873675805157234 28.6327538495249954
 -11.2744064045298860 37.4283211689214923 28.6327538495249954
 -22.5488125381557367 42.3103015750729767 28.6327538495249954
 -5.6372245381557384 42.3103015750729767 28.6327538495249954
 -2.8185701661957374 42.3103015750729767 28.6327538495249954
 -14.0929340208509810 47.1922087518845075 28.6327538495249954
 -16.9115883928109767 47.1922087518845075 28.6327538495249954
 -22.5487280208509766 47.1922087518845075 28.6327538495249954
 -25.3673823928109776 47.1922087518845075 28.6327538495249954
 -1.4092852795033535 44.7512551634787386 28.6327538495249954
 -9.8650792795033553 44.7512551634787386 28.6327538495249954
 -18.3208732795033562 44.7512551634787386 28.6327538495249954
 59.1905576478242708 42.3103015750729767 28.6327538495249954
 53.5533334618442680 42.3103015750729767 28.6327538495249954
 50.7347636478242734 42.3103015750729767 28.6327538495249954
 47.9161938338042646 42.3103015750729767 28.6327538495249954
 42.2789696478242618 42.3103015750729767 28.6327538495249954
 39.4603998338042672 42.3103015750729767 28.6327538495249954
 36.6417454618442662 42.3103015750729767 28.6327538495249954
 31.0046058338042556 42.3103015750729767 28.6327538495249954
 25.3673816478242529 42.3103015750729767 28.6327538495249954
 19.7301574618442501 42.3103015750729767 28.6327538495249954
 16.9115876478242626 42.3103015750729767 28.6327538495249954
 11.2743634618442599 42.3103015750729767 28.6327538495249954
  8.4557936478242581 42.3103015750729767 28.6327538495249954
 -0.0000003521757358 42.3103015750729767 28.6327538495249954
 23.9580545227977240 34.9873675805157234 28.6327538495249954
 42.2790120893370442 22.7824531798069998 28.6327538495249954
 21.1394847087777364 34.9873675805157234 28.6327538495249954
 15.5022605227977337 34.9873675805157234 28.6327538495249954
 64.8277819557112025 27.6644335859584807 28.6327538495249954
 62.0091275837512086 27.6644335859584807 28.6327538495249954
 50.7347637697312024 27.6644335859584807 28.6327538495249954
 14.0930179557111952 27.6644335859584807 28.6327538495249954
 11.2743635837511977 27.6644335859584807 28.6327538495249954
  8.4557937697312031 27.6644335859584807 28.6327538495249954
  5.6372239557112023 27.6644335859584807 28.6327538495249954
 -0.0000002302687971 27.6644335859584807 28.6327538495249954
 -2.8185700442888009 27.6644335859584807 28.6327538495249954
 67.6463517697312113 27.6644335859584807 28.6327538495249954
 -5.6372244162487979 27.6644335859584807 28.6327538495249954
 -14.0930184162487979 27.6644335859584807 28.6327538495249954
 54.9626607900494406 25.2234067682127652 28.6327538495249954
 40.8697271620094256 25.2234067682127652 28.6327538495249954
 35.2325029760294228 25.2234067682127652 28.6327538495249954
 26.7767089760294326 25.2234067682127652 28.6327538495249954
 18.3209149760294281 25.2234067682127652 28.6327538495249954
  9.8651209760294343 25.2234067682127652 28.6327538495249954
 -4.2278972099505676 25.2234067682127652 28.6327538495249954
 56.3719457173770593 22.7824531798069998 28.6327538495249954
 -8.4557942302688005 27.6644335859584807 28.6327538495249954
 -7.0465093435764183 30.1053871743642461 28.6327538495249954
  7.0465088424035836 30.1053871743642461 28.6327538495249954
 15.5023028424035783 30.1053871743642461 28.6327538495249954
 12.6836907087777320 34.9873675805157234 28.6327538495249954
  9.8651208947577302 34.9873675805157234 28.6327538495249954
  7.0464665227977319 34.9873675805157234 28.6327538495249954
  4.2278967087777302 34.9873675805157234 28.6327538495249954
 -4.2278972912222672 34.9873675805157234 28.6327538495249954
 -12.6836912912222672 34.9873675805157234 28.6327538495249954
 -18.3209154772022664 34.9873675805157234 28.6327538495249954
 59.1905577290959641 32.5463407627700150 28.6327538495249954
 45.0976241010559633 32.5463407627700150 28.6327538495249954
 31.0046059150759525 32.5463407627700150 28.6327538495249954
 22.5488119150759623 32.5463407627700150 28.6327538495249954
  5.6372239150759640 32.5463407627700150 28.6327538495249954
 -8.4557942709040379 32.5463407627700150 28.6327538495249954
 52.1440486564235925 30.1053871743642461 28.6327538495249954
 46.5069090283835891 30.1053871743642461 28.6327538495249954
 43.6882546564235881 30.1053871743642461 28.6327538495249954
 38.0511150283835775 30.1053871743642461 28.6327538495249954
 32.4138908424035748 30.1053871743642461 28.6327538495249954
 29.5953210283835837 30.1053871743642461 28.6327538495249954
 23.9580968424035810 30.1053871743642461 28.6327538495249954
 21.1395270283835863 30.1053871743642461 28.6327538495249954
 18.3209148947577418 34.9873675805157234 28.6327538495249954
 42.2789694040103896 71.6020375533019688 28.6327538495249954
