 H  O 
 1.0000000000000000
    84.5579400000000021    0.0000000000000000    0.0000000000000000
   -42.2789706095346958   73.2293399455724767    0.0000000000000000
     0.0000000000000000    0.0000000000000000   46.9039550000000034
 H   O  
 248 310
Cartesian
 -0.0000000135450799  1.6273023922705114 28.1128704123049964
  9.8650785480617262 43.1239527712082307 28.1128704123049964
 -1.4092852659582757 43.1239527712082307 28.1128704123049964
 -9.8650792659582809 43.1239527712082307 28.1128704123049964
 -21.1395276379182775 43.1239527712082307 28.1128704123049964
 36.6417454753893352 40.6829991828024689 28.1128704123049964
 16.9115876613693388 40.6829991828024689 28.1128704123049964
  2.8185694753893440 40.6829991828024689 28.1128704123049964
 -14.0930185246106596 40.6829991828024689 28.1128704123049964
 60.5998848676675763 38.2419723650567462 28.1128704123049964
 57.7812304957075682 38.2419723650567462 28.1128704123049964
 52.1440908676675789 38.2419723650567462 28.1128704123049964
 29.5952786816875744 38.2419723650567462 28.1128704123049964
 21.1394846816875770 38.2419723650567462 28.1128704123049964
 15.5022604957075725 38.2419723650567462 28.1128704123049964
 -18.3209155042924259 38.2419723650567462 28.1128704123049964
 47.9161516090151949 35.8010187766509844 28.1128704123049964
 45.0975817949951860 35.8010187766509844 28.1128704123049964
 12.6836483620817209 43.1239527712082307 28.1128704123049964
 26.7766665480617228 43.1239527712082307 28.1128704123049964
 29.5952363620817174 43.1239527712082307 28.1128704123049964
 35.2324605480617166 43.1239527712082307 28.1128704123049964
 -16.9116306988717469 50.4468867657654769 28.1128704123049964
 52.1440062284558650 48.0059331773597151 28.1128704123049964
 12.6836906004158720 48.0059331773597151 28.1128704123049964
  4.2278966004158747 48.0059331773597151 28.1128704123049964
 -4.2278973995841262 48.0059331773597151 28.1128704123049964
 -12.6836913995841307 48.0059331773597151 28.1128704123049964
 36.6417454347540925 45.5649063596139996 28.1128704123049964
 14.0930178067140996 45.5649063596139996 28.1128704123049964
 39.4603576090151904 35.8010187766509844 28.1128704123049964
 11.2743634347540986 45.5649063596139996 28.1128704123049964
  5.6372238067141032 45.5649063596139996 28.1128704123049964
  2.8185694347540982 45.5649063596139996 28.1128704123049964
 -16.9115883792659005 45.5649063596139996 28.1128704123049964
 -19.7301581932858987 45.5649063596139996 28.1128704123049964
 -22.5488125652458997 45.5649063596139996 28.1128704123049964
 49.3254787340417238 43.1239527712082307 28.1128704123049964
 43.6882545480617210 43.1239527712082307 28.1128704123049964
 40.8696847340417122 43.1239527712082307 28.1128704123049964
  8.4557936207341040 45.5649063596139996 28.1128704123049964
 -5.6371823269117440 50.4468867657654769 28.1128704123049964
 31.0045636090151895 35.8010187766509844 28.1128704123049964
 19.7301997949951904 35.8010187766509844 28.1128704123049964
 40.8696848559486625 28.4780847820937346 28.1128704123049964
 26.7766666699686624 28.4780847820937346 28.1128704123049964
 21.1394424839886597 28.4780847820937346 28.1128704123049964
 15.5023028559486651 28.4780847820937346 28.1128704123049964
  9.8650786699686659 28.4780847820937346 28.1128704123049964
  1.4092846699686612 28.4780847820937346 28.1128704123049964
 -4.2279395160113378 28.4780847820937346 28.1128704123049964
 -9.8650791440513395 28.4780847820937346 28.1128704123049964
 62.0091275972962777 26.0371311936879657 28.1128704123049964
 59.1905577832762830 26.0371311936879657 28.1128704123049964
 39.4603154113162731 26.0371311936879657 28.1128704123049964
 31.0045214113162864 26.0371311936879657 28.1128704123049964
 -11.2744485886837182 26.0371311936879657 28.1128704123049964
 -14.0930184027037182 26.0371311936879657 28.1128704123049964
 66.2370246176145088 23.5961043759422537 28.1128704123049964
 54.9626608035945097 23.5961043759422537 28.1128704123049964
 46.5068668035945052 23.5961043759422537 28.1128704123049964
 52.1440486699686616 28.4780847820937346 28.1128704123049964
 66.2370668559486688 28.4780847820937346 28.1128704123049964
 -0.0000002573589589 30.9190383704995000 28.1128704123049964
 14.0930179286210446 30.9190383704995000 28.1128704123049964
 16.9115454230351894 35.8010187766509844 28.1128704123049964
  5.6371816090151947 35.8010187766509844 28.1128704123049964
 -0.0000425769648080 35.8010187766509844 28.1128704123049964
 -8.4558365769648098 35.8010187766509844 28.1128704123049964
 -11.2744063909848098 35.8010187766509844 28.1128704123049964
 -14.0929762050048097 35.8010187766509844 28.1128704123049964
 52.1440063503628082 33.3600651882452155 28.1128704123049964
 12.6836907223228135 33.3600651882452155 28.1128704123049964
 25.3673394230351938 35.8010187766509844 28.1128704123049964
 -1.4093274636571897 33.3600651882452155 28.1128704123049964
 -15.5023456496371885 33.3600651882452155 28.1128704123049964
 62.0091275566610349 30.9190383704995000 28.1128704123049964
 53.5533335566610376 30.9190383704995000 28.1128704123049964
 50.7347637426410429 30.9190383704995000 28.1128704123049964
 47.9161939286210341 30.9190383704995000 28.1128704123049964
 42.2789697426410385 30.9190383704995000 28.1128704123049964
 39.4603999286210438 30.9190383704995000 28.1128704123049964
 33.8231757426410411 30.9190383704995000 28.1128704123049964
 -12.6836912776771893 33.3600651882452155 28.1128704123049964
 21.1394848035945166 23.5961043759422537 28.1128704123049964
 -2.8186125128917427 50.4468867657654769 28.1128704123049964
 11.2744056730882534 50.4468867657654769 28.1128704123049964
 18.3209146238536960 67.5337083432857384 28.1128704123049964
  1.4093266238536943 67.5337083432857384 28.1128704123049964
 -7.0464673761463033 67.5337083432857384 28.1128704123049964
 -15.5022613761463042 67.5337083432857384 28.1128704123049964
 -21.1394855621263069 67.5337083432857384 28.1128704123049964
 -26.7767097481063061 67.5337083432857384 28.1128704123049964
 -35.2325037481063035 67.5337083432857384 28.1128704123049964
 -38.0510735621263052 67.5337083432857384 28.1128704123049964
 42.2789271792213057 65.0927547548799765 28.1128704123049964
 25.3673391792213039 65.0927547548799765 28.1128704123049964
 14.0929753652013119 65.0927547548799765 28.1128704123049964
  8.4557511792213162 65.0927547548799765 28.1128704123049964
 -0.0000428207786890 65.0927547548799765 28.1128704123049964
 -11.2744066347986838 65.0927547548799765 28.1128704123049964
 -14.0929764488186855 65.0927547548799765 28.1128704123049964
 -25.3674248207786874 65.0927547548799765 28.1128704123049964
 -31.0045644488186873 65.0927547548799765 28.1128704123049964
 21.1394844378736906 67.5337083432857384 28.1128704123049964
 29.5952784378736951 67.5337083432857384 28.1128704123049964
 43.6882966238536952 67.5337083432857384 28.1128704123049964
 -39.4604007684245346 69.9747351610314468 28.1128704123049964
  4.2278541182678469 72.4156887494372228 28.1128704123049964
 -18.3208735097721558 72.4156887494372228 28.1128704123049964
 -23.9580976957521585 72.4156887494372228 28.1128704123049964
 -26.7766675097721567 72.4156887494372228 28.1128704123049964
 -29.5953218817321577 72.4156887494372228 28.1128704123049964
 -32.4138916957521559 72.4156887494372228 28.1128704123049964
 -35.2324615097721576 72.4156887494372228 28.1128704123049964
 42.2789694175554729 69.9747351610314468 28.1128704123049964
 -33.8232188207786848 65.0927547548799765 28.1128704123049964
 36.6417452315754701 69.9747351610314468 28.1128704123049964
 31.0045210455954674 69.9747351610314468 28.1128704123049964
 22.5487270455954629 69.9747351610314468 28.1128704123049964
 11.2743632315754621 69.9747351610314468 28.1128704123049964
 -2.8186549544045376 69.9747351610314468 28.1128704123049964
 -8.4557945824445344 69.9747351610314468 28.1128704123049964
 -25.3673825824445345 69.9747351610314468 28.1128704123049964
 -31.0046067684245337 69.9747351610314468 28.1128704123049964
 -33.8231765824445318 69.9747351610314468 28.1128704123049964
 33.8231754175554755 69.9747351610314468 28.1128704123049964
  8.4557513011282524 50.4468867657654769 28.1128704123049964
 35.2324181065489270 62.6518011664742076 28.1128704123049964
 -15.5023458934510643 62.6518011664742076 28.1128704123049964
 25.3673815394624036 55.3288671719169614 28.1128704123049964
 19.7301573534824009 55.3288671719169614 28.1128704123049964
 16.9115875394624062 55.3288671719169614 28.1128704123049964
  8.4557935394624035 55.3288671719169614 28.1128704123049964
  2.8185693534824074 55.3288671719169614 28.1128704123049964
 -0.0000004605375943 55.3288671719169614 28.1128704123049964
 -8.4557944605375948 55.3288671719169614 28.1128704123049964
 -28.1860368324975958 55.3288671719169614 28.1128704123049964
 49.3254363738006276 52.8878403541712458 28.1128704123049964
  4.2278965597806355 52.8878403541712458 28.1128704123049964
 -15.5022612542393716 52.8878403541712458 28.1128704123049964
 -29.5952794402193682 52.8878403541712458 28.1128704123049964
 36.6417876730882455 50.4468867657654769 28.1128704123049964
 33.8231333011282445 50.4468867657654769 28.1128704123049964
 31.0045634871082498 50.4468867657654769 28.1128704123049964
 25.3673393011282471 50.4468867657654769 28.1128704123049964
 14.0929754871082551 50.4468867657654769 28.1128704123049964
 39.4603151675024009 55.3288671719169614 28.1128704123049964
 47.9161091675023982 55.3288671719169614 28.1128704123049964
 -23.9580975738452153 57.7698207603227232 28.1128704123049964
 -21.1395277598252136 57.7698207603227232 28.1128704123049964
 -26.7767097074710669 62.6518011664742076 28.1128704123049964
 -29.5952795214910651 62.6518011664742076 28.1128704123049964
 -35.2325037074710679 62.6518011664742076 28.1128704123049964
 42.2789694988271592 60.2107743487284921 28.1128704123049964
 36.6417453128471564 60.2107743487284921 28.1128704123049964
 28.1859513128471555 60.2107743487284921 28.1128704123049964
 22.5488116848071662 60.2107743487284921 28.1128704123049964
 14.0930176848071671 60.2107743487284921 28.1128704123049964
 -4.2278975214910632 62.6518011664742076 28.1128704123049964
  5.6372236848071626 60.2107743487284921 28.1128704123049964
 -31.0046066871528367 60.2107743487284921 28.1128704123049964
 -33.8231765011728385 60.2107743487284921 28.1128704123049964
 43.6882544261547849 57.7698207603227232 28.1128704123049964
 32.4138906121347787 57.7698207603227232 28.1128704123049964
 12.6836482401747883 57.7698207603227232 28.1128704123049964
  4.2278542401747847 57.7698207603227232 28.1128704123049964
 -12.6837337598252144 57.7698207603227232 28.1128704123049964
 -15.5023035738452162 57.7698207603227232 28.1128704123049964
 -16.9115885011728366 60.2107743487284921 28.1128704123049964
 18.3209149895745149 23.5961043759422537 28.1128704123049964
 38.0510301182678390 72.4156887494372228 28.1128704123049964
  7.0464667801566900  4.0683292100162243 28.1128704123049964
 32.4138909778556012 13.8322167929792403 28.1128704123049964
 52.1440065941766875  4.0683292100162243 28.1128704123049964
 29.5952366058956002 13.8322167929792403 28.1128704123049964
 43.6882125941766972  4.0683292100162243 28.1128704123049964
  7.0464666582497495 18.7141971991307194 28.1128704123049964
 23.9580969778556039 13.8322167929792403 28.1128704123049964
 49.3254367395214430  8.9502363868277595 28.1128704123049964
 15.5022606582497549 18.7141971991307194 28.1128704123049964
 18.3208727918756047 13.8322167929792403 28.1128704123049964
 15.5022607801566892  4.0683292100162243 28.1128704123049964
 21.1394848442297523 18.7141971991307194 28.1128704123049964
  7.0465089778555976 13.8322167929792403 28.1128704123049964
 23.9580546582497540 18.7141971991307194 28.1128704123049964
  4.2278546058956001 13.8322167929792403 28.1128704123049964
  4.2278969255014500  8.9502363868277595 28.1128704123049964
 35.2324184722697566 18.7141971991307194 28.1128704123049964
 54.9626609255014458  8.9502363868277595 28.1128704123049964
 46.5068668442297550 18.7141971991307194 28.1128704123049964
 -1.4093272198433096  4.0683292100162243 28.1128704123049964
 49.3254366582497497 18.7141971991307194 28.1128704123049964
 57.7812306582497541 18.7141971991307194 28.1128704123049964
  2.8186120388090696  6.5092827984219914 28.1128704123049964
 40.8696849778556057 13.8322167929792403 28.1128704123049964
 43.6882971114814538  8.9502363868277595 28.1128704123049964
  8.4557516668490695  6.5092827984219914 28.1128704123049964
 -1.4093272604785494  8.9502363868277595 28.1128704123049964
 -2.8185699494720202 16.2731703813850075 28.1128704123049964
 -0.0000001354520196 16.2731703813850075 28.1128704123049964
  8.4557938645479798 16.2731703813850075 28.1128704123049964
 78.9207580388090690  6.5092827984219914 28.1128704123049964
 74.6928609778556023 13.8322167929792403 28.1128704123049964
 28.1859516785679780 16.2731703813850075 28.1128704123049964
 70.4649640388090717  6.5092827984219914 28.1128704123049964
 62.0091700388090601  6.5092827984219914 28.1128704123049964
 18.3209151114814510  8.9502363868277595 28.1128704123049964
 76.1021459051832210 11.3912632045734714 28.1128704123049964
 31.0045215332232189 11.3912632045734714 28.1128704123049964
 66.2370669778556049 13.8322167929792403 28.1128704123049964
 63.4184126058955968 13.8322167929792403 28.1128704123049964
 23.9580547395214474  8.9502363868277595 28.1128704123049964
 60.5998427918756022 13.8322167929792403 28.1128704123049964
 57.7812729778555934 13.8322167929792403 28.1128704123049964
 53.5533336785679737 16.2731703813850075 28.1128704123049964
 32.4138487395214483  8.9502363868277595 28.1128704123049964
 38.0510729255014510  8.9502363868277595 28.1128704123049964
 73.2835760505279836 16.2731703813850075 28.1128704123049964
 19.7302000388090732  6.5092827984219914 28.1128704123049964
 69.0556367918755996 13.8322167929792403 28.1128704123049964
 67.6463519864549170  1.6273023922705114 28.1128704123049964
  1.4093271114814494  8.9502363868277595 28.1128704123049964
 71.8742489255014476  8.9502363868277595 28.1128704123049964
 31.0045637309221327 21.1551507875364884 28.1128704123049964
 64.8277397309221328 21.1551507875364884 28.1128704123049964
 28.1859939169021310 21.1551507875364884 28.1128704123049964
 36.6417458004749221  1.6273023922705114 28.1128704123049964
 19.7301999169021336 21.1551507875364884 28.1128704123049964
 19.7301577192032234 11.3912632045734714 28.1128704123049964
 11.2743638004749194  1.6273023922705114 28.1128704123049964
 50.7347639864549222  1.6273023922705114 28.1128704123049964
 -12.6836911964054888 23.5961043759422537 28.1128704123049964
 50.7347639051832218 11.3912632045734714 28.1128704123049964
 66.2370246582497515 18.7141971991307194 28.1128704123049964
 28.1859518004749177  1.6273023922705114 28.1128704123049964
 33.8231335449421309 21.1551507875364884 28.1128704123049964
 -0.0000424550578693 21.1551507875364884 28.1128704123049964
 70.4649217192032182 11.3912632045734714 28.1128704123049964
 47.9161095332232136 11.3912632045734714 28.1128704123049964
 12.6836908035945140 23.5961043759422537 28.1128704123049964
 -5.6371820830978701 21.1551507875364884 28.1128704123049964
 39.4603155332232234 11.3912632045734714 28.1128704123049964
 59.1905579864549196  1.6273023922705114 28.1128704123049964
 -0.0000000948167802 11.3912632045734714 28.1128704123049964
 64.8277821724349081  1.6273023922705114 28.1128704123049964
 73.2834915332232129 11.3912632045734714 28.1128704123049964
 36.6417457192032217 11.3912632045734714 28.1128704123049964
 28.1859936595431719 52.0741891580359919 28.6327538495249954
 22.5487694735631763 52.0741891580359919 28.6327538495249954
 -2.8186125264368322 52.0741891580359919 28.6327538495249954
 42.2789695259173328 56.9561695641874692 28.6327538495249954
 19.7301996595431604 52.0741891580359919 28.6327538495249954
 15.5023452839163713 10.5775387790982709 28.6327538495249954
 45.0975393399373274 56.9561695641874692 28.6327538495249954
 -21.1394432154303011 59.3971231525932382 28.6327538495249954
 -11.2744065264368292 52.0741891580359919 28.6327538495249954
 47.9161937118973214 56.9561695641874692 28.6327538495249954
 14.0929758392839890  8.1365851906925037 28.6327538495249954
 -29.5952372154302985 59.3971231525932382 28.6327538495249954
  5.6371818392839907  8.1365851906925037 28.6327538495249954
 -9.8650794014102949 59.3971231525932382 28.6327538495249954
 -7.0465095873903012 59.3971231525932382 28.6327538495249954
 21.1394849119563659 10.5775387790982709 28.6327538495249954
 -4.2278552154303037 59.3971231525932382 28.6327538495249954
 -1.4092854014103018 59.3971231525932382 28.6327538495249954
 54.9626605868708040 49.6332355696302230 28.6327538495249954
 -5.6371823404568273 52.0741891580359919 28.6327538495249954
 28.1859940252639873  8.1365851906925037 28.6327538495249954
 50.7348058455231694 52.0741891580359919 28.6327538495249954
 19.7301573399373318 56.9561695641874692 28.6327538495249954
 12.6836905462355407 54.5151427464417537 28.6327538495249954
 15.5023449181955559 54.5151427464417537 28.6327538495249954
 64.8277398392839928  8.1365851906925037 28.6327538495249954
  7.0465509181955595 54.5151427464417537 28.6327538495249954
 59.1906002112439964  8.1365851906925037 28.6327538495249954
 73.2835338392839901  8.1365851906925037 28.6327538495249954
 29.5952785462355585 54.5151427464417537 28.6327538495249954
 35.2325027322155506 54.5151427464417537 28.6327538495249954
 -1.4092430818044526 54.5151427464417537 28.6327538495249954
  4.2278969119563712 10.5775387790982709 28.6327538495249954
 -9.8650370818044468 54.5151427464417537 28.6327538495249954
 50.7348062112439848  8.1365851906925037 28.6327538495249954
 43.6882967322155622 54.5151427464417537 28.6327538495249954
 42.2790118455231720 52.0741891580359919 28.6327538495249954
 -12.6836914537644478 54.5151427464417537 28.6327538495249954
 -18.3208310818044460 54.5151427464417537 28.6327538495249954
 52.1440907322155596 54.5151427464417537 28.6327538495249954
 -21.1394854537644470 54.5151427464417537 28.6327538495249954
 -28.1859522881026763 56.9561695641874692 28.6327538495249954
 -25.3673824740826745 56.9561695641874692 28.6327538495249954
  7.0465512839163686 10.5775387790982709 28.6327538495249954
 47.9161518392839980  8.1365851906925037 28.6327538495249954
 53.5533756595431782 52.0741891580359919 28.6327538495249954
 -16.9115884740826736 56.9561695641874692 28.6327538495249954
  9.8651210979363722 10.5775387790982709 28.6327538495249954
 39.4603578392839793  8.1365851906925037 28.6327538495249954
 45.0975816595431809 52.0741891580359919 28.6327538495249954
 36.6417880252639918  8.1365851906925037 28.6327538495249954
 -15.5022612677844460 54.5151427464417537 28.6327538495249954
 16.9116300893370450 22.7824531798069998 28.6327538495249954
  2.8186538572420905 61.8380767409990000 28.6327538495249954
 18.3208724126097096 59.3971231525932382 28.6327538495249954
 49.3254790862174488  0.8136511961352557 28.6327538495249954
 26.7767086103086172 69.1610107355562462 28.6327538495249954
 18.3209146103086198 69.1610107355562462 28.6327538495249954
 15.5023447962886092 69.1610107355562462 28.6327538495249954
 54.9627032721974516  0.8136511961352557 28.6327538495249954
  9.8651206103086064 69.1610107355562462 28.6327538495249954
  7.0465507962886189 69.1610107355562462 28.6327538495249954
 -1.4092432037113782 69.1610107355562462 28.6327538495249954
 -12.6836915756713875 69.1610107355562462 28.6327538495249954
 -21.1394855756713831 69.1610107355562462 28.6327538495249954
 -23.9580553896913813 69.1610107355562462 28.6327538495249954
 -29.5952795756713840 69.1610107355562462 28.6327538495249954
 71.8742912721974676  0.8136511961352557 28.6327538495249954
 80.3300852721974650  0.8136511961352557 28.6327538495249954
 -38.0510735756713814 69.1610107355562462 28.6327538495249954
  2.8186543448698407  3.2546047845410229 28.6327538495249954
 31.0045633516562411 66.7200571471504844 28.6327538495249954
 46.5069092721974613  0.8136511961352557 28.6327538495249954
 40.8696850862174585  0.8136511961352557 28.6327538495249954
 40.8697267962886173 69.1610107355562462 28.6327538495249954
 -36.6417464100096169 71.6020375533019688 28.6327538495249954
 28.1859512180303895 71.6020375533019688 28.6327538495249954
 25.3673814040103807 71.6020375533019688 28.6327538495249954
 22.5488115899903860 71.6020375533019688 28.6327538495249954
 19.7301572180303850 71.6020375533019688 28.6327538495249954
 16.9115874040103833 71.6020375533019688 28.6327538495249954
 14.0930175899903762 71.6020375533019688 28.6327538495249954
 11.2743632180303894 71.6020375533019688 28.6327538495249954
  8.4557934040103735 71.6020375533019688 28.6327538495249954
  5.6372241588898389  3.2546047845410229 28.6327538495249954
  4.2279392721974602  0.8136511961352557 28.6327538495249954
 -8.4557945959896212 71.6020375533019688 28.6327538495249954
 -11.2743644100096230 71.6020375533019688 28.6327538495249954
 -14.0930187819696204 71.6020375533019688 28.6327538495249954
  7.0465090862174584  0.8136511961352557 28.6327538495249954
 -22.5488127819696196 71.6020375533019688 28.6327538495249954
 15.5023030862174611  0.8136511961352557 28.6327538495249954
 21.1395272721974621  0.8136511961352557 28.6327538495249954
 32.4138910862174541  0.8136511961352557 28.6327538495249954
 -0.0000005959896168 71.6020375533019688 28.6327538495249954
  9.8650784126096909 59.3971231525932382 28.6327538495249954
 28.1859935376362323 66.7200571471504844 28.6327538495249954
 16.9116297236162261 66.7200571471504844 28.6327538495249954
 49.3254367666116167  5.6956316022867357 28.6327538495249954
 45.0976238572420840 61.8380767409990000 28.6327538495249954
 57.7812307666116141  5.6956316022867357 28.6327538495249954
 31.0046056712620839 61.8380767409990000 28.6327538495249954
 19.7302418572420777 61.8380767409990000 28.6327538495249954
 11.2744478572420874 61.8380767409990000 28.6327538495249954
 60.5998851385716151  5.6956316022867357 28.6327538495249954
 -8.4557945147179190 61.8380767409990000 28.6327538495249954
 -14.0929341427579153 61.8380767409990000 28.6327538495249954
 -22.5487281427579163 61.8380767409990000 28.6327538495249954
 63.4184549525916097  5.6956316022867357 28.6327538495249954
 66.2370247666116256  5.6956316022867357 28.6327538495249954
 74.6928187666116230  5.6956316022867357 28.6327538495249954
 40.8696845985897141 59.3971231525932382 28.6327538495249954
 38.0511147845697053 59.3971231525932382 28.6327538495249954
 -2.8186121607160102  8.1365851906925037 28.6327538495249954
 23.9580965985897052 59.3971231525932382 28.6327538495249954
 -32.4138493490561430 64.2791035587447084 28.6327538495249954
 46.5068669525916008  5.6956316022867357 28.6327538495249954
 40.8696427666115980  5.6956316022867357 28.6327538495249954
 -18.3209157210161457 64.2791035587447084 28.6327538495249954
 -2.8186126483437688 66.7200571471504844 28.6327538495249954
 -5.6371824623637705 66.7200571471504844 28.6327538495249954
 19.7302423448698399  3.2546047845410229 28.6327538495249954
 22.5488121588898416  3.2546047845410229 28.6327538495249954
 -16.9115462763837670 66.7200571471504844 28.6327538495249954
 25.3673819729098362  3.2546047845410229 28.6327538495249954
 47.9161941588898301  3.2546047845410229 28.6327538495249954
  1.4093271385716108  5.6956316022867357 28.6327538495249954
 11.2744483448698372  3.2546047845410229 28.6327538495249954
 38.0510724649638732 64.2791035587447084 28.6327538495249954
 29.5952784649638616 64.2791035587447084 28.6327538495249954
 21.1394844649638500 64.2791035587447084 28.6327538495249954
 18.3209146509438554 64.2791035587447084 28.6327538495249954
 15.5022602789838597 64.2791035587447084 28.6327538495249954
  4.2278964649638544 64.2791035587447084 28.6327538495249954
 23.9580547666116068  5.6956316022867357 28.6327538495249954
 29.5952789525916060  5.6956316022867357 28.6327538495249954
 38.0510729525916105  5.6956316022867357 28.6327538495249954
 35.2325026509438644 64.2791035587447084 28.6327538495249954
 43.6882967728507978 49.6332355696302230 28.6327538495249954
 39.4603997931690245 47.1922087518845075 28.6327538495249954
 35.2325030979363731 10.5775387790982709 28.6327538495249954
 19.7302421010559677 32.5463407627700150 28.6327538495249954
 16.9115877290959595 32.5463407627700150 28.6327538495249954
  8.4557937290959586 32.5463407627700150 28.6327538495249954
  2.8186541010559618 32.5463407627700150 28.6327538495249954
 -2.8185700849240374 32.5463407627700150 28.6327538495249954
 -5.6371398989440404 32.5463407627700150 28.6327538495249954
 -11.2743640849240396 32.5463407627700150 28.6327538495249954
 19.7302422229628966 17.9004727736555189 28.6327538495249954
 66.2370668424035927 30.1053871743642461 28.6327538495249954
 57.7812728424035953 30.1053871743642461 28.6327538495249954
 25.3673818510029001 17.9004727736555189 28.6327538495249954
 28.1860362229629082 17.9004727736555189 28.6327538495249954
 33.8231758510028868 17.9004727736555189 28.6327538495249954
 39.4604000369828896 17.9004727736555189 28.6327538495249954
 38.0511150283835775 30.1053871743642461 28.6327538495249954
 29.5953210283835837 30.1053871743642461 28.6327538495249954
 -15.5023033435764184 30.1053871743642461 28.6327538495249954
 22.5488119150759623 32.5463407627700150 28.6327538495249954
 62.0092122229629013 17.9004727736555189 28.6327538495249954
 28.1860361010559650 32.5463407627700150 28.6327538495249954
 36.6418301010559517 32.5463407627700150 28.6327538495249954
 43.6882547783305313 15.4595191852497500 28.6327538495249954
 46.5069091502905181 15.4595191852497500 28.6327538495249954
 21.1394847087777364 34.9873675805157234 28.6327538495249954
 49.3254789643105269 15.4595191852497500 28.6327538495249954
 15.5022605227977337 34.9873675805157234 28.6327538495249954
 54.9627031502905297 15.4595191852497500 28.6327538495249954
  1.4093268947577322 34.9873675805157234 28.6327538495249954
 63.4184971502905270 15.4595191852497500 28.6327538495249954
 69.0556367783305234 15.4595191852497500 28.6327538495249954
 -0.0000001489970986 17.9004727736555189 28.6327538495249954
 -15.5022611052422672 34.9873675805157234 28.6327538495249954
 59.1905577290959641 32.5463407627700150 28.6327538495249954
  2.8186542229628988 17.9004727736555189 28.6327538495249954
 50.7347637290959668 32.5463407627700150 28.6327538495249954
 47.9161939150759579 32.5463407627700150 28.6327538495249954
 42.2789697290959623 32.5463407627700150 28.6327538495249954
 39.4603999150759606 32.5463407627700150 28.6327538495249954
 33.8231757290959649 32.5463407627700150 28.6327538495249954
 64.8277819557112025 27.6644335859584807 28.6327538495249954
 59.1905577697312140 27.6644335859584807 28.6327538495249954
 56.3719879557112051 27.6644335859584807 28.6327538495249954
  1.4093269760294336 25.2234067682127652 28.6327538495249954
 -1.4092428379905699 25.2234067682127652 28.6327538495249954
 -7.0464670239705693 25.2234067682127652 28.6327538495249954
 -9.8650368379905675 25.2234067682127652 28.6327538495249954
 40.8696426447046761 20.3414995914012344 28.6327538495249954
 46.5068668306846718 20.3414995914012344 28.6327538495249954
 67.6463940893370506 22.7824531798069998 28.6327538495249954
 52.1440910166646745 20.3414995914012344 28.6327538495249954
 59.1906000893370532 22.7824531798069998 28.6327538495249954
 56.3719457173770593 22.7824531798069998 28.6327538495249954
 50.7348060893370558 22.7824531798069998 28.6327538495249954
 42.2790120893370442 22.7824531798069998 28.6327538495249954
 39.4603577173770574 22.7824531798069998 28.6327538495249954
 33.8232180893370540 22.7824531798069998 28.6327538495249954
 28.1859939033570512 22.7824531798069998 28.6327538495249954
 22.5487697173770485 22.7824531798069998 28.6327538495249954
  8.4558360893370512 22.7824531798069998 28.6327538495249954
  7.0465511620094325 25.2234067682127652 28.6327538495249954
 15.5023451620094264 25.2234067682127652 28.6327538495249954
 21.1394847900494298 25.2234067682127652 28.6327538495249954
 23.9581391620094379 25.2234067682127652 28.6327538495249954
 47.9161939557112078 27.6644335859584807 28.6327538495249954
 45.0975395837512067 27.6644335859584807 28.6327538495249954
 42.2789697697312050 27.6644335859584807 28.6327538495249954
 70.4650062229628986 17.9004727736555189 28.6327538495249954
 -9.8651213552953294 20.3414995914012344 28.6327538495249954
 16.9115877697311987 27.6644335859584807 28.6327538495249954
 -1.4093273552953294 20.3414995914012344 28.6327538495249954
 14.0930179557111952 27.6644335859584807 28.6327538495249954
 35.2325028947577295 34.9873675805157234 28.6327538495249954
  5.6372239557112023 27.6644335859584807 28.6327538495249954
  7.0464666447046698 20.3414995914012344 28.6327538495249954
  9.8651210166646699 20.3414995914012344 28.6327538495249954
 -14.0930184162487979 27.6644335859584807 28.6327538495249954
 69.0556789760294407 25.2234067682127652 28.6327538495249954
 63.4184547900494380 25.2234067682127652 28.6327538495249954
 57.7813151620094345 25.2234067682127652 28.6327538495249954
 35.2325029760294228 25.2234067682127652 28.6327538495249954
 26.7767089760294326 25.2234067682127652 28.6327538495249954
  4.2278968306846716 20.3414995914012344 28.6327538495249954
 40.8696849643105153 15.4595191852497500 28.6327538495249954
 38.0511151502905278 15.4595191852497500 28.6327538495249954
 35.2324607783305126 15.4595191852497500 28.6327538495249954
 16.9115876071890092 47.1922087518845075 28.6327538495249954
 11.2744479791490271 47.1922087518845075 28.6327538495249954
 -0.0000003928109814 47.1922087518845075 28.6327538495249954
 -2.8185702068309761 47.1922087518845075 28.6327538495249954
 -8.4557943928109793 47.1922087518845075 28.6327538495249954
 77.5114730979363742 10.5775387790982709 28.6327538495249954
 -22.5487280208509766 47.1922087518845075 28.6327538495249954
 46.5069089064766459 44.7512551634787386 28.6327538495249954
 38.0511149064766485 44.7512551634787386 28.6327538495249954
 -5.6372242943418591 13.0185655968439828 28.6327538495249954
 -0.0000001083618602 13.0185655968439828 28.6327538495249954
  8.4557938916381428 13.0185655968439828 28.6327538495249954
 -7.0465094654833562 44.7512551634787386 28.6327538495249954
 -15.5023034654833562 44.7512551634787386 28.6327538495249954
 28.1859517056581375 13.0185655968439828 28.6327538495249954
 59.1905576478242708 42.3103015750729767 28.6327538495249954
 53.5533334618442680 42.3103015750729767 28.6327538495249954
 19.7302419791490244 47.1922087518845075 28.6327538495249954
 22.5488117931690120 47.1922087518845075 28.6327538495249954
 28.1860359791490147 47.1922087518845075 28.6327538495249954
 31.0046057931690235 47.1922087518845075 28.6327538495249954
 21.1394845868707826 49.6332355696302230 28.6327538495249954
 52.1440910979363750 10.5775387790982709 28.6327538495249954
  7.0464664008907913 49.6332355696302230 28.6327538495249954
  1.4093267728507877 49.6332355696302230 28.6327538495249954
 54.9626609119563767 10.5775387790982709 28.6327538495249954
 63.4184549119563812 10.5775387790982709 28.6327538495249954
 -15.5022612271492086 49.6332355696302230 28.6327538495249954
 66.2371092839163680 10.5775387790982709 28.6327538495249954
 33.8231758916381438 13.0185655968439828 28.6327538495249954
 -21.1394854131292078 49.6332355696302230 28.6327538495249954
 -26.7767095991092070 49.6332355696302230 28.6327538495249954
 56.3719877931690334 47.1922087518845075 28.6327538495249954
 69.0556790979363768 10.5775387790982709 28.6327538495249954
 47.9161937931690360 47.1922087518845075 28.6327538495249954
 42.2789696071890333 47.1922087518845075 28.6327538495249954
 14.0929757173770476 22.7824531798069998 28.6327538495249954
 36.6418299791490298 47.1922087518845075 28.6327538495249954
 33.8231756071890288 47.1922087518845075 28.6327538495249954
 -23.9580552271492060 49.6332355696302230 28.6327538495249954
 40.8696424008908039 49.6332355696302230 28.6327538495249954
 39.4603998338042672 42.3103015750729767 28.6327538495249954
 33.8231756478242644 42.3103015750729767 28.6327538495249954
 -7.0464671458775081 39.8692747573272612 28.6327538495249954
 62.0091697814501188 37.4283211689214923 28.6327538495249954
 12.6837331502905215 15.4595191852497500 28.6327538495249954
 33.8232179674301037 37.4283211689214923 28.6327538495249954
 21.1395271502905153 15.4595191852497500 28.6327538495249954
 28.1859937814501045 37.4283211689214923 28.6327538495249954
 23.9580969643105171 15.4595191852497500 28.6327538495249954
 14.0929755954701115 37.4283211689214923 28.6327538495249954
 11.2744057814501097 37.4283211689214923 28.6327538495249954
 -2.8186124045298877 37.4283211689214923 28.6327538495249954
 -11.2744064045298860 37.4283211689214923 28.6327538495249954
 32.4138909643105251 15.4595191852497500 28.6327538495249954
 63.4184547087777446 34.9873675805157234 28.6327538495249954
 60.5998848947577358 34.9873675805157234 28.6327538495249954
 57.7812305227977419 34.9873675805157234 28.6327538495249954
 54.9626607087777472 34.9873675805157234 28.6327538495249954
 31.0046055899903834 71.6020375533019688 28.6327538495249954
 -4.2278973318575099 39.8692747573272612 28.6327538495249954
 -1.4092429598975091 39.8692747573272612 28.6327538495249954
 -7.0465092216694787 15.4595191852497500 28.6327538495249954
  7.0465510401024849 39.8692747573272612 28.6327538495249954
 45.0975397056581500 13.0185655968439828 28.6327538495249954
 56.3719880776181483 13.0185655968439828 28.6327538495249954
 25.3673816478242529 42.3103015750729767 28.6327538495249954
 22.5488118338042653 42.3103015750729767 28.6327538495249954
 16.9115876478242626 42.3103015750729767 28.6327538495249954
  8.4557936478242581 42.3103015750729767 28.6327538495249954
 -0.0000003521757358 42.3103015750729767 28.6327538495249954
 -19.7301581661957393 42.3103015750729767 28.6327538495249954
 42.2789698916381340 13.0185655968439828 28.6327538495249954
 46.5068666681425000 39.8692747573272612 28.6327538495249954
 38.0510726681424956 39.8692747573272612 28.6327538495249954
 73.2835760776181360 13.0185655968439828 28.6327538495249954
 29.5952786681424982 39.8692747573272612 28.6327538495249954
 26.7767088541224823 39.8692747573272612 28.6327538495249954
 23.9581390401024947 39.8692747573272612 28.6327538495249954
 21.1394846681424795 39.8692747573272612 28.6327538495249954
 12.6836906681424875 39.8692747573272612 28.6327538495249954
  9.8651208541224857 39.8692747573272612 28.6327538495249954
 40.8697270401024966 39.8692747573272612 28.6327538495249954
 49.3254365227977445 34.9873675805157234 28.6327538495249954
