 H  O 
 1.0000000000000000
    84.5579400000000021    0.0000000000000000    0.0000000000000000
   -42.2789706095346958   73.2293399455724767    0.0000000000000000
     0.0000000000000000    0.0000000000000000   46.9039550000000034
 H   O  
 204 376
Cartesian
  7.0465086121347857 57.7698207603227232 28.1128704123049964
 -0.0000002167237204 26.0371311936879657 28.1128704123049964
 -26.7766673878652135 57.7698207603227232 28.1128704123049964
 -32.4138915738452127 57.7698207603227232 28.1128704123049964
 50.7347635394624064 55.3288671719169614 28.1128704123049964
 25.3673817832762829 26.0371311936879657 28.1128704123049964
 45.0975393534824036 55.3288671719169614 28.1128704123049964
 31.0045214113162864 26.0371311936879657 28.1128704123049964
 33.8231757832762838 26.0371311936879657 28.1128704123049964
 33.8231755394623974 55.3288671719169614 28.1128704123049964
 22.5487271675023955 55.3288671719169614 28.1128704123049964
 -15.5023033300313369 28.4780847820937346 28.1128704123049964
 -12.6837335160113369 28.4780847820937346 28.1128704123049964
 -4.2279395160113378 28.4780847820937346 28.1128704123049964
 -2.8186545886837178 26.0371311936879657 28.1128704123049964
  1.4092846699686612 28.4780847820937346 28.1128704123049964
  5.6371391675024016 55.3288671719169614 28.1128704123049964
 21.1394424839886597 28.4780847820937346 28.1128704123049964
 -0.0000004605375943 55.3288671719169614 28.1128704123049964
 -16.9115884605376010 55.3288671719169614 28.1128704123049964
 46.5068244839886518 28.4780847820937346 28.1128704123049964
 49.3254788559486528 28.4780847820937346 28.1128704123049964
 -28.1860368324975958 55.3288671719169614 28.1128704123049964
 66.2370668559486688 28.4780847820937346 28.1128704123049964
 -16.9115882573589573 30.9190383704995000 28.1128704123049964
 -14.0930184433389574 30.9190383704995000 28.1128704123049964
 -11.2743640713789581 30.9190383704995000 28.1128704123049964
 -5.6372244433389582 30.9190383704995000 28.1128704123049964
 -2.8185700713789608 30.9190383704995000 28.1128704123049964
  7.0465088559486642 28.4780847820937346 28.1128704123049964
 -5.6372244027037182 26.0371311936879657 28.1128704123049964
 -8.4557942167237172 26.0371311936879657 28.1128704123049964
 69.0556789895745169 23.5961043759422537 28.1128704123049964
 -4.2278971557702505 18.7141971991307194 28.1128704123049964
  7.0464666582497495 18.7141971991307194 28.1128704123049964
 22.5488116848071662 60.2107743487284921 28.1128704123049964
 11.2743633128471661 60.2107743487284921 28.1128704123049964
 35.2324184722697566 18.7141971991307194 28.1128704123049964
 40.8696426582497523 18.7141971991307194 28.1128704123049964
 46.5068668442297550 18.7141971991307194 28.1128704123049964
  2.8185693128471621 60.2107743487284921 28.1128704123049964
 -11.2744062690778684 21.1551507875364884 28.1128704123049964
 -5.6371820830978701 21.1551507875364884 28.1128704123049964
 -2.8186122690778692 21.1551507875364884 28.1128704123049964
  2.8186119169021282 21.1551507875364884 28.1128704123049964
 -14.0930186871528367 60.2107743487284921 28.1128704123049964
 46.5068242401747796 57.7698207603227232 28.1128704123049964
 43.6882544261547849 57.7698207603227232 28.1128704123049964
 36.6417879169021319 21.1551507875364884 28.1128704123049964
 45.0975819169021293 21.1551507875364884 28.1128704123049964
 29.5952362401747777 57.7698207603227232 28.1128704123049964
 53.5533759169021195 21.1551507875364884 28.1128704123049964
 56.3719457309221283 21.1551507875364884 28.1128704123049964
 64.8277397309221328 21.1551507875364884 28.1128704123049964
 -7.0464670104254905 23.5961043759422537 28.1128704123049964
 -1.4093273823854895 23.5961043759422537 28.1128704123049964
 12.6836482401747883 57.7698207603227232 28.1128704123049964
  9.8650784261547866 57.7698207603227232 28.1128704123049964
  4.2278542401747847 57.7698207603227232 28.1128704123049964
 -1.4092853878652121 57.7698207603227232 28.1128704123049964
 32.4138486176145122 23.5961043759422537 28.1128704123049964
 40.8696426176145025 23.5961043759422537 28.1128704123049964
 -0.0000002573589589 30.9190383704995000 28.1128704123049964
 -7.0465515277302488 18.7141971991307194 28.1128704123049964
  2.8185695566610427 30.9190383704995000 28.1128704123049964
  8.4557937426410454 30.9190383704995000 28.1128704123049964
 45.0975817949951860 35.8010187766509844 28.1128704123049964
 47.9161516090151949 35.8010187766509844 28.1128704123049964
 50.7347214230351895 35.8010187766509844 28.1128704123049964
 62.0091697949951950 35.8010187766509844 28.1128704123049964
 26.7766242284558658 48.0059331773597151 28.1128704123049964
 18.3208302284558755 48.0059331773597151 28.1128704123049964
 15.5022604144358738 48.0059331773597151 28.1128704123049964
 29.5952786816875744 38.2419723650567462 28.1128704123049964
 32.4138484957075690 38.2419723650567462 28.1128704123049964
 -1.4093275855641247 48.0059331773597151 28.1128704123049964
 -21.1394853995841281 48.0059331773597151 28.1128704123049964
 -23.9581397715441291 48.0059331773597151 28.1128704123049964
 -22.5488125246106605 40.6829991828024689 28.1128704123049964
 42.2789274230351850 35.8010187766509844 28.1128704123049964
 -5.6372245246106605 40.6829991828024689 28.1128704123049964
 14.0929332894093395 40.6829991828024689 28.1128704123049964
 19.7301574753893405 40.6829991828024689 28.1128704123049964
 22.5487272894093422 40.6829991828024689 28.1128704123049964
 31.0045212894093325 40.6829991828024689 28.1128704123049964
  5.6372238067141032 45.5649063596139996 28.1128704123049964
 39.4603152894093299 40.6829991828024689 28.1128704123049964
 47.9161092894093343 40.6829991828024689 28.1128704123049964
 -11.2743641932859031 45.5649063596139996 28.1128704123049964
 56.3719032894093317 40.6829991828024689 28.1128704123049964
 -23.9580974519382757 43.1239527712082307 28.1128704123049964
 -4.2279396379182765 43.1239527712082307 28.1128704123049964
 12.6836483620817209 43.1239527712082307 28.1128704123049964
 21.1394423620817271 43.1239527712082307 28.1128704123049964
  8.4557936613693432 40.6829991828024689 28.1128704123049964
 40.8696424144358730 48.0059331773597151 28.1128704123049964
 46.5068666004158757 48.0059331773597151 28.1128704123049964
 28.1859937949951949 35.8010187766509844 28.1128704123049964
 28.1859515566610455 30.9190383704995000 28.1128704123049964
 36.6417455566610357 30.9190383704995000 28.1128704123049964
 47.9161939286210341 30.9190383704995000 28.1128704123049964
 50.7347637426410429 30.9190383704995000 28.1128704123049964
  7.0464663738006301 52.8878403541712458 28.1128704123049964
  4.2278965597806355 52.8878403541712458 28.1128704123049964
  1.4093267457606342 52.8878403541712458 28.1128704123049964
 -4.2278974402193654 52.8878403541712458 28.1128704123049964
 64.8277819286210502 30.9190383704995000 28.1128704123049964
 -15.5023456496371885 33.3600651882452155 28.1128704123049964
  9.8650363503628089 33.3600651882452155 28.1128704123049964
 18.3208303503628116 33.3600651882452155 28.1128704123049964
 23.9580545363428143 33.3600651882452155 28.1128704123049964
 31.0045634871082498 50.4468867657654769 28.1128704123049964
 43.6882123503628037 33.3600651882452155 28.1128704123049964
 16.9115453011282568 50.4468867657654769 28.1128704123049964
 57.7812305363428109 33.3600651882452155 28.1128704123049964
  8.4557513011282524 50.4468867657654769 28.1128704123049964
 63.4184547223228137 33.3600651882452155 28.1128704123049964
 -19.7302003909848089 35.8010187766509844 28.1128704123049964
 -16.9116305769648072 35.8010187766509844 28.1128704123049964
 -14.0929762050048097 35.8010187766509844 28.1128704123049964
 -11.2744063909848098 35.8010187766509844 28.1128704123049964
 -8.4558365769648098 35.8010187766509844 28.1128704123049964
  2.8186116730882564 50.4468867657654769 28.1128704123049964
  2.8186117949951930 35.8010187766509844 28.1128704123049964
  8.4557514230351885 35.8010187766509844 28.1128704123049964
 11.2744057949951930 35.8010187766509844 28.1128704123049964
 54.9626606004158731 48.0059331773597151 28.1128704123049964
  5.6372239286210437 30.9190383704995000 28.1128704123049964
 70.4649216785679755 16.2731703813850075 28.1128704123049964
 35.2324605480617166 43.1239527712082307 28.1128704123049964
 33.8231331792213084 65.0927547548799765 28.1128704123049964
 16.9115874175554666 69.9747351610314468 28.1128704123049964
 40.8696427395214528  8.9502363868277595 28.1128704123049964
 69.0555945941766822  4.0683292100162243 28.1128704123049964
 63.4184549661366859  4.0683292100162243 28.1128704123049964
 60.5998851114814414  8.9502363868277595 28.1128704123049964
 66.2370247395214449  8.9502363868277595 28.1128704123049964
 25.3673814175554639 69.9747351610314468 28.1128704123049964
  7.0464662518936976 67.5337083432857384 28.1128704123049964
 -1.4093277481063067 67.5337083432857384 28.1128704123049964
 -9.8651217481063078 67.5337083432857384 28.1128704123049964
 -15.5022613761463042 67.5337083432857384 28.1128704123049964
 -23.9580976957521585 72.4156887494372228 28.1128704123049964
 -26.7767097481063061 67.5337083432857384 28.1128704123049964
 -21.1395278817321568 72.4156887494372228 28.1128704123049964
 31.0045633652013137 65.0927547548799765 28.1128704123049964
 81.7393701724349171  1.6273023922705114 28.1128704123049964
 67.6463519051832236 11.3912632045734714 28.1128704123049964
 73.2834915332232129 11.3912632045734714 28.1128704123049964
 67.6463519864549170  1.6273023922705114 28.1128704123049964
 35.2325031114814493  8.9502363868277595 28.1128704123049964
 74.6928187801566850  4.0683292100162243 28.1128704123049964
 26.7767086238536862 67.5337083432857384 28.1128704123049964
 32.4138482518936897 67.5337083432857384 28.1128704123049964
 -14.0930187684245301 69.9747351610314468 28.1128704123049964
 25.3673396668490696  6.5092827984219914 28.1128704123049964
 -8.4557945824445344 69.9747351610314468 28.1128704123049964
 50.7347216668490617  6.5092827984219914 28.1128704123049964
 56.3719458528290644  6.5092827984219914 28.1128704123049964
 -5.6372247684245327 69.9747351610314468 28.1128704123049964
 14.0929758528290687  6.5092827984219914 28.1128704123049964
 62.0091700388090601  6.5092827984219914 28.1128704123049964
 64.8277398528290689  6.5092827984219914 28.1128704123049964
 -7.0465092081243990 13.8322167929792403 28.1128704123049964
  5.6371818528290705  6.5092827984219914 28.1128704123049964
 70.4649640388090717  6.5092827984219914 28.1128704123049964
  2.8185692315754580 69.9747351610314468 28.1128704123049964
 -2.8186121471709296  6.5092827984219914 28.1128704123049964
 43.6882966238536952 67.5337083432857384 28.1128704123049964
 -35.2325037074710679 62.6518011664742076 28.1128704123049964
 38.0510724378736924 67.5337083432857384 28.1128704123049964
  9.8651211114814483  8.9502363868277595 28.1128704123049964
 15.5022607395214518  8.9502363868277595 28.1128704123049964
 18.3209151114814510  8.9502363868277595 28.1128704123049964
 67.6463096668490635  6.5092827984219914 28.1128704123049964
 -1.4092850221444004 13.8322167929792403 28.1128704123049964
 -16.9115885824445336 69.9747351610314468 28.1128704123049964
 64.8277821724349081  1.6273023922705114 28.1128704123049964
 57.7812729778555934 13.8322167929792403 28.1128704123049964
 28.1859518004749177  1.6273023922705114 28.1128704123049964
 26.7766667918756056 13.8322167929792403 28.1128704123049964
 -1.4093277074710613 62.6518011664742076 28.1128704123049964
  7.0464662925289359 62.6518011664742076 28.1128704123049964
 23.9580964902278346 72.4156887494372228 28.1128704123049964
  9.8650361065489385 62.6518011664742076 28.1128704123049964
 18.3208727918756047 13.8322167929792403 28.1128704123049964
 35.2324607918756030 13.8322167929792403 28.1128704123049964
 36.6417458004749221  1.6273023922705114 28.1128704123049964
 47.9161941724349276  1.6273023922705114 28.1128704123049964
 40.8696422925289298 62.6518011664742076 28.1128704123049964
 12.6836904785089395 62.6518011664742076 28.1128704123049964
 26.7766241065489261 62.6518011664742076 28.1128704123049964
 46.5068246058955950 13.8322167929792403 28.1128704123049964
 38.0510724785089351 62.6518011664742076 28.1128704123049964
 46.5068664785089325 62.6518011664742076 28.1128704123049964
 14.0930180505279825 16.2731703813850075 28.1128704123049964
 21.1394426058955993 13.8322167929792403 28.1128704123049964
  7.0465089778555976 13.8322167929792403 28.1128704123049964
 -15.5023458934510643 62.6518011664742076 28.1128704123049964
 14.0930181724349168  1.6273023922705114 28.1128704123049964
 -26.7767097074710669 62.6518011664742076 28.1128704123049964
 32.4138904902278497 72.4156887494372228 28.1128704123049964
 -22.5487704488186900 65.0927547548799765 28.1128704123049964
 -32.4139338934510661 62.6518011664742076 28.1128704123049964
 -18.3208732795033562 44.7512551634787386 28.6327538495249954
 -9.8651215991092069 49.6332355696302230 28.6327538495249954
 -9.8650792795033553 44.7512551634787386 28.6327538495249954
 19.7301572180303850 71.6020375533019688 28.6327538495249954
 35.2325027728508005 49.6332355696302230 28.6327538495249954
 -7.0464672271492059 49.6332355696302230 28.6327538495249954
 32.4138484008907994 49.6332355696302230 28.6327538495249954
 21.1394845868707826 49.6332355696302230 28.6327538495249954
 -9.8650372037113900 69.1610107355562462 28.6327538495249954
 12.6836905868707941 49.6332355696302230 28.6327538495249954
 39.4603998338042672 42.3103015750729767 28.6327538495249954
 -21.1394430935233544 44.7512551634787386 28.6327538495249954
 47.9161938338042646 42.3103015750729767 28.6327538495249954
  7.0464664008907913 49.6332355696302230 28.6327538495249954
 12.6836904243286224 69.1610107355562462 28.6327538495249954
 53.5533334618442680 42.3103015750729767 28.6327538495249954
 31.0046055899903834 71.6020375533019688 28.6327538495249954
 -15.5023034654833562 44.7512551634787386 28.6327538495249954
 56.3719878338042619 42.3103015750729767 28.6327538495249954
  7.0465507962886189 69.1610107355562462 28.6327538495249954
 15.5023447962886092 69.1610107355562462 28.6327538495249954
  1.4092845345166412 44.7512551634787386 28.6327538495249954
 18.3209146103086198 69.1610107355562462 28.6327538495249954
 -15.5022612271492086 49.6332355696302230 28.6327538495249954
 -0.0000003928109814 47.1922087518845075 28.6327538495249954
  5.6372235899903860 71.6020375533019688 28.6327538495249954
 -5.6371400208509774 47.1922087518845075 28.6327538495249954
 -8.4557945959896212 71.6020375533019688 28.6327538495249954
 -5.6372247819696195 71.6020375533019688 28.6327538495249954
 -2.8185704100096114 71.6020375533019688 28.6327538495249954
 57.7812727204966521 44.7512551634787386 28.6327538495249954
 11.2743632180303894 71.6020375533019688 28.6327538495249954
 52.1440485345166493 44.7512551634787386 28.6327538495249954
  9.8650785345166412 44.7512551634787386 28.6327538495249954
 46.5069089064766459 44.7512551634787386 28.6327538495249954
 43.6882545345166520 44.7512551634787386 28.6327538495249954
  2.8185692180303707 71.6020375533019688 28.6327538495249954
 23.9580967204966342 44.7512551634787386 28.6327538495249954
 21.1395269064766467 44.7512551634787386 28.6327538495249954
 18.3208725345166314 44.7512551634787386 28.6327538495249954
 49.3254787204966547 44.7512551634787386 28.6327538495249954
 16.9115874040103833 71.6020375533019688 28.6327538495249954
 49.3254364008908013 49.6332355696302230 28.6327538495249954
  8.4557936071890190 47.1922087518845075 28.6327538495249954
  4.2279389064766386 44.7512551634787386 28.6327538495249954
 47.9161937931690360 47.1922087518845075 28.6327538495249954
 15.5023027204966439 44.7512551634787386 28.6327538495249954
 21.1394844243286215 69.1610107355562462 28.6327538495249954
 14.0930175899903762 71.6020375533019688 28.6327538495249954
 29.5952784243286260 69.1610107355562462 28.6327538495249954
 35.2325026103086287 69.1610107355562462 28.6327538495249954
 -11.2743644100096230 71.6020375533019688 28.6327538495249954
 -39.4604007819696179 71.6020375533019688 28.6327538495249954
 36.6418299791490298 47.1922087518845075 28.6327538495249954
 31.0046057931690235 47.1922087518845075 28.6327538495249954
 -33.8231765959896151 71.6020375533019688 28.6327538495249954
 -31.0046067819696169 71.6020375533019688 28.6327538495249954
 19.7302419791490244 47.1922087518845075 28.6327538495249954
 -28.1859524100096195 71.6020375533019688 28.6327538495249954
 14.0930177931690217 47.1922087518845075 28.6327538495249954
 -36.6417464100096169 71.6020375533019688 28.6327538495249954
 49.3254785985897115 59.3971231525932382 28.6327538495249954
 25.3674238455231631 52.0741891580359919 28.6327538495249954
 -21.1394855756713831 69.1610107355562462 28.6327538495249954
 25.3673815259173274 56.9561695641874692 28.6327538495249954
 16.9115875259173158 56.9561695641874692 28.6327538495249954
 -21.1394855350361439 64.2791035587447084 28.6327538495249954
 36.6417454618442662 42.3103015750729767 28.6327538495249954
 -18.3209157210161457 64.2791035587447084 28.6327538495249954
 -7.0464673490561447 64.2791035587447084 28.6327538495249954
 -2.8185702881026811 56.9561695641874692 28.6327538495249954
 -5.6372246600626781 56.9561695641874692 28.6327538495249954
 -8.4557944740826727 56.9561695641874692 28.6327538495249954
 -16.9115884740826736 56.9561695641874692 28.6327538495249954
  1.4093266509438596 64.2791035587447084 28.6327538495249954
 -19.7301582881026789 56.9561695641874692 28.6327538495249954
  4.2278964649638544 64.2791035587447084 28.6327538495249954
 18.3209146509438554 64.2791035587447084 28.6327538495249954
 -22.5488126600626764 56.9561695641874692 28.6327538495249954
 23.9580542789838589 64.2791035587447084 28.6327538495249954
 26.7767086509438528 64.2791035587447084 28.6327538495249954
 -26.7767097210161431 64.2791035587447084 28.6327538495249954
 28.1859513399373292 56.9561695641874692 28.6327538495249954
 36.6417453399373301 56.9561695641874692 28.6327538495249954
 39.4603997118973240 56.9561695641874692 28.6327538495249954
 43.6882544126097088 59.3971231525932382 28.6327538495249954
 38.0511147845697053 59.3971231525932382 28.6327538495249954
 35.2324604126097114 59.3971231525932382 28.6327538495249954
 -22.5487281427579163 61.8380767409990000 28.6327538495249954
 32.4138905985897026 59.3971231525932382 28.6327538495249954
 -11.2743643287379136 61.8380767409990000 28.6327538495249954
 18.3208724126097096 59.3971231525932382 28.6327538495249954
 15.5023025985896936 59.3971231525932382 28.6327538495249954
 29.5952784649638616 64.2791035587447084 28.6327538495249954
 -8.4557945147179190 61.8380767409990000 28.6327538495249954
  7.0465085985897025 59.3971231525932382 28.6327538495249954
  1.4092844126096999 59.3971231525932382 28.6327538495249954
 -4.2278552154303037 59.3971231525932382 28.6327538495249954
 -7.0465095873903012 59.3971231525932382 28.6327538495249954
 36.6418298572420866 61.8380767409990000 28.6327538495249954
 -18.3208734014102959 59.3971231525932382 28.6327538495249954
 -21.1394432154303011 59.3971231525932382 28.6327538495249954
 -29.5952372154302985 59.3971231525932382 28.6327538495249954
 -2.8185703287379194 61.8380767409990000 28.6327538495249954
 46.5068665462355568 54.5151427464417537 28.6327538495249954
 35.2325026509438644 64.2791035587447084 28.6327538495249954
 -33.8231342763837688 66.7200571471504844 28.6327538495249954
 22.5487693516562366 66.7200571471504844 28.6327538495249954
 36.6417876595431693 52.0741891580359919 28.6327538495249954
 31.0045634735631737 52.0741891580359919 28.6327538495249954
 28.1859936595431719 52.0741891580359919 28.6327538495249954
 22.5487694735631763 52.0741891580359919 28.6327538495249954
 45.0975815376362448 66.7200571471504844 28.6327538495249954
 11.2744056595431719 52.0741891580359919 28.6327538495249954
  8.4558358455231772 52.0741891580359919 28.6327538495249954
 19.7301995376362349 66.7200571471504844 28.6327538495249954
 -38.0510735756713814 69.1610107355562462 28.6327538495249954
 -35.2324192037113804 69.1610107355562462 28.6327538495249954
 -11.2744065264368292 52.0741891580359919 28.6327538495249954
 -16.9115461544768308 52.0741891580359919 28.6327538495249954
 -19.7302005264368283 52.0741891580359919 28.6327538495249954
 -25.3673401544768282 52.0741891580359919 28.6327538495249954
 -32.4138493896913857 69.1610107355562462 28.6327538495249954
 -28.1859945264368292 52.0741891580359919 28.6327538495249954
 54.9626605868708040 49.6332355696302230 28.6327538495249954
  0.0000418455231652 52.0741891580359919 28.6327538495249954
 52.1440907728507952 49.6332355696302230 28.6327538495249954
 39.4603574735631781 52.0741891580359919 28.6327538495249954
 -29.5952794537644479 54.5151427464417537 28.6327538495249954
 35.2325027322155506 54.5151427464417537 28.6327538495249954
 29.5952785462355585 54.5151427464417537 28.6327538495249954
 26.7767087322155568 54.5151427464417537 28.6327538495249954
 -25.3673402763837679 66.7200571471504844 28.6327538495249954
 21.1394845462355612 54.5151427464417537 28.6327538495249954
 18.3209147322155452 54.5151427464417537 28.6327538495249954
 12.6836905462355407 54.5151427464417537 28.6327538495249954
 -22.5487704623637697 66.7200571471504844 28.6327538495249954
 42.2790118455231720 52.0741891580359919 28.6327538495249954
 -19.7302006483437680 66.7200571471504844 28.6327538495249954
  9.8651207322155532 54.5151427464417537 28.6327538495249954
  4.2278965462355513 54.5151427464417537 28.6327538495249954
  8.4558357236162376 66.7200571471504844 28.6327538495249954
 -15.5022612677844460 54.5151427464417537 28.6327538495249954
 -18.3208310818044460 54.5151427464417537 28.6327538495249954
 -21.1394854537644470 54.5151427464417537 28.6327538495249954
 14.0929753516562410 66.7200571471504844 28.6327538495249954
 16.9116297236162261 66.7200571471504844 28.6327538495249954
 -5.6371824623637705 66.7200571471504844 28.6327538495249954
  7.0465090862174584  0.8136511961352557 28.6327538495249954
 15.5022605227977337 34.9873675805157234 28.6327538495249954
 25.3673816478242529 42.3103015750729767 28.6327538495249954
 -7.0465092216694787 15.4595191852497500 28.6327538495249954
 76.1021458916381448 13.0185655968439828 28.6327538495249954
 67.6463518916381474 13.0185655968439828 28.6327538495249954
 64.8277820776181386 13.0185655968439828 28.6327538495249954
 62.0091277056581518 13.0185655968439828 28.6327538495249954
 56.3719880776181483 13.0185655968439828 28.6327538495249954
 45.0975397056581500 13.0185655968439828 28.6327538495249954
 42.2789698916381340 13.0185655968439828 28.6327538495249954
 14.0930180776181420 13.0185655968439828 28.6327538495249954
  8.4557938916381428 13.0185655968439828 28.6327538495249954
  5.6372240776181393 13.0185655968439828 28.6327538495249954
  4.2279391502905188 15.4595191852497500 28.6327538495249954
 77.5114730979363742 10.5775387790982709 28.6327538495249954
 69.0556790979363768 10.5775387790982709 28.6327538495249954
 63.4184549119563812 10.5775387790982709 28.6327538495249954
 57.7813152839163777 10.5775387790982709 28.6327538495249954
 54.9626609119563767 10.5775387790982709 28.6327538495249954
 52.1440910979363750 10.5775387790982709 28.6327538495249954
 49.3255212839163661 10.5775387790982709 28.6327538495249954
 46.5068669119563793 10.5775387790982709 28.6327538495249954
 32.4139332839163785 10.5775387790982709 28.6327538495249954
 29.5952789119563668 10.5775387790982709 28.6327538495249954
 26.7767090979363651 10.5775387790982709 28.6327538495249954
 23.9581392839163634 10.5775387790982709 28.6327538495249954
 74.6929032839163654 10.5775387790982709 28.6327538495249954
 21.1394849119563659 10.5775387790982709 28.6327538495249954
  9.8650787783305205 15.4595191852497500 28.6327538495249954
 23.9580969643105171 15.4595191852497500 28.6327538495249954
 23.9580546447046672 20.3414995914012344 28.6327538495249954
 18.3209150166646637 20.3414995914012344 28.6327538495249954
 12.6836908306846716 20.3414995914012344 28.6327538495249954
  7.0464666447046698 20.3414995914012344 28.6327538495249954
  4.2278968306846716 20.3414995914012344 28.6327538495249954
  1.4093270166646681 20.3414995914012344 28.6327538495249954
 -9.8651213552953294 20.3414995914012344 28.6327538495249954
 62.0092122229629013 17.9004727736555189 28.6327538495249954
 56.3719880369828985 17.9004727736555189 28.6327538495249954
 42.2789698510029055 17.9004727736555189 28.6327538495249954
 31.0046060369829029 17.9004727736555189 28.6327538495249954
 12.6837331502905215 15.4595191852497500 28.6327538495249954
 28.1860362229629082 17.9004727736555189 28.6327538495249954
 22.5488120369828984 17.9004727736555189 28.6327538495249954
 19.7302422229628966 17.9004727736555189 28.6327538495249954
 74.6928609643105261 15.4595191852497500 28.6327538495249954
 66.2370669643105288 15.4595191852497500 28.6327538495249954
 63.4184971502905270 15.4595191852497500 28.6327538495249954
 54.9627031502905297 15.4595191852497500 28.6327538495249954
 52.1440487783305286 15.4595191852497500 28.6327538495249954
 49.3254789643105269 15.4595191852497500 28.6327538495249954
 40.8696849643105153 15.4595191852497500 28.6327538495249954
 38.0511151502905278 15.4595191852497500 28.6327538495249954
 29.5953211502905269 15.4595191852497500 28.6327538495249954
 25.3673818510029001 17.9004727736555189 28.6327538495249954
 12.6836909119563703 10.5775387790982709 28.6327538495249954
  9.8651210979363722 10.5775387790982709 28.6327538495249954
  7.0465512839163686 10.5775387790982709 28.6327538495249954
 50.7347639729098461  3.2546047845410229 28.6327538495249954
 47.9161941588898301  3.2546047845410229 28.6327538495249954
 45.0976243448698426  3.2546047845410229 28.6327538495249954
 39.4604001588898399  3.2546047845410229 28.6327538495249954
 33.8231759729098371  3.2546047845410229 28.6327538495249954
 25.3673819729098362  3.2546047845410229 28.6327538495249954
 22.5488121588898416  3.2546047845410229 28.6327538495249954
 19.7302423448698399  3.2546047845410229 28.6327538495249954
 16.9115879729098388  3.2546047845410229 28.6327538495249954
  8.4557939729098397  3.2546047845410229 28.6327538495249954
 -0.0000000270901599  3.2546047845410229 28.6327538495249954
 59.1905579729098434  3.2546047845410229 28.6327538495249954
 83.1486550862174738  0.8136511961352557 28.6327538495249954
 77.5114309002374711  0.8136511961352557 28.6327538495249954
 71.8742912721974676  0.8136511961352557 28.6327538495249954
 63.4184972721974631  0.8136511961352557 28.6327538495249954
 54.9627032721974516  0.8136511961352557 28.6327538495249954
 49.3254790862174488  0.8136511961352557 28.6327538495249954
 46.5069092721974613  0.8136511961352557 28.6327538495249954
 43.6882549002374461  0.8136511961352557 28.6327538495249954
 38.0511152721974639  0.8136511961352557 28.6327538495249954
 35.2324609002374558  0.8136511961352557 28.6327538495249954
 23.9580970862174638  0.8136511961352557 28.6327538495249954
  9.8650789002374601  0.8136511961352557 28.6327538495249954
 80.3300852721974650  0.8136511961352557 28.6327538495249954
 73.2835761588898578  3.2546047845410229 28.6327538495249954
 78.9208003448698463  3.2546047845410229 28.6327538495249954
 81.7393701588898551  3.2546047845410229 28.6327538495249954
  4.2278969119563712 10.5775387790982709 28.6327538495249954
  1.4093270979363695 10.5775387790982709 28.6327538495249954
 -4.2278970880436288 10.5775387790982709 28.6327538495249954
 76.1021882112439840  8.1365851906925037 28.6327538495249954
 73.2835338392839901  8.1365851906925037 28.6327538495249954
 56.3719458392839954  8.1365851906925037 28.6327538495249954
 45.0975820252639821  8.1365851906925037 28.6327538495249954
 36.6417880252639918  8.1365851906925037 28.6327538495249954
 33.8232182112439972  8.1365851906925037 28.6327538495249954
 22.5487698392839881  8.1365851906925037 28.6327538495249954
 19.7302000252639935  8.1365851906925037 28.6327538495249954
  8.4558362112439873  8.1365851906925037 28.6327538495249954
  0.0000422112439907  8.1365851906925037 28.6327538495249954
 80.3300429525916257  5.6956316022867357 28.6327538495249954
 66.2370247666116256  5.6956316022867357 28.6327538495249954
 60.5998851385716151  5.6956316022867357 28.6327538495249954
 46.5068669525916008  5.6956316022867357 28.6327538495249954
 38.0510729525916105  5.6956316022867357 28.6327538495249954
 35.2325031385716159  5.6956316022867357 28.6327538495249954
 32.4138487666116077  5.6956316022867357 28.6327538495249954
 26.7767091385716043  5.6956316022867357 28.6327538495249954
 23.9580547666116068  5.6956316022867357 28.6327538495249954
 21.1394849525916122  5.6956316022867357 28.6327538495249954
  1.4093271385716108  5.6956316022867357 28.6327538495249954
 -1.4093272333883895  5.6956316022867357 28.6327538495249954
 26.7767090166646753 20.3414995914012344 28.6327538495249954
 29.5952788306846699 20.3414995914012344 28.6327538495249954
 40.8696426447046761 20.3414995914012344 28.6327538495249954
 52.1440910166646745 20.3414995914012344 28.6327538495249954
  5.6371815954701097 37.4283211689214923 28.6327538495249954
  2.8186117814501150 37.4283211689214923 28.6327538495249954
 -2.8186124045298877 37.4283211689214923 28.6327538495249954
 -5.6371822185498859 37.4283211689214923 28.6327538495249954
 57.7812305227977419 34.9873675805157234 28.6327538495249954
 54.9626607087777472 34.9873675805157234 28.6327538495249954
 38.0510727087777383 34.9873675805157234 28.6327538495249954
 32.4138485227977426 34.9873675805157234 28.6327538495249954
 21.1394847087777364 34.9873675805157234 28.6327538495249954
 18.3209148947577418 34.9873675805157234 28.6327538495249954
 33.8231754040103922 71.6020375533019688 28.6327538495249954
 14.0929755954701115 37.4283211689214923 28.6327538495249954
  7.0464665227977319 34.9873675805157234 28.6327538495249954
 -4.2278972912222672 34.9873675805157234 28.6327538495249954
 -7.0464671052422672 34.9873675805157234 28.6327538495249954
 62.0092121010559580 32.5463407627700150 28.6327538495249954
 53.5534181010559607 32.5463407627700150 28.6327538495249954
 47.9161939150759579 32.5463407627700150 28.6327538495249954
 42.2789697290959623 32.5463407627700150 28.6327538495249954
 39.4603999150759606 32.5463407627700150 28.6327538495249954
 36.6418301010559517 32.5463407627700150 28.6327538495249954
 33.8231757290959649 32.5463407627700150 28.6327538495249954
 25.3673817290959498 32.5463407627700150 28.6327538495249954
 19.7302421010559677 32.5463407627700150 28.6327538495249954
  1.4093268947577322 34.9873675805157234 28.6327538495249954
 19.7301997814501142 37.4283211689214923 28.6327538495249954
 33.8232179674301037 37.4283211689214923 28.6327538495249954
 36.6417877814501125 37.4283211689214923 28.6327538495249954
 16.9115876478242626 42.3103015750729767 28.6327538495249954
 14.0930178338042680 42.3103015750729767 28.6327538495249954
 -0.0000003521757358 42.3103015750729767 28.6327538495249954
 -11.2743641661957401 42.3103015750729767 28.6327538495249954
 -14.0930185381557376 42.3103015750729767 28.6327538495249954
 -16.9115883521757375 42.3103015750729767 28.6327538495249954
 -19.7301581661957393 42.3103015750729767 28.6327538495249954
 52.1440908541225028 39.8692747573272612 28.6327538495249954
 46.5068666681425000 39.8692747573272612 28.6327538495249954
 43.6882968541224912 39.8692747573272612 28.6327538495249954
 38.0510726681424956 39.8692747573272612 28.6327538495249954
 35.2325028541224938 39.8692747573272612 28.6327538495249954
 18.3209148541224920 39.8692747573272612 28.6327538495249954
  7.0465510401024849 39.8692747573272612 28.6327538495249954
  4.2278966681424874 39.8692747573272612 28.6327538495249954
  1.4093268541224926 39.8692747573272612 28.6327538495249954
 -1.4092429598975091 39.8692747573272612 28.6327538495249954
 -7.0464671458775081 39.8692747573272612 28.6327538495249954
 -12.6836913318575100 39.8692747573272612 28.6327538495249954
 -15.5022611458775117 39.8692747573272612 28.6327538495249954
 -18.3208309598975099 39.8692747573272612 28.6327538495249954
 -21.1394853318575109 39.8692747573272612 28.6327538495249954
 62.0091697814501188 37.4283211689214923 28.6327538495249954
 59.1905999674301100 37.4283211689214923 28.6327538495249954
 53.5533757814501215 37.4283211689214923 28.6327538495249954
 16.9115877290959595 32.5463407627700150 28.6327538495249954
 28.1859514618442688 42.3103015750729767 28.6327538495249954
 14.0930179150759578 32.5463407627700150 28.6327538495249954
 -2.8185700849240374 32.5463407627700150 28.6327538495249954
 57.7813151620094345 25.2234067682127652 28.6327538495249954
 54.9626607900494406 25.2234067682127652 28.6327538495249954
 52.1440909760294318 25.2234067682127652 28.6327538495249954
 40.8697271620094256 25.2234067682127652 28.6327538495249954
 38.0510727900494388 25.2234067682127652 28.6327538495249954
 26.7767089760294326 25.2234067682127652 28.6327538495249954
 21.1394847900494298 25.2234067682127652 28.6327538495249954
 18.3209149760294281 25.2234067682127652 28.6327538495249954
 12.6836907900494289 25.2234067682127652 28.6327538495249954
  9.8651209760294343 25.2234067682127652 28.6327538495249954
  7.0465511620094325 25.2234067682127652 28.6327538495249954
 60.5998849760294434 25.2234067682127652 28.6327538495249954
 -4.2278972099505676 25.2234067682127652 28.6327538495249954
 64.8277397173770566 22.7824531798069998 28.6327538495249954
 50.7348060893370558 22.7824531798069998 28.6327538495249954
 47.9161517173770548 22.7824531798069998 28.6327538495249954
 28.1859939033570512 22.7824531798069998 28.6327538495249954
 19.7301999033570468 22.7824531798069998 28.6327538495249954
 16.9116300893370450 22.7824531798069998 28.6327538495249954
 14.0929757173770476 22.7824531798069998 28.6327538495249954
 11.2744059033570529 22.7824531798069998 28.6327538495249954
  5.6371817173770493 22.7824531798069998 28.6327538495249954
  2.8186119033570516 22.7824531798069998 28.6327538495249954
 69.0556790166646692 20.3414995914012344 28.6327538495249954
 67.6463940893370506 22.7824531798069998 28.6327538495249954
 66.2371091620094319 25.2234067682127652 28.6327538495249954
 69.0556789760294407 25.2234067682127652 28.6327538495249954
 11.2743635837511977 27.6644335859584807 28.6327538495249954
 -8.4557942709040379 32.5463407627700150 28.6327538495249954
 -14.0929338989440378 32.5463407627700150 28.6327538495249954
 63.4184970283835838 30.1053871743642461 28.6327538495249954
 60.5998426564235899 30.1053871743642461 28.6327538495249954
 57.7812728424035953 30.1053871743642461 28.6327538495249954
 54.9627030283835865 30.1053871743642461 28.6327538495249954
 52.1440486564235925 30.1053871743642461 28.6327538495249954
 43.6882546564235881 30.1053871743642461 28.6327538495249954
 40.8696848424035863 30.1053871743642461 28.6327538495249954
 26.7766666564235685 30.1053871743642461 28.6327538495249954
 18.3208726564235782 30.1053871743642461 28.6327538495249954
 12.6837330283835765 30.1053871743642461 28.6327538495249954
 -1.4092851575964171 30.1053871743642461 28.6327538495249954
 -7.0465093435764183 30.1053871743642461 28.6327538495249954
 67.6463517697312113 27.6644335859584807 28.6327538495249954
 64.8277819557112025 27.6644335859584807 28.6327538495249954
 62.0091275837512086 27.6644335859584807 28.6327538495249954
 50.7347637697312024 27.6644335859584807 28.6327538495249954
 45.0975395837512067 27.6644335859584807 28.6327538495249954
 42.2789697697312050 27.6644335859584807 28.6327538495249954
 36.6417455837512094 27.6644335859584807 28.6327538495249954
 31.0046059557112059 27.6644335859584807 28.6327538495249954
 28.1859515837511907 27.6644335859584807 28.6327538495249954
 25.3673817697312032 27.6644335859584807 28.6327538495249954
 16.9115877697311987 27.6644335859584807 28.6327538495249954
  5.6372239150759640 32.5463407627700150 28.6327538495249954
 39.4603995899903808 71.6020375533019688 28.6327538495249954
