 H  O 
 1.0000000000000000
    84.5579400000000021    0.0000000000000000    0.0000000000000000
   -42.2789706095346958   73.2293399455724767    0.0000000000000000
     0.0000000000000000    0.0000000000000000   46.9039550000000034
 H   O  
 272 328
Cartesian
  5.6372241724349186  1.6273023922705114 28.1128704123049964
 50.7347636613693425 40.6829991828024689 28.1128704123049964
 36.6417454753893352 40.6829991828024689 28.1128704123049964
 22.5487272894093422 40.6829991828024689 28.1128704123049964
 19.7301574753893405 40.6829991828024689 28.1128704123049964
  8.4557936613693432 40.6829991828024689 28.1128704123049964
  2.8185694753893440 40.6829991828024689 28.1128704123049964
 -0.0000003386306579 40.6829991828024689 28.1128704123049964
 -2.8186547105906588 40.6829991828024689 28.1128704123049964
 -8.4557943386306622 40.6829991828024689 28.1128704123049964
 56.3719032894093317 40.6829991828024689 28.1128704123049964
 -11.2744487105906597 40.6829991828024689 28.1128704123049964
 52.1440908676675789 38.2419723650567462 28.1128704123049964
 49.3254364957075708 38.2419723650567462 28.1128704123049964
 46.5068666816875762 38.2419723650567462 28.1128704123049964
 23.9580544957075787 38.2419723650567462 28.1128704123049964
 12.6836906816875779 38.2419723650567462 28.1128704123049964
 -7.0464671323324293 38.2419723650567462 28.1128704123049964
 -9.8651215042924267 38.2419723650567462 28.1128704123049964
 -18.3209155042924259 38.2419723650567462 28.1128704123049964
 -21.1394853183124276 38.2419723650567462 28.1128704123049964
 -19.7302427105906588 40.6829991828024689 28.1128704123049964
 59.1905154230351869 35.8010187766509844 28.1128704123049964
 -15.5023034519382783 43.1239527712082307 28.1128704123049964
 12.6836483620817209 43.1239527712082307 28.1128704123049964
 49.3254364144358703 48.0059331773597151 28.1128704123049964
 29.5952786004158739 48.0059331773597151 28.1128704123049964
 15.5022604144358738 48.0059331773597151 28.1128704123049964
 -1.4093275855641247 48.0059331773597151 28.1128704123049964
 -9.8651215855641290 48.0059331773597151 28.1128704123049964
 -15.5023457715441282 48.0059331773597151 28.1128704123049964
 42.2789696207341024 45.5649063596139996 28.1128704123049964
 36.6417454347540925 45.5649063596139996 28.1128704123049964
 33.8231756207340979 45.5649063596139996 28.1128704123049964
 -1.4092852659582757 43.1239527712082307 28.1128704123049964
 22.5488118067141059 45.5649063596139996 28.1128704123049964
 11.2743634347540986 45.5649063596139996 28.1128704123049964
  5.6372238067141032 45.5649063596139996 28.1128704123049964
 -25.3673823792659014 45.5649063596139996 28.1128704123049964
 46.5068243620817157 43.1239527712082307 28.1128704123049964
 40.8696847340417122 43.1239527712082307 28.1128704123049964
 38.0510303620817112 43.1239527712082307 28.1128704123049964
 29.5952363620817174 43.1239527712082307 28.1128704123049964
 23.9580967340417281 43.1239527712082307 28.1128704123049964
 21.1394423620817271 43.1239527712082307 28.1128704123049964
 14.0930178067140996 45.5649063596139996 28.1128704123049964
 53.5533757949951976 35.8010187766509844 28.1128704123049964
 38.0510301182678390 72.4156887494372228 28.1128704123049964
 50.7347214230351895 35.8010187766509844 28.1128704123049964
 66.2370668559486688 28.4780847820937346 28.1128704123049964
 57.7812728559486644 28.4780847820937346 28.1128704123049964
 43.6882546699686571 28.4780847820937346 28.1128704123049964
 29.5952364839886641 28.4780847820937346 28.1128704123049964
 26.7766666699686624 28.4780847820937346 28.1128704123049964
 23.9580968559486607 28.4780847820937346 28.1128704123049964
 21.1394424839886597 28.4780847820937346 28.1128704123049964
 15.5023028559486651 28.4780847820937346 28.1128704123049964
  7.0465088559486642 28.4780847820937346 28.1128704123049964
 -2.8185700713789608 30.9190383704995000 28.1128704123049964
 -4.2279395160113378 28.4780847820937346 28.1128704123049964
 -15.5023033300313369 28.4780847820937346 28.1128704123049964
 67.6463517832762875 26.0371311936879657 28.1128704123049964
 59.1905577832762830 26.0371311936879657 28.1128704123049964
 56.3719034113162749 26.0371311936879657 28.1128704123049964
 53.5533335972962803 26.0371311936879657 28.1128704123049964
 25.3673817832762829 26.0371311936879657 28.1128704123049964
 11.2743635972962863 26.0371311936879657 28.1128704123049964
  5.6371394113162827 26.0371311936879657 28.1128704123049964
 69.0556789895745169 23.5961043759422537 28.1128704123049964
 -9.8650791440513395 28.4780847820937346 28.1128704123049964
  2.8185695566610427 30.9190383704995000 28.1128704123049964
 28.1859515566610455 30.9190383704995000 28.1128704123049964
 39.4603999286210438 30.9190383704995000 28.1128704123049964
 39.4603576090151904 35.8010187766509844 28.1128704123049964
 33.8231334230351877 35.8010187766509844 28.1128704123049964
 28.1859937949951949 35.8010187766509844 28.1128704123049964
 16.9115454230351894 35.8010187766509844 28.1128704123049964
 14.0929756090151947 35.8010187766509844 28.1128704123049964
 11.2744057949951930 35.8010187766509844 28.1128704123049964
  8.4557514230351885 35.8010187766509844 28.1128704123049964
 -8.4558365769648098 35.8010187766509844 28.1128704123049964
 -11.2744063909848098 35.8010187766509844 28.1128704123049964
 43.6882123503628037 33.3600651882452155 28.1128704123049964
 40.8696425363428091 33.3600651882452155 28.1128704123049964
 38.0510727223228145 33.3600651882452155 28.1128704123049964
 29.5952787223228171 33.3600651882452155 28.1128704123049964
 21.1394847223228126 33.3600651882452155 28.1128704123049964
 15.5022605363428152 33.3600651882452155 28.1128704123049964
  9.8650363503628089 33.3600651882452155 28.1128704123049964
  7.0464665363428152 33.3600651882452155 28.1128704123049964
 -18.3209154636571903 33.3600651882452155 28.1128704123049964
 62.0091275566610349 30.9190383704995000 28.1128704123049964
 50.7347637426410429 30.9190383704995000 28.1128704123049964
 42.2789697426410385 30.9190383704995000 28.1128704123049964
 52.1440062284558650 48.0059331773597151 28.1128704123049964
 66.2370246176145088 23.5961043759422537 28.1128704123049964
 -28.1859945128917460 50.4468867657654769 28.1128704123049964
 -8.4558366988717459 50.4468867657654769 28.1128704123049964
  9.8651206238536986 67.5337083432857384 28.1128704123049964
 -18.3209157481063052 67.5337083432857384 28.1128704123049964
 -32.4138493761463025 67.5337083432857384 28.1128704123049964
 -38.0510735621263052 67.5337083432857384 28.1128704123049964
 45.0975815511813138 65.0927547548799765 28.1128704123049964
 39.4603573652013111 65.0927547548799765 28.1128704123049964
 33.8231331792213084 65.0927547548799765 28.1128704123049964
 31.0045633652013137 65.0927547548799765 28.1128704123049964
 28.1859935511813049 65.0927547548799765 28.1128704123049964
 12.6836904378736932 67.5337083432857384 28.1128704123049964
 22.5487693652013093 65.0927547548799765 28.1128704123049964
 -0.0000428207786890 65.0927547548799765 28.1128704123049964
 -8.4558368207786891 65.0927547548799765 28.1128704123049964
 -16.9116308207786865 65.0927547548799765 28.1128704123049964
 -19.7302006347986882 65.0927547548799765 28.1128704123049964
 -28.1859946347986892 65.0927547548799765 28.1128704123049964
 40.8696422925289298 62.6518011664742076 28.1128704123049964
 38.0510724785089351 62.6518011664742076 28.1128704123049964
 18.3208301065489287 62.6518011664742076 28.1128704123049964
 12.6836904785089395 62.6518011664742076 28.1128704123049964
  8.4557511792213162 65.0927547548799765 28.1128704123049964
  9.8650361065489385 62.6518011664742076 28.1128704123049964
 23.9580542518936852 67.5337083432857384 28.1128704123049964
 29.5952784378736951 67.5337083432857384 28.1128704123049964
 32.4138904902278497 72.4156887494372228 28.1128704123049964
 26.7766663042478434 72.4156887494372228 28.1128704123049964
 23.9580964902278346 72.4156887494372228 28.1128704123049964
 12.6836481182678362 72.4156887494372228 28.1128704123049964
 -4.2279398817321576 72.4156887494372228 28.1128704123049964
 -7.0465096957521522 72.4156887494372228 28.1128704123049964
 -9.8650795097721549 72.4156887494372228 28.1128704123049964
 -26.7766675097721567 72.4156887494372228 28.1128704123049964
 -29.5953218817321577 72.4156887494372228 28.1128704123049964
 26.7767086238536862 67.5337083432857384 28.1128704123049964
 25.3673814175554639 69.9747351610314468 28.1128704123049964
 11.2743632315754621 69.9747351610314468 28.1128704123049964
  8.4557934175554603 69.9747351610314468 28.1128704123049964
 -0.0000005824445366 69.9747351610314468 28.1128704123049964
 -5.6372247684245327 69.9747351610314468 28.1128704123049964
 -16.9115885824445336 69.9747351610314468 28.1128704123049964
 -19.7302429544045346 69.9747351610314468 28.1128704123049964
 -28.1860369544045355 69.9747351610314468 28.1128704123049964
 -36.6418309544045329 69.9747351610314468 28.1128704123049964
 43.6882966238536952 67.5337083432857384 28.1128704123049964
 14.0929330455954638 69.9747351610314468 28.1128704123049964
  4.2278964785089341 62.6518011664742076 28.1128704123049964
 -7.0465518934510678 62.6518011664742076 28.1128704123049964
 -9.8651217074710615 62.6518011664742076 28.1128704123049964
 -11.2744488324975958 55.3288671719169614 28.1128704123049964
 -19.7302428324975985 55.3288671719169614 28.1128704123049964
 -28.1860368324975958 55.3288671719169614 28.1128704123049964
 43.6882967457606384 52.8878403541712458 28.1128704123049964
 40.8696423738006303 52.8878403541712458 28.1128704123049964
 29.5952785597806276 52.8878403541712458 28.1128704123049964
 23.9580543738006249 52.8878403541712458 28.1128704123049964
 18.3209147457606356 52.8878403541712458 28.1128704123049964
 15.5022603738006346 52.8878403541712458 28.1128704123049964
 -8.4557944605375948 55.3288671719169614 28.1128704123049964
  7.0464663738006301 52.8878403541712458 28.1128704123049964
  1.4093267457606342 52.8878403541712458 28.1128704123049964
 -9.8651216261993682 52.8878403541712458 28.1128704123049964
 -23.9580552542393690 52.8878403541712458 28.1128704123049964
 42.2789273011282489 50.4468867657654769 28.1128704123049964
 39.4603574871082543 50.4468867657654769 28.1128704123049964
 14.0929754871082551 50.4468867657654769 28.1128704123049964
  8.4557513011282524 50.4468867657654769 28.1128704123049964
  2.8186116730882564 50.4468867657654769 28.1128704123049964
 -5.6371823269117440 50.4468867657654769 28.1128704123049964
  4.2278965597806355 52.8878403541712458 28.1128704123049964
 -2.8186548324975988 55.3288671719169614 28.1128704123049964
  2.8185693534824074 55.3288671719169614 28.1128704123049964
  5.6371391675024016 55.3288671719169614 28.1128704123049964
 -12.6836915214910633 62.6518011664742076 28.1128704123049964
 -26.7767097074710669 62.6518011664742076 28.1128704123049964
 -29.5952795214910651 62.6518011664742076 28.1128704123049964
 -35.2325037074710679 62.6518011664742076 28.1128704123049964
 36.6417453128471564 60.2107743487284921 28.1128704123049964
 16.9115874988271635 60.2107743487284921 28.1128704123049964
  8.4557934988271644 60.2107743487284921 28.1128704123049964
 -8.4557945011728339 60.2107743487284921 28.1128704123049964
 -11.2743643151928357 60.2107743487284921 28.1128704123049964
 -19.7301583151928384 60.2107743487284921 28.1128704123049964
 -28.1859523151928357 60.2107743487284921 28.1128704123049964
 40.8696846121347903 57.7698207603227232 28.1128704123049964
 29.5952362401747777 57.7698207603227232 28.1128704123049964
 23.9580966121347885 57.7698207603227232 28.1128704123049964
  1.4092844261547897 57.7698207603227232 28.1128704123049964
 -32.4138915738452127 57.7698207603227232 28.1128704123049964
 47.9161091675023982 55.3288671719169614 28.1128704123049964
 36.6417453534824062 55.3288671719169614 28.1128704123049964
 33.8231755394623974 55.3288671719169614 28.1128704123049964
 22.5487271675023955 55.3288671719169614 28.1128704123049964
 19.7301573534824009 55.3288671719169614 28.1128704123049964
 -11.2744065128917477 50.4468867657654769 28.1128704123049964
 54.9626608035945097 23.5961043759422537 28.1128704123049964
 40.8696844902278471 72.4156887494372228 28.1128704123049964
 43.6882969895745106 23.5961043759422537 28.1128704123049964
 18.3209151114814510  8.9502363868277595 28.1128704123049964
 46.5068669661366982  4.0683292100162243 28.1128704123049964
 60.5998427918756022 13.8322167929792403 28.1128704123049964
 29.5952788442297496 18.7141971991307194 28.1128704123049964
 43.6882125941766972  4.0683292100162243 28.1128704123049964
 35.2324184722697566 18.7141971991307194 28.1128704123049964
 40.8696426582497523 18.7141971991307194 28.1128704123049964
 29.5952789661366928  4.0683292100162243 28.1128704123049964
 49.3254789778556031 13.8322167929792403 28.1128704123049964
 71.8742066058955942 13.8322167929792403 28.1128704123049964
 35.2325031114814493  8.9502363868277595 28.1128704123049964
 40.8696427395214528  8.9502363868277595 28.1128704123049964
 43.6882547918756003 13.8322167929792403 28.1128704123049964
 52.1440911114814512  8.9502363868277595 28.1128704123049964
 38.0510306058956047 13.8322167929792403 28.1128704123049964
 -2.8186122690778692 21.1551507875364884 28.1128704123049964
  7.0464667801566900  4.0683292100162243 28.1128704123049964
  4.2278969661366892  4.0683292100162243 28.1128704123049964
 60.5998851114814414  8.9502363868277595 28.1128704123049964
 63.4184549255014502  8.9502363868277595 28.1128704123049964
 26.7766245941766883  4.0683292100162243 28.1128704123049964
 35.2324607918756030 13.8322167929792403 28.1128704123049964
 54.9626609661366956  4.0683292100162243 28.1128704123049964
 74.6928609778556023 13.8322167929792403 28.1128704123049964
 64.8277398528290689  6.5092827984219914 28.1128704123049964
 14.0930180505279825 16.2731703813850075 28.1128704123049964
 25.3673818645479834 16.2731703813850075 28.1128704123049964
 78.9207580388090690  6.5092827984219914 28.1128704123049964
 31.0045638528290759  6.5092827984219914 28.1128704123049964
  8.4557938645479798 16.2731703813850075 28.1128704123049964
 33.8231758645479843 16.2731703813850075 28.1128704123049964
 28.1859940388090742  6.5092827984219914 28.1128704123049964
  2.8185696785679806 16.2731703813850075 28.1128704123049964
 57.7812307801566902  4.0683292100162243 28.1128704123049964
 -1.4093272604785494  8.9502363868277595 28.1128704123049964
 -2.8185699494720202 16.2731703813850075 28.1128704123049964
 59.1905578645479835 16.2731703813850075 28.1128704123049964
 62.0091276785679781 16.2731703813850075 28.1128704123049964
  2.8186120388090696  6.5092827984219914 28.1128704123049964
 -8.4557941354520185 16.2731703813850075 28.1128704123049964
 73.2835760505279836 16.2731703813850075 28.1128704123049964
 -7.0465515277302488 18.7141971991307194 28.1128704123049964
 71.8742489661366903  4.0683292100162243 28.1128704123049964
 15.5022607395214518  8.9502363868277595 28.1128704123049964
  5.6371818528290705  6.5092827984219914 28.1128704123049964
 29.5952366058956002 13.8322167929792403 28.1128704123049964
 19.7301576785679771 16.2731703813850075 28.1128704123049964
  2.8186119169021282 21.1551507875364884 28.1128704123049964
 59.1905579864549196  1.6273023922705114 28.1128704123049964
 14.0929335332232206 11.3912632045734714 28.1128704123049964
 45.0975819169021293 21.1551507875364884 28.1128704123049964
 16.9115879051832216 11.3912632045734714 28.1128704123049964
 47.9161517309221239 21.1551507875364884 28.1128704123049964
 45.0975398004749266  1.6273023922705114 28.1128704123049964
 19.7301577192032234 11.3912632045734714 28.1128704123049964
 47.9161095332232136 11.3912632045734714 28.1128704123049964
 18.3208727918756047 13.8322167929792403 28.1128704123049964
 31.0046061724349222  1.6273023922705114 28.1128704123049964
  1.4092847918756004 13.8322167929792403 28.1128704123049964
 22.5488121724349213  1.6273023922705114 28.1128704123049964
 73.2834915332232129 11.3912632045734714 28.1128704123049964
 64.8276975332232155 11.3912632045734714 28.1128704123049964
 38.0510728035945078 23.5961043759422537 28.1128704123049964
 16.9115879864549186  1.6273023922705114 28.1128704123049964
 56.3719035332232110 11.3912632045734714 28.1128704123049964
 62.0091277192032209 11.3912632045734714 28.1128704123049964
 29.5952788035945140 23.5961043759422537 28.1128704123049964
  5.6371395332232206 11.3912632045734714 28.1128704123049964
 67.6463095449421274 21.1551507875364884 28.1128704123049964
 21.1394426058955993 13.8322167929792403 28.1128704123049964
 23.9580969778556039 13.8322167929792403 28.1128704123049964
 76.1021459864549144  1.6273023922705114 28.1128704123049964
  8.4557515449421317 21.1551507875364884 28.1128704123049964
 -5.6372242807967794 11.3912632045734714 28.1128704123049964
 69.0556791114814530  8.9502363868277595 28.1128704123049964
 14.0929757309221344 21.1551507875364884 28.1128704123049964
 78.9207158004749090  1.6273023922705114 28.1128704123049964
  1.4093267322155492 54.5151427464417537 28.6327538495249954
 33.8231755259173212 56.9561695641874692 28.6327538495249954
 31.0046057118973302 56.9561695641874692 28.6327538495249954
 23.9581389181955480 54.5151427464417537 28.6327538495249954
 -8.4557521544768282 52.0741891580359919 28.6327538495249954
 -1.4092430818044526 54.5151427464417537 28.6327538495249954
  0.0000422112439907  8.1365851906925037 28.6327538495249954
 -21.1394854537644470 54.5151427464417537 28.6327538495249954
 52.1440910979363750 10.5775387790982709 28.6327538495249954
 53.5533760252639937  8.1365851906925037 28.6327538495249954
 -18.3208310818044460 54.5151427464417537 28.6327538495249954
  2.8186116595431669 52.0741891580359919 28.6327538495249954
 50.7347635259173302 56.9561695641874692 28.6327538495249954
 -11.2744065264368292 52.0741891580359919 28.6327538495249954
 -32.4138915873902960 59.3971231525932382 28.6327538495249954
 -19.7302005264368283 52.0741891580359919 28.6327538495249954
 -29.5952372154302985 59.3971231525932382 28.6327538495249954
 -2.8186121607160102  8.1365851906925037 28.6327538495249954
 -22.5487703404568300 52.0741891580359919 28.6327538495249954
 -18.3208734014102959 59.3971231525932382 28.6327538495249954
 -9.8650370818044468 54.5151427464417537 28.6327538495249954
 47.9161937118973214 56.9561695641874692 28.6327538495249954
 28.1859513399373292 56.9561695641874692 28.6327538495249954
  2.8186120252639890  8.1365851906925037 28.6327538495249954
 -4.2278970880436288 10.5775387790982709 28.6327538495249954
 42.2790118455231720 52.0741891580359919 28.6327538495249954
 36.6417880252639918  8.1365851906925037 28.6327538495249954
 21.1394845462355612 54.5151427464417537 28.6327538495249954
 35.2325027322155506 54.5151427464417537 28.6327538495249954
 39.4603574735631781 52.0741891580359919 28.6327538495249954
 31.0045638392839891  8.1365851906925037 28.6327538495249954
 18.3209147322155452 54.5151427464417537 28.6327538495249954
 43.6882967322155622 54.5151427464417537 28.6327538495249954
 -9.8650794014102949 59.3971231525932382 28.6327538495249954
 46.5068665462355568 54.5151427464417537 28.6327538495249954
 15.5023452839163713 10.5775387790982709 28.6327538495249954
  7.0465509181955595 54.5151427464417537 28.6327538495249954
 49.3255209181955507 54.5151427464417537 28.6327538495249954
 18.3209150979363713 10.5775387790982709 28.6327538495249954
 64.8277398392839928  8.1365851906925037 28.6327538495249954
 16.9116302112439918  8.1365851906925037 28.6327538495249954
 -19.7301582881026789 56.9561695641874692 28.6327538495249954
 -16.9115884740826736 56.9561695641874692 28.6327538495249954
  8.4558358455231772 52.0741891580359919 28.6327538495249954
  4.2278965462355513 54.5151427464417537 28.6327538495249954
  2.8185693399373224 56.9561695641874692 28.6327538495249954
  5.6371814735631682 52.0741891580359919 28.6327538495249954
 35.2325030979363731 10.5775387790982709 28.6327538495249954
 19.7301573399373318 56.9561695641874692 28.6327538495249954
 22.5488117118973186 56.9561695641874692 28.6327538495249954
 25.3673815259173274 56.9561695641874692 28.6327538495249954
 15.5023449181955559 54.5151427464417537 28.6327538495249954
 -11.2743643287379136 61.8380767409990000 28.6327538495249954
 -7.0465095873903012 59.3971231525932382 28.6327538495249954
 -1.4092432037113782 69.1610107355562462 28.6327538495249954
 -4.2278975756713866 69.1610107355562462 28.6327538495249954
 63.4184972721974631  0.8136511961352557 28.6327538495249954
 74.6928610862174764  0.8136511961352557 28.6327538495249954
 -18.3208312037113821 69.1610107355562462 28.6327538495249954
 77.5114309002374711  0.8136511961352557 28.6327538495249954
 -35.2324192037113804 69.1610107355562462 28.6327538495249954
 -38.0510735756713814 69.1610107355562462 28.6327538495249954
 45.0975815376362448 66.7200571471504844 28.6327538495249954
 80.3300852721974650  0.8136511961352557 28.6327538495249954
 33.8232177236162386 66.7200571471504844 28.6327538495249954
 31.0045633516562411 66.7200571471504844 28.6327538495249954
  2.8186543448698407  3.2546047845410229 28.6327538495249954
 28.1859935376362323 66.7200571471504844 28.6327538495249954
 25.3674237236162377 66.7200571471504844 28.6327538495249954
  5.6372241588898389  3.2546047845410229 28.6327538495249954
 22.5487693516562366 66.7200571471504844 28.6327538495249954
 11.2744055376362251 66.7200571471504844 28.6327538495249954
  8.4557939729098397  3.2546047845410229 28.6327538495249954
 60.5998429002374621  0.8136511961352557 28.6327538495249954
  8.4558357236162376 66.7200571471504844 28.6327538495249954
  1.4093266103086164 69.1610107355562462 28.6327538495249954
 57.7812730862174604  0.8136511961352557 28.6327538495249954
 36.6417452180303869 71.6020375533019688 28.6327538495249954
 15.5023030862174611  0.8136511961352557 28.6327538495249954
 18.3208729002374611  0.8136511961352557 28.6327538495249954
 22.5488115899903860 71.6020375533019688 28.6327538495249954
 14.0930175899903762 71.6020375533019688 28.6327538495249954
 21.1395272721974621  0.8136511961352557 28.6327538495249954
 11.2743632180303894 71.6020375533019688 28.6327538495249954
 -5.6372247819696195 71.6020375533019688 28.6327538495249954
 29.5953212721974559  0.8136511961352557 28.6327538495249954
 -8.4557945959896212 71.6020375533019688 28.6327538495249954
 -25.3673825959896213 71.6020375533019688 28.6327538495249954
 32.4138910862174541  0.8136511961352557 28.6327538495249954
 -28.1859524100096195 71.6020375533019688 28.6327538495249954
 43.6882549002374461  0.8136511961352557 28.6327538495249954
 29.5952784243286260 69.1610107355562462 28.6327538495249954
 26.7767086103086172 69.1610107355562462 28.6327538495249954
 23.9581387962886225 69.1610107355562462 28.6327538495249954
 46.5069092721974613  0.8136511961352557 28.6327538495249954
 12.6836904243286224 69.1610107355562462 28.6327538495249954
  9.8651206103086064 69.1610107355562462 28.6327538495249954
 49.3254367666116167  5.6956316022867357 28.6327538495249954
  0.0000417236162395 66.7200571471504844 28.6327538495249954
 -16.9115462763837670 66.7200571471504844 28.6327538495249954
 76.1021459729098524  3.2546047845410229 28.6327538495249954
 11.2744478572420874 61.8380767409990000 28.6327538495249954
 78.9208003448698463  3.2546047845410229 28.6327538495249954
  8.4557934852820722 61.8380767409990000 28.6327538495249954
  4.2278969525916086  5.6956316022867357 28.6327538495249954
 -8.4557945147179190 61.8380767409990000 28.6327538495249954
 -25.3673401544768282 52.0741891580359919 28.6327538495249954
  7.0464667666116103  5.6956316022867357 28.6327538495249954
 -25.3673825147179137 61.8380767409990000 28.6327538495249954
 26.7767091385716043  5.6956316022867357 28.6327538495249954
 -28.1859523287379155 61.8380767409990000 28.6327538495249954
 -31.0045221427579136 61.8380767409990000 28.6327538495249954
 29.5952789525916060  5.6956316022867357 28.6327538495249954
 40.8696845985897141 59.3971231525932382 28.6327538495249954
 29.5953207845697079 59.3971231525932382 28.6327538495249954
 26.7766664126097069 59.3971231525932382 28.6327538495249954
 43.6882971385716132  5.6956316022867357 28.6327538495249954
 12.6837327845697061 59.3971231525932382 28.6327538495249954
 46.5068669525916008  5.6956316022867357 28.6327538495249954
 73.2835761588898578  3.2546047845410229 28.6327538495249954
 -2.8186126483437688 66.7200571471504844 28.6327538495249954
 36.6418298572420866 61.8380767409990000 28.6327538495249954
 -29.5952795350361448 64.2791035587447084 28.6327538495249954
 16.9115879729098388  3.2546047845410229 28.6327538495249954
 -19.7302006483437680 66.7200571471504844 28.6327538495249954
 25.3673819729098362  3.2546047845410229 28.6327538495249954
 -36.6417886483437698 66.7200571471504844 28.6327538495249954
 28.1860363448698337  3.2546047845410229 28.6327538495249954
 43.6882966509438617 64.2791035587447084 28.6327538495249954
 40.8696422789838678 64.2791035587447084 28.6327538495249954
 31.0046061588898354  3.2546047845410229 28.6327538495249954
 42.2789699729098274  3.2546047845410229 28.6327538495249954
 45.0976243448698426  3.2546047845410229 28.6327538495249954
 12.6836904649638509 64.2791035587447084 28.6327538495249954
  9.8651206509438563 64.2791035587447084 28.6327538495249954
  1.4093266509438596 64.2791035587447084 28.6327538495249954
 47.9161941588898301  3.2546047845410229 28.6327538495249954
 -7.0464673490561447 64.2791035587447084 28.6327538495249954
 -18.3209157210161457 64.2791035587447084 28.6327538495249954
 59.1905579729098434  3.2546047845410229 28.6327538495249954
 -26.7767097210161431 64.2791035587447084 28.6327538495249954
 62.0092123448698445  3.2546047845410229 28.6327538495249954
 70.4650063448698489  3.2546047845410229 28.6327538495249954
 54.9626605868708040 49.6332355696302230 28.6327538495249954
 16.9115878916381419 13.0185655968439828 28.6327538495249954
 40.8696424008908039 49.6332355696302230 28.6327538495249954
 45.0976242229628923 17.9004727736555189 28.6327538495249954
 -0.0000002709040391 32.5463407627700150 28.6327538495249954
 -2.8185700849240374 32.5463407627700150 28.6327538495249954
 -8.4557942709040379 32.5463407627700150 28.6327538495249954
 -16.9115882709040370 32.5463407627700150 28.6327538495249954
 53.5534182229629039 17.9004727736555189 28.6327538495249954
 66.2370668424035927 30.1053871743642461 28.6327538495249954
 63.4184970283835838 30.1053871743642461 28.6327538495249954
 56.3719880369828985 17.9004727736555189 28.6327538495249954
 60.5998426564235899 30.1053871743642461 28.6327538495249954
 52.1440486564235925 30.1053871743642461 28.6327538495249954
 67.6463518510029047 17.9004727736555189 28.6327538495249954
 49.3254788424035837 30.1053871743642461 28.6327538495249954
 -7.0464669833353293 20.3414995914012344 28.6327538495249954
 -4.2278971693153311 20.3414995914012344 28.6327538495249954
 29.5953210283835837 30.1053871743642461 28.6327538495249954
 26.7766666564235685 30.1053871743642461 28.6327538495249954
 23.9580968424035810 30.1053871743642461 28.6327538495249954
 15.5023028424035783 30.1053871743642461 28.6327538495249954
 33.8231758510028868 17.9004727736555189 28.6327538495249954
 -1.4093273552953294 20.3414995914012344 28.6327538495249954
 28.1860361010559650 32.5463407627700150 28.6327538495249954
 39.4603999150759606 32.5463407627700150 28.6327538495249954
 38.0510727087777383 34.9873675805157234 28.6327538495249954
 35.2325028947577295 34.9873675805157234 28.6327538495249954
 74.6928609643105261 15.4595191852497500 28.6327538495249954
 29.5952787087777267 34.9873675805157234 28.6327538495249954
 -8.4557941489970982 17.9004727736555189 28.6327538495249954
 15.5022605227977337 34.9873675805157234 28.6327538495249954
 -5.6371397770370981 17.9004727736555189 28.6327538495249954
 -2.8185699630171004 17.9004727736555189 28.6327538495249954
  9.8651208947577302 34.9873675805157234 28.6327538495249954
  8.4557938510029000 17.9004727736555189 28.6327538495249954
  7.0464665227977319 34.9873675805157234 28.6327538495249954
 11.2744482229629011 17.9004727736555189 28.6327538495249954
 -9.8651214772022673 34.9873675805157234 28.6327538495249954
 14.0930180369829028 17.9004727736555189 28.6327538495249954
 64.8277819150759740 32.5463407627700150 28.6327538495249954
 50.7347637290959668 32.5463407627700150 28.6327538495249954
 25.3673818510029001 17.9004727736555189 28.6327538495249954
 42.2789697290959623 32.5463407627700150 28.6327538495249954
 28.1860362229629082 17.9004727736555189 28.6327538495249954
 31.0046060369829029 17.9004727736555189 28.6327538495249954
 49.3254365227977445 34.9873675805157234 28.6327538495249954
  1.4092846564235810 30.1053871743642461 28.6327538495249954
  1.4093270166646681 20.3414995914012344 28.6327538495249954
 69.0556789760294407 25.2234067682127652 28.6327538495249954
 69.0556790166646692 20.3414995914012344 28.6327538495249954
 66.2371091620094319 25.2234067682127652 28.6327538495249954
 -2.8186122826229494 22.7824531798069998 28.6327538495249954
 57.7813151620094345 25.2234067682127652 28.6327538495249954
  8.4558360893370512 22.7824531798069998 28.6327538495249954
 54.9626607900494406 25.2234067682127652 28.6327538495249954
 52.1440909760294318 25.2234067682127652 28.6327538495249954
 40.8697271620094256 25.2234067682127652 28.6327538495249954
 38.0510727900494388 25.2234067682127652 28.6327538495249954
 29.5952787900494201 25.2234067682127652 28.6327538495249954
 36.6417879033570415 22.7824531798069998 28.6327538495249954
 21.1394847900494298 25.2234067682127652 28.6327538495249954
 15.5023451620094264 25.2234067682127652 28.6327538495249954
  9.8651209760294343 25.2234067682127652 28.6327538495249954
  7.0465511620094325 25.2234067682127652 28.6327538495249954
 39.4603577173770574 22.7824531798069998 28.6327538495249954
 42.2790120893370442 22.7824531798069998 28.6327538495249954
 67.6463940893370506 22.7824531798069998 28.6327538495249954
 66.2370246447046753 20.3414995914012344 28.6327538495249954
 -1.4092851575964171 30.1053871743642461 28.6327538495249954
 -8.4557942302688005 27.6644335859584807 28.6327538495249954
  8.4557937697312031 27.6644335859584807 28.6327538495249954
 -4.2278549716164209 30.1053871743642461 28.6327538495249954
 -7.0465093435764183 30.1053871743642461 28.6327538495249954
 -9.8650791575964192 30.1053871743642461 28.6327538495249954
 67.6463517697312113 27.6644335859584807 28.6327538495249954
 59.1905577697312140 27.6644335859584807 28.6327538495249954
 56.3719879557112051 27.6644335859584807 28.6327538495249954
 53.5533335837512112 27.6644335859584807 28.6327538495249954
 12.6836908306846716 20.3414995914012344 28.6327538495249954
 42.2789697697312050 27.6644335859584807 28.6327538495249954
 39.4603999557111962 27.6644335859584807 28.6327538495249954
 36.6417455837512094 27.6644335859584807 28.6327538495249954
 28.1859515837511907 27.6644335859584807 28.6327538495249954
 15.5022606447046662 20.3414995914012344 28.6327538495249954
 25.3673817697312032 27.6644335859584807 28.6327538495249954
 26.7767090166646753 20.3414995914012344 28.6327538495249954
 22.5488119557112086 27.6644335859584807 28.6327538495249954
 29.5952788306846699 20.3414995914012344 28.6327538495249954
 19.7301575837512004 27.6644335859584807 28.6327538495249954
 16.9115877697311987 27.6644335859584807 28.6327538495249954
 46.5068668306846718 20.3414995914012344 28.6327538495249954
 60.5998850979363723 10.5775387790982709 28.6327538495249954
 71.8742911502905173 15.4595191852497500 28.6327538495249954
 57.7812729643105243 15.4595191852497500 28.6327538495249954
 -11.2743642068309775 47.1922087518845075 28.6327538495249954
 57.7812727204966521 44.7512551634787386 28.6327538495249954
 40.8696847204966431 44.7512551634787386 28.6327538495249954
 35.2324605345166475 44.7512551634787386 28.6327538495249954
 36.6417457056581313 13.0185655968439828 28.6327538495249954
 32.4138907204966458 44.7512551634787386 28.6327538495249954
 29.5953209064766369 44.7512551634787386 28.6327538495249954
 23.9580967204966342 44.7512551634787386 28.6327538495249954
 15.5023027204966439 44.7512551634787386 28.6327538495249954
 42.2789698916381340 13.0185655968439828 28.6327538495249954
 12.6837329064766493 44.7512551634787386 28.6327538495249954
 45.0975397056581500 13.0185655968439828 28.6327538495249954
  4.2279389064766386 44.7512551634787386 28.6327538495249954
  1.4092845345166412 44.7512551634787386 28.6327538495249954
 -15.5023034654833562 44.7512551634787386 28.6327538495249954
 47.9161940776181368 13.0185655968439828 28.6327538495249954
 59.1905576478242708 42.3103015750729767 28.6327538495249954
 56.3719878338042619 42.3103015750729767 28.6327538495249954
 45.0975394618442706 42.3103015750729767 28.6327538495249954
 22.5488120776181340 13.0185655968439828 28.6327538495249954
 42.2789696478242618 42.3103015750729767 28.6327538495249954
 -8.4557943928109793 47.1922087518845075 28.6327538495249954
 19.7301577056581365 13.0185655968439828 28.6327538495249954
 29.5952785868707942 49.6332355696302230 28.6327538495249954
 15.5022604008907816 49.6332355696302230 28.6327538495249954
 63.4184549119563812 10.5775387790982709 28.6327538495249954
 12.6836905868707941 49.6332355696302230 28.6327538495249954
 74.6929032839163654 10.5775387790982709 28.6327538495249954
 -7.0464672271492059 49.6332355696302230 28.6327538495249954
 -9.8651215991092069 49.6332355696302230 28.6327538495249954
  5.6372240776181393 13.0185655968439828 28.6327538495249954
 -26.7767095991092070 49.6332355696302230 28.6327538495249954
  8.4557938916381428 13.0185655968439828 28.6327538495249954
 53.5534179791490246 47.1922087518845075 28.6327538495249954
 11.2743637056581409 13.0185655968439828 28.6327538495249954
 50.7347636071890307 47.1922087518845075 28.6327538495249954
 45.0975819033570531 22.7824531798069998 28.6327538495249954
 47.9161937931690360 47.1922087518845075 28.6327538495249954
 33.8231756071890288 47.1922087518845075 28.6327538495249954
 31.0046057931690235 47.1922087518845075 28.6327538495249954
 28.1860359791490147 47.1922087518845075 28.6327538495249954
 16.9115876071890092 47.1922087518845075 28.6327538495249954
 14.0930177931690217 47.1922087518845075 28.6327538495249954
 60.5998427783305331 15.4595191852497500 28.6327538495249954
 56.3719880776181483 13.0185655968439828 28.6327538495249954
 70.4649217056581421 13.0185655968439828 28.6327538495249954
 -9.8650369598975125 39.8692747573272612 28.6327538495249954
 -15.5022611458775117 39.8692747573272612 28.6327538495249954
 -18.3208309598975099 39.8692747573272612 28.6327538495249954
 23.9580969643105171 15.4595191852497500 28.6327538495249954
 59.1905999674301100 37.4283211689214923 28.6327538495249954
 50.7348059674301126 37.4283211689214923 28.6327538495249954
 26.7766667783305188 15.4595191852497500 28.6327538495249954
 47.9161515954701187 37.4283211689214923 28.6327538495249954
 29.5953211502905269 15.4595191852497500 28.6327538495249954
 36.6417877814501125 37.4283211689214923 28.6327538495249954
 33.8232179674301037 37.4283211689214923 28.6327538495249954
 22.5487695954701017 37.4283211689214923 28.6327538495249954
 14.0929755954701115 37.4283211689214923 28.6327538495249954
 35.2324607783305126 15.4595191852497500 28.6327538495249954
 11.2744057814501097 37.4283211689214923 28.6327538495249954
 43.6882547783305313 15.4595191852497500 28.6327538495249954
 -8.4557520325698885 37.4283211689214923 28.6327538495249954
 46.5069091502905181 15.4595191852497500 28.6327538495249954
 54.9627031502905297 15.4595191852497500 28.6327538495249954
 15.5023029643105232 15.4595191852497500 28.6327538495249954
 59.1905578916381430 13.0185655968439828 28.6327538495249954
 -1.4092429598975091 39.8692747573272612 28.6327538495249954
  1.4093268541224926 39.8692747573272612 28.6327538495249954
 22.5488118338042653 42.3103015750729767 28.6327538495249954
 73.2835760776181360 13.0185655968439828 28.6327538495249954
  2.8185694618442589 42.3103015750729767 28.6327538495249954
 -0.0000003521757358 42.3103015750729767 28.6327538495249954
 -2.8185701661957374 42.3103015750729767 28.6327538495249954
 -14.0930185381557376 42.3103015750729767 28.6327538495249954
 76.1021458916381448 13.0185655968439828 28.6327538495249954
 -16.9115883521757375 42.3103015750729767 28.6327538495249954
 -19.7301581661957393 42.3103015750729767 28.6327538495249954
 60.5998848541225001 39.8692747573272612 28.6327538495249954
 57.7813150401024913 39.8692747573272612 28.6327538495249954
 52.1440908541225028 39.8692747573272612 28.6327538495249954
 49.3255210401024939 39.8692747573272612 28.6327538495249954
  1.4092847783305213 15.4595191852497500 28.6327538495249954
 23.9581390401024947 39.8692747573272612 28.6327538495249954
 21.1394846681424795 39.8692747573272612 28.6327538495249954
  4.2279391502905188 15.4595191852497500 28.6327538495249954
  4.2278966681424874 39.8692747573272612 28.6327538495249954
  9.8650787783305205 15.4595191852497500 28.6327538495249954
 12.6837331502905215 15.4595191852497500 28.6327538495249954
 52.1440908947577384 34.9873675805157234 28.6327538495249954
