 H  O 
 1.0000000000000000
    84.5579400000000021    0.0000000000000000    0.0000000000000000
   -42.2789706095346958   73.2293399455724767    0.0000000000000000
     0.0000000000000000    0.0000000000000000   46.9039550000000034
 H   O  
 260 232
Cartesian
 12.6836906816875779 38.2419723650567462 28.1128704123049964
 -1.4092852659582757 43.1239527712082307 28.1128704123049964
 -7.0465094519382783 43.1239527712082307 28.1128704123049964
 -9.8650792659582809 43.1239527712082307 28.1128704123049964
 -12.6837336379182783 43.1239527712082307 28.1128704123049964
 -23.9580974519382757 43.1239527712082307 28.1128704123049964
 47.9161092894093343 40.6829991828024689 28.1128704123049964
 42.2789696613693309 40.6829991828024689 28.1128704123049964
 36.6417454753893352 40.6829991828024689 28.1128704123049964
 25.3673816613693432 40.6829991828024689 28.1128704123049964
 16.9115876613693388 40.6829991828024689 28.1128704123049964
 -16.9115883386306614 40.6829991828024689 28.1128704123049964
 60.5998848676675763 38.2419723650567462 28.1128704123049964
 38.0510726816875717 38.2419723650567462 28.1128704123049964
 29.5952786816875744 38.2419723650567462 28.1128704123049964
 23.9580544957075787 38.2419723650567462 28.1128704123049964
 21.1394846816875770 38.2419723650567462 28.1128704123049964
 21.1394421182678336 72.4156887494372228 28.1128704123049964
  1.4092845480617260 43.1239527712082307 28.1128704123049964
  4.2278966816875769 38.2419723650567462 28.1128704123049964
  7.0465087340417254 43.1239527712082307 28.1128704123049964
 21.1394423620817271 43.1239527712082307 28.1128704123049964
 29.5952786004158739 48.0059331773597151 28.1128704123049964
  9.8650362284558710 48.0059331773597151 28.1128704123049964
  7.0464664144358764 48.0059331773597151 28.1128704123049964
  1.4092422284558699 48.0059331773597151 28.1128704123049964
 -12.6836913995841307 48.0059331773597151 28.1128704123049964
 56.3719878067141025 45.5649063596139996 28.1128704123049964
 50.7347636207340997 45.5649063596139996 28.1128704123049964
 42.2789696207341024 45.5649063596139996 28.1128704123049964
 39.4603998067140935 45.5649063596139996 28.1128704123049964
 33.8231756207340979 45.5649063596139996 28.1128704123049964
 31.0046058067141033 45.5649063596139996 28.1128704123049964
 22.5488118067141059 45.5649063596139996 28.1128704123049964
  2.8185694347540982 45.5649063596139996 28.1128704123049964
 -16.9115883792659005 45.5649063596139996 28.1128704123049964
 -19.7301581932858987 45.5649063596139996 28.1128704123049964
 -25.3673823792659014 45.5649063596139996 28.1128704123049964
 38.0510303620817112 43.1239527712082307 28.1128704123049964
 12.6836483620817209 43.1239527712082307 28.1128704123049964
 32.4138484144358685 48.0059331773597151 28.1128704123049964
 -4.2278973183124275 38.2419723650567462 28.1128704123049964
 -15.5022611323324266 38.2419723650567462 28.1128704123049964
  8.4557937426410454 30.9190383704995000 28.1128704123049964
 -0.0000002573589589 30.9190383704995000 28.1128704123049964
 66.2370668559486688 28.4780847820937346 28.1128704123049964
 54.9626184839886562 28.4780847820937346 28.1128704123049964
 43.6882546699686571 28.4780847820937346 28.1128704123049964
 38.0510304839886544 28.4780847820937346 28.1128704123049964
 21.1394424839886597 28.4780847820937346 28.1128704123049964
 12.6836484839886605 28.4780847820937346 28.1128704123049964
 67.6463517832762875 26.0371311936879657 28.1128704123049964
 59.1905577832762830 26.0371311936879657 28.1128704123049964
 42.2789697832762812 26.0371311936879657 28.1128704123049964
 39.4603154113162731 26.0371311936879657 28.1128704123049964
 31.0045214113162864 26.0371311936879657 28.1128704123049964
 25.3673817832762829 26.0371311936879657 28.1128704123049964
 22.5487274113162819 26.0371311936879657 28.1128704123049964
 19.7301575972962873 26.0371311936879657 28.1128704123049964
 -2.8186545886837178 26.0371311936879657 28.1128704123049964
 16.9115877426410464 30.9190383704995000 28.1128704123049964
 -12.6836913183124267 38.2419723650567462 28.1128704123049964
 25.3673817426410437 30.9190383704995000 28.1128704123049964
 39.4603999286210438 30.9190383704995000 28.1128704123049964
 59.1905154230351869 35.8010187766509844 28.1128704123049964
 50.7347214230351895 35.8010187766509844 28.1128704123049964
 16.9115454230351894 35.8010187766509844 28.1128704123049964
 11.2744057949951930 35.8010187766509844 28.1128704123049964
  2.8186117949951930 35.8010187766509844 28.1128704123049964
 -11.2744063909848098 35.8010187766509844 28.1128704123049964
 63.4184547223228137 33.3600651882452155 28.1128704123049964
 54.9626607223228163 33.3600651882452155 28.1128704123049964
 46.5068667223228047 33.3600651882452155 28.1128704123049964
 38.0510727223228145 33.3600651882452155 28.1128704123049964
 21.1394847223228126 33.3600651882452155 28.1128704123049964
 12.6836907223228135 33.3600651882452155 28.1128704123049964
 -7.0465516496371885 33.3600651882452155 28.1128704123049964
 -12.6836912776771893 33.3600651882452155 28.1128704123049964
 56.3719879286210457 30.9190383704995000 28.1128704123049964
 50.7347637426410429 30.9190383704995000 28.1128704123049964
 47.9161939286210341 30.9190383704995000 28.1128704123049964
 33.8231757426410411 30.9190383704995000 28.1128704123049964
 -8.4557942167237172 26.0371311936879657 28.1128704123049964
 -19.7302005128917450 50.4468867657654769 28.1128704123049964
 -5.6371823269117440 50.4468867657654769 28.1128704123049964
 -18.3209157481063052 67.5337083432857384 28.1128704123049964
 -26.7767097481063061 67.5337083432857384 28.1128704123049964
 42.2789271792213057 65.0927547548799765 28.1128704123049964
 33.8231331792213084 65.0927547548799765 28.1128704123049964
 25.3673391792213039 65.0927547548799765 28.1128704123049964
 16.9115451792213065 65.0927547548799765 28.1128704123049964
 11.2744055511813173 65.0927547548799765 28.1128704123049964
  5.6371813652013136 65.0927547548799765 28.1128704123049964
  2.8186115511813119 65.0927547548799765 28.1128704123049964
 -0.0000428207786890 65.0927547548799765 28.1128704123049964
 -2.8186126347986837 65.0927547548799765 28.1128704123049964
 -25.3674248207786874 65.0927547548799765 28.1128704123049964
 -28.1859946347986892 65.0927547548799765 28.1128704123049964
 -31.0045644488186873 65.0927547548799765 28.1128704123049964
 40.8696422925289298 62.6518011664742076 28.1128704123049964
 21.1394844785089369 62.6518011664742076 28.1128704123049964
  1.4092421065489333 62.6518011664742076 28.1128704123049964
 -12.6836915621263024 67.5337083432857384 28.1128704123049964
 -7.0465518934510678 62.6518011664742076 28.1128704123049964
 -7.0464673761463033 67.5337083432857384 28.1128704123049964
 23.9580542518936852 67.5337083432857384 28.1128704123049964
 15.5023024902278443 72.4156887494372228 28.1128704123049964
 12.6836481182678362 72.4156887494372228 28.1128704123049964
 -18.3208735097721558 72.4156887494372228 28.1128704123049964
 -32.4138916957521559 72.4156887494372228 28.1128704123049964
 -35.2324615097721576 72.4156887494372228 28.1128704123049964
 -40.8696856957521533 72.4156887494372228 28.1128704123049964
 36.6417452315754701 69.9747351610314468 28.1128704123049964
 31.0045210455954674 69.9747351610314468 28.1128704123049964
 22.5487270455954629 69.9747351610314468 28.1128704123049964
  5.6371390455954664 69.9747351610314468 28.1128704123049964
  2.8185692315754580 69.9747351610314468 28.1128704123049964
 -11.2744489544045354 69.9747351610314468 28.1128704123049964
 -28.1860369544045355 69.9747351610314468 28.1128704123049964
 -33.8231765824445318 69.9747351610314468 28.1128704123049964
 43.6882966238536952 67.5337083432857384 28.1128704123049964
 29.5952784378736951 67.5337083432857384 28.1128704123049964
 26.7767086238536862 67.5337083432857384 28.1128704123049964
  1.4093266238536943 67.5337083432857384 28.1128704123049964
 -14.0929763269117494 50.4468867657654769 28.1128704123049964
 -12.6836915214910633 62.6518011664742076 28.1128704123049964
 36.6417453128471564 60.2107743487284921 28.1128704123049964
 -8.4557944605375948 55.3288671719169614 28.1128704123049964
 -11.2744488324975958 55.3288671719169614 28.1128704123049964
 -19.7302428324975985 55.3288671719169614 28.1128704123049964
 52.1440907457606357 52.8878403541712458 28.1128704123049964
 46.5068665597806330 52.8878403541712458 28.1128704123049964
 43.6882967457606384 52.8878403541712458 28.1128704123049964
 40.8696423738006303 52.8878403541712458 28.1128704123049964
 38.0510725597806356 52.8878403541712458 28.1128704123049964
 32.4138483738006258 52.8878403541712458 28.1128704123049964
 12.6836905597806329 52.8878403541712458 28.1128704123049964
 -15.5022612542393716 52.8878403541712458 28.1128704123049964
 50.7347213011282463 50.4468867657654769 28.1128704123049964
 28.1859936730882552 50.4468867657654769 28.1128704123049964
 22.5487694871082525 50.4468867657654769 28.1128704123049964
 11.2744056730882534 50.4468867657654769 28.1128704123049964
  8.4557513011282524 50.4468867657654769 28.1128704123049964
 -2.8186125128917427 50.4468867657654769 28.1128704123049964
 -2.8186548324975988 55.3288671719169614 28.1128704123049964
 -15.5023458934510643 62.6518011664742076 28.1128704123049964
 14.0929331675024070 55.3288671719169614 28.1128704123049964
 -32.4138915738452127 57.7698207603227232 28.1128704123049964
 31.0046056848071565 60.2107743487284921 28.1128704123049964
 25.3673814988271609 60.2107743487284921 28.1128704123049964
 22.5488116848071662 60.2107743487284921 28.1128704123049964
 16.9115874988271635 60.2107743487284921 28.1128704123049964
 14.0930176848071671 60.2107743487284921 28.1128704123049964
  8.4557934988271644 60.2107743487284921 28.1128704123049964
  5.6372236848071626 60.2107743487284921 28.1128704123049964
 -0.0000005011728327 60.2107743487284921 28.1128704123049964
 -11.2743643151928357 60.2107743487284921 28.1128704123049964
 49.3254786121347877 57.7698207603227232 28.1128704123049964
 46.5068242401747796 57.7698207603227232 28.1128704123049964
 43.6882544261547849 57.7698207603227232 28.1128704123049964
 29.5952362401747777 57.7698207603227232 28.1128704123049964
  7.0465086121347857 57.7698207603227232 28.1128704123049964
  1.4092844261547897 57.7698207603227232 28.1128704123049964
 -21.1395277598252136 57.7698207603227232 28.1128704123049964
 -23.9580975738452153 57.7698207603227232 28.1128704123049964
 25.3673815394624036 55.3288671719169614 28.1128704123049964
 63.4184548035945070 23.5961043759422537 28.1128704123049964
 38.0510301182678390 72.4156887494372228 28.1128704123049964
 54.9626608035945097 23.5961043759422537 28.1128704123049964
 39.4604000505279870 16.2731703813850075 28.1128704123049964
 45.0975396785679763 16.2731703813850075 28.1128704123049964
 50.7347638645479790 16.2731703813850075 28.1128704123049964
  8.4557516668490695  6.5092827984219914 28.1128704123049964
 59.1905578645479835 16.2731703813850075 28.1128704123049964
 77.5113885941766796  4.0683292100162243 28.1128704123049964
 67.6463518645479809 16.2731703813850075 28.1128704123049964
 71.8742489661366903  4.0683292100162243 28.1128704123049964
 69.0555945941766822  4.0683292100162243 28.1128704123049964
 -9.8651213417502497 18.7141971991307194 28.1128704123049964
  2.8185697192032206 11.3912632045734714 28.1128704123049964
 -7.0465515277302488 18.7141971991307194 28.1128704123049964
 49.3254367801566929  4.0683292100162243 28.1128704123049964
 46.5068669661366982  4.0683292100162243 28.1128704123049964
 -4.2278971557702505 18.7141971991307194 28.1128704123049964
 38.0510729661366938  4.0683292100162243 28.1128704123049964
 35.2324185941766927  4.0683292100162243 28.1128704123049964
  1.4092424722697507 18.7141971991307194 28.1128704123049964
 32.4138487801566981  4.0683292100162243 28.1128704123049964
  7.0464666582497495 18.7141971991307194 28.1128704123049964
 15.5022606582497549 18.7141971991307194 28.1128704123049964
 26.7766245941766883  4.0683292100162243 28.1128704123049964
 21.1394848442297523 18.7141971991307194 28.1128704123049964
 26.7766244722697486 18.7141971991307194 28.1128704123049964
 29.5952788442297496 18.7141971991307194 28.1128704123049964
 38.0510728442297577 18.7141971991307194 28.1128704123049964
 43.6882124722697469 18.7141971991307194 28.1128704123049964
 33.8231758645479843 16.2731703813850075 28.1128704123049964
 31.0046060505279790 16.2731703813850075 28.1128704123049964
 28.1859940388090742  6.5092827984219914 28.1128704123049964
 36.6417880388090680  6.5092827984219914 28.1128704123049964
 11.2743637192032189 11.3912632045734714 28.1128704123049964
 16.9115879051832216 11.3912632045734714 28.1128704123049964
 22.5487275332232180 11.3912632045734714 28.1128704123049964
 25.3673819051832226 11.3912632045734714 28.1128704123049964
 28.1859517192032243 11.3912632045734714 28.1128704123049964
 54.9626609255014458  8.9502363868277595 28.1128704123049964
 49.3254367395214430  8.9502363868277595 28.1128704123049964
 31.0045215332232189 11.3912632045734714 28.1128704123049964
 39.4603155332232234 11.3912632045734714 28.1128704123049964
 42.2789699051832244 11.3912632045734714 28.1128704123049964
 35.2325031114814493  8.9502363868277595 28.1128704123049964
 59.1905579051832120 11.3912632045734714 28.1128704123049964
 62.0091277192032209 11.3912632045734714 28.1128704123049964
 46.5068668442297550 18.7141971991307194 28.1128704123049964
 73.2834915332232129 11.3912632045734714 28.1128704123049964
  1.4092847918756004 13.8322167929792403 28.1128704123049964
 35.2324607918756030 13.8322167929792403 28.1128704123049964
 52.1440487918755977 13.8322167929792403 28.1128704123049964
 69.0556367918755996 13.8322167929792403 28.1128704123049964
 -4.2278970744985491  8.9502363868277595 28.1128704123049964
 -8.4557941354520185 16.2731703813850075 28.1128704123049964
 -2.8185699494720202 16.2731703813850075 28.1128704123049964
 -0.0000001354520196 16.2731703813850075 28.1128704123049964
 78.9207580388090690  6.5092827984219914 28.1128704123049964
 76.1021036668490609  6.5092827984219914 28.1128704123049964
  2.8185696785679806 16.2731703813850075 28.1128704123049964
 67.6463096668490635  6.5092827984219914 28.1128704123049964
 59.1905156668490591  6.5092827984219914 28.1128704123049964
 76.1021459051832210 11.3912632045734714 28.1128704123049964
 21.1394849661366919  4.0683292100162243 28.1128704123049964
 63.4184549661366859  4.0683292100162243 28.1128704123049964
 50.7347639864549222  1.6273023922705114 28.1128704123049964
  2.8186119169021282 21.1551507875364884 28.1128704123049964
 81.7393701724349171  1.6273023922705114 28.1128704123049964
 31.0045637309221327 21.1551507875364884 28.1128704123049964
 39.4603577309221265 21.1551507875364884 28.1128704123049964
 76.1021459864549144  1.6273023922705114 28.1128704123049964
 42.2789275449421211 21.1551507875364884 28.1128704123049964
 35.2325029895745132 23.5961043759422537 28.1128704123049964
 50.7347215449421185 21.1551507875364884 28.1128704123049964
 59.1905155449421230 21.1551507875364884 28.1128704123049964
 19.7301578004749203  1.6273023922705114 28.1128704123049964
 67.6463095449421274 21.1551507875364884 28.1128704123049964
 21.1394848035945166 23.5961043759422537 28.1128704123049964
 -12.6836911964054888 23.5961043759422537 28.1128704123049964
 59.1905579864549196  1.6273023922705114 28.1128704123049964
 12.6836908035945140 23.5961043759422537 28.1128704123049964
 39.4604001724349231  1.6273023922705114 28.1128704123049964
 49.3254366582497497 18.7141971991307194 28.1128704123049964
 38.0510728035945078 23.5961043759422537 28.1128704123049964
 -0.0000424550578693 21.1551507875364884 28.1128704123049964
  4.2278968035945095 23.5961043759422537 28.1128704123049964
  7.0464667801566900  4.0683292100162243 28.1128704123049964
 11.2743638004749194  1.6273023922705114 28.1128704123049964
 43.6882969895745106 23.5961043759422537 28.1128704123049964
 -8.4558364550578684 21.1551507875364884 28.1128704123049964
 46.5068668035945052 23.5961043759422537 28.1128704123049964
 66.2370246582497515 18.7141971991307194 28.1128704123049964
 57.7812306582497541 18.7141971991307194 28.1128704123049964
 12.6836909661366875  4.0683292100162243 28.1128704123049964
 29.5952785462355585 54.5151427464417537 28.6327538495249954
 16.9115875259173158 56.9561695641874692 28.6327538495249954
 19.7301573399373318 56.9561695641874692 28.6327538495249954
 22.5488117118973186 56.9561695641874692 28.6327538495249954
  4.2279392721974602  0.8136511961352557 28.6327538495249954
 28.1859940252639873  8.1365851906925037 28.6327538495249954
 33.8231755259173212 56.9561695641874692 28.6327538495249954
 39.4603997118973240 56.9561695641874692 28.6327538495249954
 25.3674242112439856  8.1365851906925037 28.6327538495249954
 40.8697267962886173 69.1610107355562462 28.6327538495249954
 22.5487698392839881  8.1365851906925037 28.6327538495249954
 35.2325026103086287 69.1610107355562462 28.6327538495249954
 19.7302000252639935  8.1365851906925037 28.6327538495249954
 -18.3208734014102959 59.3971231525932382 28.6327538495249954
 -15.5023035873902977 59.3971231525932382 28.6327538495249954
 14.0929758392839890  8.1365851906925037 28.6327538495249954
 -7.0465095873903012 59.3971231525932382 28.6327538495249954
 -4.2278552154303037 59.3971231525932382 28.6327538495249954
 43.6882549002374461  0.8136511961352557 28.6327538495249954
 -15.5022612677844460 54.5151427464417537 28.6327538495249954
 11.2743633399373131 56.9561695641874692 28.6327538495249954
 31.0045638392839891  8.1365851906925037 28.6327538495249954
 76.1021882112439840  8.1365851906925037 28.6327538495249954
 43.6882967322155622 54.5151427464417537 28.6327538495249954
 21.1394845462355612 54.5151427464417537 28.6327538495249954
 46.5068665462355568 54.5151427464417537 28.6327538495249954
 49.3255209181955507 54.5151427464417537 28.6327538495249954
 52.1440907322155596 54.5151427464417537 28.6327538495249954
 45.0975820252639821  8.1365851906925037 28.6327538495249954
 -31.0046066600626737 56.9561695641874692 28.6327538495249954
  1.4093267322155492 54.5151427464417537 28.6327538495249954
 62.0091700252639910  8.1365851906925037 28.6327538495249954
 42.2790122112439946  8.1365851906925037 28.6327538495249954
 -14.0930187819696204 71.6020375533019688 28.6327538495249954
  0.0000422112439907  8.1365851906925037 28.6327538495249954
 -7.0464672677844442 54.5151427464417537 28.6327538495249954
 70.4649640252639955  8.1365851906925037 28.6327538495249954
 15.5023030862174611  0.8136511961352557 28.6327538495249954
  2.8185693399373224 56.9561695641874692 28.6327538495249954
 -5.6372247819696195 71.6020375533019688 28.6327538495249954
 -36.6417464100096169 71.6020375533019688 28.6327538495249954
 29.5953212721974559  0.8136511961352557 28.6327538495249954
  7.0465090862174584  0.8136511961352557 28.6327538495249954
 39.4603578392839793  8.1365851906925037 28.6327538495249954
 -22.5487704623637697 66.7200571471504844 28.6327538495249954
 80.3300429525916257  5.6956316022867357 28.6327538495249954
 71.8742912721974676  0.8136511961352557 28.6327538495249954
 39.4603573516562420 66.7200571471504844 28.6327538495249954
 -21.1394855350361439 64.2791035587447084 28.6327538495249954
 -9.8651217210161430 64.2791035587447084 28.6327538495249954
 -7.0464673490561447 64.2791035587447084 28.6327538495249954
 77.5114309002374711  0.8136511961352557 28.6327538495249954
 36.6418303448698452  3.2546047845410229 28.6327538495249954
  2.8186543448698407  3.2546047845410229 28.6327538495249954
 12.6836904649638509 64.2791035587447084 28.6327538495249954
  2.8186115376362340 66.7200571471504844 28.6327538495249954
 21.1394844649638500 64.2791035587447084 28.6327538495249954
 -2.8186126483437688 66.7200571471504844 28.6327538495249954
 -5.6371824623637705 66.7200571471504844 28.6327538495249954
  8.4557939729098397  3.2546047845410229 28.6327538495249954
 26.7767086509438528 64.2791035587447084 28.6327538495249954
 29.5952784649638616 64.2791035587447084 28.6327538495249954
 -14.0929764623637634 66.7200571471504844 28.6327538495249954
 25.3673819729098362  3.2546047845410229 28.6327538495249954
 16.9115879729098388  3.2546047845410229 28.6327538495249954
 38.0510724649638732 64.2791035587447084 28.6327538495249954
 22.5488121588898416  3.2546047845410229 28.6327538495249954
 -36.6417886483437698 66.7200571471504844 28.6327538495249954
 -28.1859946483437653 66.7200571471504844 28.6327538495249954
 -32.4138493896913857 69.1610107355562462 28.6327538495249954
 45.0976238572420840 61.8380767409990000 28.6327538495249954
 66.2370670862174649  0.8136511961352557 28.6327538495249954
 16.9115874852820909 61.8380767409990000 28.6327538495249954
  9.8650784126096909 59.3971231525932382 28.6327538495249954
 46.5069092721974613  0.8136511961352557 28.6327538495249954
 18.3209146103086198 69.1610107355562462 28.6327538495249954
 12.6836904243286224 69.1610107355562462 28.6327538495249954
  9.8651206103086064 69.1610107355562462 28.6327538495249954
  7.0465507962886189 69.1610107355562462 28.6327538495249954
 54.9627032721974516  0.8136511961352557 28.6327538495249954
 26.7766664126097069 59.3971231525932382 28.6327538495249954
 52.1440911385716035  5.6956316022867357 28.6327538495249954
 49.3254367666116167  5.6956316022867357 28.6327538495249954
 -33.8231765147179146 61.8380767409990000 28.6327538495249954
 26.7767086103086172 69.1610107355562462 28.6327538495249954
 -28.1859523287379155 61.8380767409990000 28.6327538495249954
 40.8696427666115980  5.6956316022867357 28.6327538495249954
 -1.4092432037113782 69.1610107355562462 28.6327538495249954
 -8.4557945147179190 61.8380767409990000 28.6327538495249954
 -4.2278975756713866 69.1610107355562462 28.6327538495249954
 23.9580547666116068  5.6956316022867357 28.6327538495249954
  2.8186538572420905 61.8380767409990000 28.6327538495249954
  8.4557934852820722 61.8380767409990000 28.6327538495249954
 -21.1394855756713831 69.1610107355562462 28.6327538495249954
 11.2744478572420874 61.8380767409990000 28.6327538495249954
 14.0930176712620749 61.8380767409990000 28.6327538495249954
 -23.9580553896913813 69.1610107355562462 28.6327538495249954
 -25.3673825147179137 61.8380767409990000 28.6327538495249954
 -21.1394854537644470 54.5151427464417537 28.6327538495249954
 57.7813152839163777 10.5775387790982709 28.6327538495249954
  7.0465512839163686 10.5775387790982709 28.6327538495249954
 42.2789697290959623 32.5463407627700150 28.6327538495249954
 50.7347637290959668 32.5463407627700150 28.6327538495249954
 -4.2278971693153311 20.3414995914012344 28.6327538495249954
 59.1905577290959641 32.5463407627700150 28.6327538495249954
 70.4650062229628986 17.9004727736555189 28.6327538495249954
 -9.8651214772022673 34.9873675805157234 28.6327538495249954
 -1.4093274772022688 34.9873675805157234 28.6327538495249954
  1.4093268947577322 34.9873675805157234 28.6327538495249954
  7.0464665227977319 34.9873675805157234 28.6327538495249954
 26.7767088947577392 34.9873675805157234 28.6327538495249954
 32.4138485227977426 34.9873675805157234 28.6327538495249954
 35.2325028947577295 34.9873675805157234 28.6327538495249954
 40.8696425227977400 34.9873675805157234 28.6327538495249954
 47.9161940369829011 17.9004727736555189 28.6327538495249954
 54.9626607087777472 34.9873675805157234 28.6327538495249954
 -19.7302004045298887 37.4283211689214923 28.6327538495249954
 -8.4557520325698885 37.4283211689214923 28.6327538495249954
  0.0000419674301133 37.4283211689214923 28.6327538495249954
 14.0929755954701115 37.4283211689214923 28.6327538495249954
 11.2744482229629011 17.9004727736555189 28.6327538495249954
 33.8232179674301037 37.4283211689214923 28.6327538495249954
 45.0975817814501099 37.4283211689214923 28.6327538495249954
 56.3719455954701161 37.4283211689214923 28.6327538495249954
 -0.0000001489970986 17.9004727736555189 28.6327538495249954
 -21.1394853318575109 39.8692747573272612 28.6327538495249954
 -9.8650369598975125 39.8692747573272612 28.6327538495249954
 -7.0464671458775081 39.8692747573272612 28.6327538495249954
 -1.4092429598975091 39.8692747573272612 28.6327538495249954
  1.4093268541224926 39.8692747573272612 28.6327538495249954
 36.6418301010559517 32.5463407627700150 28.6327538495249954
  9.8651208541224857 39.8692747573272612 28.6327538495249954
  4.2278968306846716 20.3414995914012344 28.6327538495249954
 -16.9115882709040370 32.5463407627700150 28.6327538495249954
 67.6463940893370506 22.7824531798069998 28.6327538495249954
 50.7348060893370558 22.7824531798069998 28.6327538495249954
  1.4093269760294336 25.2234067682127652 28.6327538495249954
  9.8651209760294343 25.2234067682127652 28.6327538495249954
 42.2790120893370442 22.7824531798069998 28.6327538495249954
 28.1859939033570512 22.7824531798069998 28.6327538495249954
 22.5487697173770485 22.7824531798069998 28.6327538495249954
 19.7301999033570468 22.7824531798069998 28.6327538495249954
 16.9116300893370450 22.7824531798069998 28.6327538495249954
 14.0930179557111952 27.6644335859584807 28.6327538495249954
 22.5488119557112086 27.6644335859584807 28.6327538495249954
 36.6417455837512094 27.6644335859584807 28.6327538495249954
  8.4558360893370512 22.7824531798069998 28.6327538495249954
 45.0975395837512067 27.6644335859584807 28.6327538495249954
 50.7347637697312024 27.6644335859584807 28.6327538495249954
  0.0000420893370479 22.7824531798069998 28.6327538495249954
 64.8277819557112025 27.6644335859584807 28.6327538495249954
 -2.8186122826229494 22.7824531798069998 28.6327538495249954
 -15.5023033435764184 30.1053871743642461 28.6327538495249954
 -9.8650791575964192 30.1053871743642461 28.6327538495249954
 -4.2278549716164209 30.1053871743642461 28.6327538495249954
 -5.6371820966429516 22.7824531798069998 28.6327538495249954
  4.2279390283835818 30.1053871743642461 28.6327538495249954
 -8.4557519106629488 22.7824531798069998 28.6327538495249954
 23.9580968424035810 30.1053871743642461 28.6327538495249954
 29.5953210283835837 30.1053871743642461 28.6327538495249954
 60.5998850166646719 20.3414995914012344 28.6327538495249954
 46.5068668306846718 20.3414995914012344 28.6327538495249954
 60.5998426564235899 30.1053871743642461 28.6327538495249954
 32.4138486447046574 20.3414995914012344 28.6327538495249954
 21.1394846681424795 39.8692747573272612 28.6327538495249954
 32.4139330401024850 39.8692747573272612 28.6327538495249954
 71.8742911502905173 15.4595191852497500 28.6327538495249954
  8.4557936071890190 47.1922087518845075 28.6327538495249954
 14.0930177931690217 47.1922087518845075 28.6327538495249954
 19.7302419791490244 47.1922087518845075 28.6327538495249954
 25.3673816071890279 47.1922087518845075 28.6327538495249954
 -0.0000001083618602 13.0185655968439828 28.6327538495249954
 45.0976239791490272 47.1922087518845075 28.6327538495249954
 -23.9580552271492060 49.6332355696302230 28.6327538495249954
 -18.3209155991092061 49.6332355696302230 28.6327538495249954
 66.2371092839163680 10.5775387790982709 28.6327538495249954
 56.3719457173770593 22.7824531798069998 28.6327538495249954
 12.6836905868707941 49.6332355696302230 28.6327538495249954
 32.4138484008907994 49.6332355696302230 28.6327538495249954
 35.2325027728508005 49.6332355696302230 28.6327538495249954
 38.0510725868707951 49.6332355696302230 28.6327538495249954
 43.6882967728507978 49.6332355696302230 28.6327538495249954
 46.5068665868708067 49.6332355696302230 28.6327538495249954
 49.3254364008908013 49.6332355696302230 28.6327538495249954
 38.0510729119563607 10.5775387790982709 28.6327538495249954
 54.9626605868708040 49.6332355696302230 28.6327538495249954
 -11.2744065264368292 52.0741891580359919 28.6327538495249954
 -8.4557521544768282 52.0741891580359919 28.6327538495249954
 -5.6371823404568273 52.0741891580359919 28.6327538495249954
  0.0000418455231652 52.0741891580359919 28.6327538495249954
  2.8186116595431669 52.0741891580359919 28.6327538495249954
  8.4558358455231772 52.0741891580359919 28.6327538495249954
 16.9116298455231728 52.0741891580359919 28.6327538495249954
 31.0045634735631737 52.0741891580359919 28.6327538495249954
 21.1394849119563659 10.5775387790982709 28.6327538495249954
 47.9161514735631755 52.0741891580359919 28.6327538495249954
 47.9161940776181368 13.0185655968439828 28.6327538495249954
 -0.0000003928109814 47.1922087518845075 28.6327538495249954
 -5.6371400208509774 47.1922087518845075 28.6327538495249954
 -8.4557943928109793 47.1922087518845075 28.6327538495249954
 63.4184971502905270 15.4595191852497500 28.6327538495249954
 52.1440908541225028 39.8692747573272612 28.6327538495249954
 -14.0930185381557376 42.3103015750729767 28.6327538495249954
 54.9627031502905297 15.4595191852497500 28.6327538495249954
 -5.6372245381557384 42.3103015750729767 28.6327538495249954
 40.8696849643105153 15.4595191852497500 28.6327538495249954
  2.8185694618442589 42.3103015750729767 28.6327538495249954
 16.9115876478242626 42.3103015750729767 28.6327538495249954
 29.5953211502905269 15.4595191852497500 28.6327538495249954
 28.1859514618442688 42.3103015750729767 28.6327538495249954
 31.0046058338042556 42.3103015750729767 28.6327538495249954
 23.9580969643105171 15.4595191852497500 28.6327538495249954
 39.4603998338042672 42.3103015750729767 28.6327538495249954
 50.7347636478242734 42.3103015750729767 28.6327538495249954
 -26.7766250818044469 54.5151427464417537 28.6327538495249954
 53.5533334618442680 42.3103015750729767 28.6327538495249954
 18.3208727783305179 15.4595191852497500 28.6327538495249954
 12.6837331502905215 15.4595191852497500 28.6327538495249954
  9.8650787783305205 15.4595191852497500 28.6327538495249954
 -15.5023034654833562 44.7512551634787386 28.6327538495249954
  4.2279391502905188 15.4595191852497500 28.6327538495249954
 26.7766665345166501 44.7512551634787386 28.6327538495249954
 29.5953209064766369 44.7512551634787386 28.6327538495249954
 35.2324605345166475 44.7512551634787386 28.6327538495249954
 -7.0465092216694787 15.4595191852497500 28.6327538495249954
 43.6882545345166520 44.7512551634787386 28.6327538495249954
 46.5069089064766459 44.7512551634787386 28.6327538495249954
 67.6463518916381474 13.0185655968439828 28.6327538495249954
 -22.5487280208509766 47.1922087518845075 28.6327538495249954
 56.3719880776181483 13.0185655968439828 28.6327538495249954
 56.3719878338042619 42.3103015750729767 28.6327538495249954
  1.4092849002374601  0.8136511961352557 28.6327538495249954
