 H  O 
 1.0000000000000000
    84.5579400000000021    0.0000000000000000    0.0000000000000000
   -42.2789706095346958   73.2293399455724767    0.0000000000000000
     0.0000000000000000    0.0000000000000000   46.9039550000000034
 H   O  
 199 352
Cartesian
 38.0510301182678390 72.4156887494372228 28.1128704123049964
 -26.7766673878652135 57.7698207603227232 28.1128704123049964
 60.5998849895745124 23.5961043759422537 28.1128704123049964
 -14.0930184027037182 26.0371311936879657 28.1128704123049964
 -2.8186545886837178 26.0371311936879657 28.1128704123049964
 -0.0000002167237204 26.0371311936879657 28.1128704123049964
 -29.5953217598252145 57.7698207603227232 28.1128704123049964
  2.8185695972962814 26.0371311936879657 28.1128704123049964
 22.5487274113162819 26.0371311936879657 28.1128704123049964
 42.2789695394624090 55.3288671719169614 28.1128704123049964
 25.3673817832762829 26.0371311936879657 28.1128704123049964
 28.1859515972962846 26.0371311936879657 28.1128704123049964
 36.6417455972962784 26.0371311936879657 28.1128704123049964
 59.1905577832762830 26.0371311936879657 28.1128704123049964
 -15.5023033300313369 28.4780847820937346 28.1128704123049964
 28.1859513534823982 55.3288671719169614 28.1128704123049964
 -12.6837335160113369 28.4780847820937346 28.1128704123049964
 -1.4092851440513405 28.4780847820937346 28.1128704123049964
  1.4092846699686612 28.4780847820937346 28.1128704123049964
  8.4557935394624035 55.3288671719169614 28.1128704123049964
  2.8185693534824074 55.3288671719169614 28.1128704123049964
 12.6836484839886605 28.4780847820937346 28.1128704123049964
 -19.7302428324975985 55.3288671719169614 28.1128704123049964
 40.8696848559486625 28.4780847820937346 28.1128704123049964
 46.5068244839886518 28.4780847820937346 28.1128704123049964
 46.5068665597806330 52.8878403541712458 28.1128704123049964
 66.2370668559486688 28.4780847820937346 28.1128704123049964
 -16.9115882573589573 30.9190383704995000 28.1128704123049964
 57.7812306176145043 23.5961043759422537 28.1128704123049964
 46.5068668035945052 23.5961043759422537 28.1128704123049964
 -9.8650793878652134 57.7698207603227232 28.1128704123049964
 23.9580546176145113 23.5961043759422537 28.1128704123049964
 -18.3209157074710660 62.6518011664742076 28.1128704123049964
 42.2789694988271592 60.2107743487284921 28.1128704123049964
 36.6417453128471564 60.2107743487284921 28.1128704123049964
 12.6836908442297531 18.7141971991307194 28.1128704123049964
 18.3208304722697477 18.7141971991307194 28.1128704123049964
 16.9115874988271635 60.2107743487284921 28.1128704123049964
 38.0510728442297577 18.7141971991307194 28.1128704123049964
 -5.6372246871528393 60.2107743487284921 28.1128704123049964
 40.8696426582497523 18.7141971991307194 28.1128704123049964
 46.5068668442297550 18.7141971991307194 28.1128704123049964
 -8.4557945011728339 60.2107743487284921 28.1128704123049964
 60.5998004722697488 18.7141971991307194 28.1128704123049964
 -8.4558364550578684 21.1551507875364884 28.1128704123049964
 -14.0930184433389574 30.9190383704995000 28.1128704123049964
 -22.5488126871528358 60.2107743487284921 28.1128704123049964
 -31.0046066871528367 60.2107743487284921 28.1128704123049964
 36.6417879169021319 21.1551507875364884 28.1128704123049964
 32.4138906121347787 57.7698207603227232 28.1128704123049964
 53.5533759169021195 21.1551507875364884 28.1128704123049964
 21.1394422401747804 57.7698207603227232 28.1128704123049964
 18.3208724261547857 57.7698207603227232 28.1128704123049964
 15.5023026121347893 57.7698207603227232 28.1128704123049964
  1.4093269895745080 23.5961043759422537 28.1128704123049964
  7.0464666176145112 23.5961043759422537 28.1128704123049964
  4.2278542401747847 57.7698207603227232 28.1128704123049964
 12.6836908035945140 23.5961043759422537 28.1128704123049964
  1.4092844261547897 57.7698207603227232 28.1128704123049964
 -7.0465095738452108 57.7698207603227232 28.1128704123049964
 -28.1859523151928357 60.2107743487284921 28.1128704123049964
 35.2325027457606268 52.8878403541712458 28.1128704123049964
  2.8185695566610427 30.9190383704995000 28.1128704123049964
 11.2743635566610401 30.9190383704995000 28.1128704123049964
 21.1394846004158765 48.0059331773597151 28.1128704123049964
 32.4138484957075690 38.2419723650567462 28.1128704123049964
 40.8696424957075664 38.2419723650567462 28.1128704123049964
  9.8650362284558710 48.0059331773597151 28.1128704123049964
  1.4092422284558699 48.0059331773597151 28.1128704123049964
 60.5998848676675763 38.2419723650567462 28.1128704123049964
 -14.0930185246106596 40.6829991828024689 28.1128704123049964
 -11.2744487105906597 40.6829991828024689 28.1128704123049964
 -4.2278973995841262 48.0059331773597151 28.1128704123049964
  5.6371392894093386 40.6829991828024689 28.1128704123049964
 -9.8651215855641290 48.0059331773597151 28.1128704123049964
  8.4557936613693432 40.6829991828024689 28.1128704123049964
 19.7301574753893405 40.6829991828024689 28.1128704123049964
 29.5952786816875744 38.2419723650567462 28.1128704123049964
 -23.9581397715441291 48.0059331773597151 28.1128704123049964
 33.8231756613693406 40.6829991828024689 28.1128704123049964
 47.9161938067141051 45.5649063596139996 28.1128704123049964
 36.6417454753893352 40.6829991828024689 28.1128704123049964
 53.5533334753893371 40.6829991828024689 28.1128704123049964
 -23.9580974519382757 43.1239527712082307 28.1128704123049964
 11.2743634347540986 45.5649063596139996 28.1128704123049964
 -15.5023034519382783 43.1239527712082307 28.1128704123049964
 -12.6837336379182783 43.1239527712082307 28.1128704123049964
 -2.8185701932858982 45.5649063596139996 28.1128704123049964
 18.3208725480617254 43.1239527712082307 28.1128704123049964
 21.1394423620817271 43.1239527712082307 28.1128704123049964
 -19.7301581932858987 45.5649063596139996 28.1128704123049964
 -22.5488125652458997 45.5649063596139996 28.1128704123049964
 50.7347636207340997 45.5649063596139996 28.1128704123049964
 67.6463518645479809 16.2731703813850075 28.1128704123049964
 26.7766242284558658 48.0059331773597151 28.1128704123049964
  1.4093268676675752 38.2419723650567462 28.1128704123049964
 23.9580543738006249 52.8878403541712458 28.1128704123049964
 14.0930179286210446 30.9190383704995000 28.1128704123049964
 25.3673817426410437 30.9190383704995000 28.1128704123049964
  4.2278965597806355 52.8878403541712458 28.1128704123049964
 47.9161939286210341 30.9190383704995000 28.1128704123049964
  1.4093267457606342 52.8878403541712458 28.1128704123049964
 -12.6836914402193699 52.8878403541712458 28.1128704123049964
  7.0464665363428152 33.3600651882452155 28.1128704123049964
 12.6836907223228135 33.3600651882452155 28.1128704123049964
 35.2324183503628063 33.3600651882452155 28.1128704123049964
 40.8696425363428091 33.3600651882452155 28.1128704123049964
 46.5068667223228047 33.3600651882452155 28.1128704123049964
 39.4603574871082543 50.4468867657654769 28.1128704123049964
 40.8696424144358730 48.0059331773597151 28.1128704123049964
 60.5998003503628055 33.3600651882452155 28.1128704123049964
 33.8231333011282445 50.4468867657654769 28.1128704123049964
 -5.6371822050048115 35.8010187766509844 28.1128704123049964
 16.9115453011282568 50.4468867657654769 28.1128704123049964
 16.9115454230351894 35.8010187766509844 28.1128704123049964
 11.2744056730882534 50.4468867657654769 28.1128704123049964
 22.5487696090151921 35.8010187766509844 28.1128704123049964
 28.1859937949951949 35.8010187766509844 28.1128704123049964
 56.3719456090151922 35.8010187766509844 28.1128704123049964
 59.1905154230351869 35.8010187766509844 28.1128704123049964
 54.9626606004158731 48.0059331773597151 28.1128704123049964
 -18.3209155042924259 38.2419723650567462 28.1128704123049964
 -7.0464671323324293 38.2419723650567462 28.1128704123049964
 -4.2278973183124275 38.2419723650567462 28.1128704123049964
 36.6417876730882455 50.4468867657654769 28.1128704123049964
 -4.2278975214910632 62.6518011664742076 28.1128704123049964
 70.4649639169021356 21.1551507875364884 28.1128704123049964
 46.5068243620817157 43.1239527712082307 28.1128704123049964
 53.5533337192032164 11.3912632045734714 28.1128704123049964
 59.1905156668490591  6.5092827984219914 28.1128704123049964
 45.0975815511813138 65.0927547548799765 28.1128704123049964
 -40.8696856957521533 72.4156887494372228 28.1128704123049964
 12.6836909661366875  4.0683292100162243 28.1128704123049964
 70.4649217192032182 11.3912632045734714 28.1128704123049964
 33.8231331792213084 65.0927547548799765 28.1128704123049964
 47.9161095332232136 11.3912632045734714 28.1128704123049964
  4.2278546058956001 13.8322167929792403 28.1128704123049964
 -5.6372247684245327 69.9747351610314468 28.1128704123049964
  4.2278969661366892  4.0683292100162243 28.1128704123049964
  7.0465089778555976 13.8322167929792403 28.1128704123049964
 25.3673391792213039 65.0927547548799765 28.1128704123049964
 -15.5023036957521541 72.4156887494372228 28.1128704123049964
  9.8651206238536986 67.5337083432857384 28.1128704123049964
 18.3208727918756047 13.8322167929792403 28.1128704123049964
 23.9580547395214474  8.9502363868277595 28.1128704123049964
 26.7766245941766883  4.0683292100162243 28.1128704123049964
 39.4603155332232234 11.3912632045734714 28.1128704123049964
 32.4138487801566981  4.0683292100162243 28.1128704123049964
 14.0929330455954638 69.9747351610314468 28.1128704123049964
 77.5113885941766796  4.0683292100162243 28.1128704123049964
 60.5998851114814414  8.9502363868277595 28.1128704123049964
  4.2278964378736958 67.5337083432857384 28.1128704123049964
 77.5114731114814504  8.9502363868277595 28.1128704123049964
 -12.6836915621263024 67.5337083432857384 28.1128704123049964
 43.6882971114814538  8.9502363868277595 28.1128704123049964
 19.7301572315754683 69.9747351610314468 28.1128704123049964
 -2.8186544667767790 11.3912632045734714 28.1128704123049964
 16.9115879051832216 11.3912632045734714 28.1128704123049964
 25.3673814175554639 69.9747351610314468 28.1128704123049964
 -0.0000423331509293  6.5092827984219914 28.1128704123049964
 19.7301577192032234 11.3912632045734714 28.1128704123049964
 46.5068669661366982  4.0683292100162243 28.1128704123049964
 -23.9580553761463051 67.5337083432857384 28.1128704123049964
 35.2325031114814493  8.9502363868277595 28.1128704123049964
 31.0045210455954674 69.9747351610314468 28.1128704123049964
 32.4138909778556012 13.8322167929792403 28.1128704123049964
 70.4649218004749116  1.6273023922705114 28.1128704123049964
 76.1021459864549144  1.6273023922705114 28.1128704123049964
 12.6836909255014501  8.9502363868277595 28.1128704123049964
 50.7347638645479790 16.2731703813850075 28.1128704123049964
 40.8696422925289298 62.6518011664742076 28.1128704123049964
  8.4557938645479798 16.2731703813850075 28.1128704123049964
 29.5952784785089271 62.6518011664742076 28.1128704123049964
 25.3673819864549230  1.6273023922705114 28.1128704123049964
 15.5023024902278443 72.4156887494372228 28.1128704123049964
 38.0510724378736924 67.5337083432857384 28.1128704123049964
 12.6836481182678362 72.4156887494372228 28.1128704123049964
 22.5488121724349213  1.6273023922705114 28.1128704123049964
 28.1859516785679780 16.2731703813850075 28.1128704123049964
 47.9161518528290671  6.5092827984219914 28.1128704123049964
 64.8277398528290689  6.5092827984219914 28.1128704123049964
 16.9115879864549186  1.6273023922705114 28.1128704123049964
  9.8650361065489385 62.6518011664742076 28.1128704123049964
 -36.6418309544045329 69.9747351610314468 28.1128704123049964
  8.4557939864549194  1.6273023922705114 28.1128704123049964
 21.1394844785089369 62.6518011664742076 28.1128704123049964
 43.6882121065489244 62.6518011664742076 28.1128704123049964
 -2.8186549544045376 69.9747351610314468 28.1128704123049964
 47.9161941724349276  1.6273023922705114 28.1128704123049964
 60.5998427918756022 13.8322167929792403 28.1128704123049964
 -2.8185699494720202 16.2731703813850075 28.1128704123049964
 67.6463519864549170  1.6273023922705114 28.1128704123049964
 -31.0045644488186873 65.0927547548799765 28.1128704123049964
 -19.7302006347986882 65.0927547548799765 28.1128704123049964
 -4.2279398817321576 72.4156887494372228 28.1128704123049964
 74.6928609778556023 13.8322167929792403 28.1128704123049964
 -16.9115885824445336 69.9747351610314468 28.1128704123049964
 39.4604001724349231  1.6273023922705114 28.1128704123049964
 -4.2278970744985491  8.9502363868277595 28.1128704123049964
 -26.7767095991092070 49.6332355696302230 28.6327538495249954
 40.8696424008908039 49.6332355696302230 28.6327538495249954
 52.1440907728507952 49.6332355696302230 28.6327538495249954
 -7.0464673896913883 69.1610107355562462 28.6327538495249954
 -12.6836915756713875 69.1610107355562462 28.6327538495249954
 -9.8651215991092069 49.6332355696302230 28.6327538495249954
 -23.9580553896913813 69.1610107355562462 28.6327538495249954
 -15.5022613896913821 69.1610107355562462 28.6327538495249954
 26.7767087728507853 49.6332355696302230 28.6327538495249954
 -35.2324192037113804 69.1610107355562462 28.6327538495249954
 -4.2278974131292042 49.6332355696302230 28.6327538495249954
 38.0510725868707951 49.6332355696302230 28.6327538495249954
  9.8651207728507995 49.6332355696302230 28.6327538495249954
 -4.2278975756713866 69.1610107355562462 28.6327538495249954
 -26.7766252037113830 69.1610107355562462 28.6327538495249954
 21.1394845868707826 49.6332355696302230 28.6327538495249954
  1.4093267728507877 49.6332355696302230 28.6327538495249954
 35.2325026103086287 69.1610107355562462 28.6327538495249954
 15.5023447962886092 69.1610107355562462 28.6327538495249954
 -21.1394430935233544 44.7512551634787386 28.6327538495249954
 25.3673814040103807 71.6020375533019688 28.6327538495249954
 -18.3208732795033562 44.7512551634787386 28.6327538495249954
 16.9115874040103833 71.6020375533019688 28.6327538495249954
 -4.2278550935233552 44.7512551634787386 28.6327538495249954
 -1.4092852795033535 44.7512551634787386 28.6327538495249954
  1.4092845345166412 44.7512551634787386 28.6327538495249954
  9.8650785345166412 44.7512551634787386 28.6327538495249954
 14.0930175899903762 71.6020375533019688 28.6327538495249954
 12.6837329064766493 44.7512551634787386 28.6327538495249954
 26.7766665345166501 44.7512551634787386 28.6327538495249954
 46.5069089064766459 44.7512551634787386 28.6327538495249954
 11.2743632180303894 71.6020375533019688 28.6327538495249954
 -2.8185704100096114 71.6020375533019688 28.6327538495249954
 56.3719877931690334 47.1922087518845075 28.6327538495249954
 49.3254787204966547 44.7512551634787386 28.6327538495249954
 -22.5487280208509766 47.1922087518845075 28.6327538495249954
 -19.7301582068309784 47.1922087518845075 28.6327538495249954
 -8.4557945959896212 71.6020375533019688 28.6327538495249954
 -5.6371400208509774 47.1922087518845075 28.6327538495249954
 -2.8185702068309761 47.1922087518845075 28.6327538495249954
 -16.9115885959896168 71.6020375533019688 28.6327538495249954
 -0.0000003928109814 47.1922087518845075 28.6327538495249954
 -39.4604007819696179 71.6020375533019688 28.6327538495249954
 11.2744479791490271 47.1922087518845075 28.6327538495249954
 25.3673816071890279 47.1922087518845075 28.6327538495249954
 26.7767086103086172 69.1610107355562462 28.6327538495249954
 47.9161937931690360 47.1922087518845075 28.6327538495249954
 53.5534179791490246 47.1922087518845075 28.6327538495249954
 18.3209146103086198 69.1610107355562462 28.6327538495249954
 -5.6372247819696195 71.6020375533019688 28.6327538495249954
 54.9626605868708040 49.6332355696302230 28.6327538495249954
 -2.8185703287379194 61.8380767409990000 28.6327538495249954
 -28.1859945264368292 52.0741891580359919 28.6327538495249954
 33.8231755259173212 56.9561695641874692 28.6327538495249954
 -29.5952795350361448 64.2791035587447084 28.6327538495249954
 28.1859513399373292 56.9561695641874692 28.6327538495249954
 -21.1394855350361439 64.2791035587447084 28.6327538495249954
 19.7301573399373318 56.9561695641874692 28.6327538495249954
 -23.9580974654833554 44.7512551634787386 28.6327538495249954
 -18.3209157210161457 64.2791035587447084 28.6327538495249954
 -15.5022613490561429 64.2791035587447084 28.6327538495249954
  1.4093266509438596 64.2791035587447084 28.6327538495249954
  9.8651206509438563 64.2791035587447084 28.6327538495249954
  2.8185693399373224 56.9561695641874692 28.6327538495249954
 23.9580542789838589 64.2791035587447084 28.6327538495249954
 -8.4557944740826727 56.9561695641874692 28.6327538495249954
 26.7767086509438528 64.2791035587447084 28.6327538495249954
 -11.2743642881026744 56.9561695641874692 28.6327538495249954
 -19.7301582881026789 56.9561695641874692 28.6327538495249954
 35.2325026509438644 64.2791035587447084 28.6327538495249954
 -32.4138915873902960 59.3971231525932382 28.6327538495249954
 43.6882966509438617 64.2791035587447084 28.6327538495249954
 -29.5952372154302985 59.3971231525932382 28.6327538495249954
 47.9161936712620928 61.8380767409990000 28.6327538495249954
  8.4557934852820722 61.8380767409990000 28.6327538495249954
 -5.6371401427579215 61.8380767409990000 28.6327538495249954
 11.2744478572420874 61.8380767409990000 28.6327538495249954
 -19.7301583287379145 61.8380767409990000 28.6327538495249954
 -31.0045221427579136 61.8380767409990000 28.6327538495249954
 -33.8231765147179146 61.8380767409990000 28.6327538495249954
 14.0930176712620749 61.8380767409990000 28.6327538495249954
 18.3208724126097096 59.3971231525932382 28.6327538495249954
 25.3673814852820882 61.8380767409990000 28.6327538495249954
 28.1860358572420893 61.8380767409990000 28.6327538495249954
 15.5023025985896936 59.3971231525932382 28.6327538495249954
  9.8650784126096909 59.3971231525932382 28.6327538495249954
 -4.2278552154303037 59.3971231525932382 28.6327538495249954
 42.2789694852820901 61.8380767409990000 28.6327538495249954
 -7.0465095873903012 59.3971231525932382 28.6327538495249954
 -9.8650794014102949 59.3971231525932382 28.6327538495249954
 -21.1394432154303011 59.3971231525932382 28.6327538495249954
 -35.2325037210161440 64.2791035587447084 28.6327538495249954
 -38.0510735756713814 69.1610107355562462 28.6327538495249954
 -28.1859522881026763 56.9561695641874692 28.6327538495249954
 43.6882967322155622 54.5151427464417537 28.6327538495249954
  8.4558357236162376 66.7200571471504844 28.6327538495249954
 39.4603574735631781 52.0741891580359919 28.6327538495249954
 36.6417876595431693 52.0741891580359919 28.6327538495249954
 33.8232178455231747 52.0741891580359919 28.6327538495249954
 22.5487693516562366 66.7200571471504844 28.6327538495249954
 25.3674237236162377 66.7200571471504844 28.6327538495249954
 28.1859935376362323 66.7200571471504844 28.6327538495249954
 19.7301996595431604 52.0741891580359919 28.6327538495249954
 16.9116298455231728 52.0741891580359919 28.6327538495249954
 11.2744056595431719 52.0741891580359919 28.6327538495249954
 33.8232177236162386 66.7200571471504844 28.6327538495249954
  2.8186116595431669 52.0741891580359919 28.6327538495249954
 36.6417875376362474 66.7200571471504844 28.6327538495249954
 -8.4557521544768282 52.0741891580359919 28.6327538495249954
 -11.2744065264368292 52.0741891580359919 28.6327538495249954
 -14.0929763404568273 52.0741891580359919 28.6327538495249954
 45.0975815376362448 66.7200571471504844 28.6327538495249954
 42.2790118455231720 52.0741891580359919 28.6327538495249954
 46.5068664649638706 64.2791035587447084 28.6327538495249954
 45.0975816595431809 52.0741891580359919 28.6327538495249954
 47.9161514735631755 52.0741891580359919 28.6327538495249954
 -36.6417886483437698 66.7200571471504844 28.6327538495249954
 -33.8231342763837688 66.7200571471504844 28.6327538495249954
 40.8697269181955534 54.5151427464417537 28.6327538495249954
 -25.3673402763837679 66.7200571471504844 28.6327538495249954
 35.2325027322155506 54.5151427464417537 28.6327538495249954
 32.4139329181955560 54.5151427464417537 28.6327538495249954
 29.5952785462355585 54.5151427464417537 28.6327538495249954
 -16.9115462763837670 66.7200571471504844 28.6327538495249954
 26.7767087322155568 54.5151427464417537 28.6327538495249954
 -14.0929764623637634 66.7200571471504844 28.6327538495249954
  9.8651207322155532 54.5151427464417537 28.6327538495249954
 -11.2744066483437688 66.7200571471504844 28.6327538495249954
  1.4093267322155492 54.5151427464417537 28.6327538495249954
 -18.3208310818044460 54.5151427464417537 28.6327538495249954
  2.8186115376362340 66.7200571471504844 28.6327538495249954
 -21.1394854537644470 54.5151427464417537 28.6327538495249954
 53.5533756595431782 52.0741891580359919 28.6327538495249954
  5.6371813516562215 66.7200571471504844 28.6327538495249954
 25.3674238455231631 52.0741891580359919 28.6327538495249954
  7.0465090862174584  0.8136511961352557 28.6327538495249954
 45.0975394618442706 42.3103015750729767 28.6327538495249954
 12.6837331502905215 15.4595191852497500 28.6327538495249954
  9.8650787783305205 15.4595191852497500 28.6327538495249954
  7.0465089643105223 15.4595191852497500 28.6327538495249954
  4.2279391502905188 15.4595191852497500 28.6327538495249954
  1.4092847783305213 15.4595191852497500 28.6327538495249954
 76.1021458916381448 13.0185655968439828 28.6327538495249954
 73.2835760776181360 13.0185655968439828 28.6327538495249954
 70.4649217056581421 13.0185655968439828 28.6327538495249954
 59.1905578916381430 13.0185655968439828 28.6327538495249954
 53.5533337056581473 13.0185655968439828 28.6327538495249954
 47.9161940776181368 13.0185655968439828 28.6327538495249954
 39.4604000776181465 13.0185655968439828 28.6327538495249954
 36.6417457056581313 13.0185655968439828 28.6327538495249954
 31.0046060776181456 13.0185655968439828 28.6327538495249954
 19.7301577056581365 13.0185655968439828 28.6327538495249954
 16.9115878916381419 13.0185655968439828 28.6327538495249954
  8.4557938916381428 13.0185655968439828 28.6327538495249954
  5.6372240776181393 13.0185655968439828 28.6327538495249954
 -5.6372242943418591 13.0185655968439828 28.6327538495249954
 71.8742489119563714 10.5775387790982709 28.6327538495249954
 69.0556790979363768 10.5775387790982709 28.6327538495249954
 60.5998850979363723 10.5775387790982709 28.6327538495249954
 57.7813152839163777 10.5775387790982709 28.6327538495249954
 23.9580969643105171 15.4595191852497500 28.6327538495249954
 40.8697272839163759 10.5775387790982709 28.6327538495249954
 26.7766667783305188 15.4595191852497500 28.6327538495249954
 32.4138909643105251 15.4595191852497500 28.6327538495249954
  1.4093270166646681 20.3414995914012344 28.6327538495249954
 -7.0464669833353293 20.3414995914012344 28.6327538495249954
 70.4650062229628986 17.9004727736555189 28.6327538495249954
 59.1905578510029073 17.9004727736555189 28.6327538495249954
 50.7347638510029029 17.9004727736555189 28.6327538495249954
 47.9161940369829011 17.9004727736555189 28.6327538495249954
 39.4604000369828896 17.9004727736555189 28.6327538495249954
 36.6418302229629020 17.9004727736555189 28.6327538495249954
 28.1860362229629082 17.9004727736555189 28.6327538495249954
 25.3673818510029001 17.9004727736555189 28.6327538495249954
 22.5488120369828984 17.9004727736555189 28.6327538495249954
 14.0930180369829028 17.9004727736555189 28.6327538495249954
 11.2744482229629011 17.9004727736555189 28.6327538495249954
  2.8186542229628988 17.9004727736555189 28.6327538495249954
 -0.0000001489970986 17.9004727736555189 28.6327538495249954
 -2.8185699630171004 17.9004727736555189 28.6327538495249954
 71.8742911502905173 15.4595191852497500 28.6327538495249954
 69.0556367783305234 15.4595191852497500 28.6327538495249954
 60.5998427783305331 15.4595191852497500 28.6327538495249954
 57.7812729643105243 15.4595191852497500 28.6327538495249954
 52.1440487783305286 15.4595191852497500 28.6327538495249954
 49.3254789643105269 15.4595191852497500 28.6327538495249954
 46.5069091502905181 15.4595191852497500 28.6327538495249954
 29.5953211502905269 15.4595191852497500 28.6327538495249954
 12.6836908306846716 20.3414995914012344 28.6327538495249954
 38.0510729119563607 10.5775387790982709 28.6327538495249954
 21.1394849119563659 10.5775387790982709 28.6327538495249954
 -1.4093272333883895  5.6956316022867357 28.6327538495249954
 78.9208003448698463  3.2546047845410229 28.6327538495249954
 76.1021459729098524  3.2546047845410229 28.6327538495249954
 67.6463519729098550  3.2546047845410229 28.6327538495249954
 50.7347639729098461  3.2546047845410229 28.6327538495249954
 47.9161941588898301  3.2546047845410229 28.6327538495249954
 45.0976243448698426  3.2546047845410229 28.6327538495249954
 33.8231759729098371  3.2546047845410229 28.6327538495249954
 16.9115879729098388  3.2546047845410229 28.6327538495249954
 14.0930181588898407  3.2546047845410229 28.6327538495249954
 11.2744483448698372  3.2546047845410229 28.6327538495249954
  8.4557939729098397  3.2546047845410229 28.6327538495249954
  2.8186543448698407  3.2546047845410229 28.6327538495249954
 74.6928610862174764  0.8136511961352557 28.6327538495249954
 69.0556369002374737  0.8136511961352557 28.6327538495249954
 60.5998429002374621  0.8136511961352557 28.6327538495249954
 57.7812730862174604  0.8136511961352557 28.6327538495249954
 49.3254790862174488  0.8136511961352557 28.6327538495249954
 38.0511152721974639  0.8136511961352557 28.6327538495249954
 35.2324609002374558  0.8136511961352557 28.6327538495249954
 23.9580970862174638  0.8136511961352557 28.6327538495249954
 18.3208729002374611  0.8136511961352557 28.6327538495249954
 12.6837332721974576  0.8136511961352557 28.6327538495249954
  1.4093271385716108  5.6956316022867357 28.6327538495249954
 35.2325030979363731 10.5775387790982709 28.6327538495249954
  4.2278969525916086  5.6956316022867357 28.6327538495249954
 12.6836909525916113  5.6956316022867357 28.6327538495249954
 18.3209150979363713 10.5775387790982709 28.6327538495249954
 -4.2278970880436288 10.5775387790982709 28.6327538495249954
 78.9207580252639929  8.1365851906925037 28.6327538495249954
 62.0091700252639910  8.1365851906925037 28.6327538495249954
 59.1906002112439964  8.1365851906925037 28.6327538495249954
 45.0975820252639821  8.1365851906925037 28.6327538495249954
 39.4603578392839793  8.1365851906925037 28.6327538495249954
 33.8232182112439972  8.1365851906925037 28.6327538495249954
 22.5487698392839881  8.1365851906925037 28.6327538495249954
 11.2744060252639908  8.1365851906925037 28.6327538495249954
  0.0000422112439907  8.1365851906925037 28.6327538495249954
 -2.8186121607160102  8.1365851906925037 28.6327538495249954
 80.3300429525916257  5.6956316022867357 28.6327538495249954
 69.0556791385716195  5.6956316022867357 28.6327538495249954
 66.2370247666116256  5.6956316022867357 28.6327538495249954
 63.4184549525916097  5.6956316022867357 28.6327538495249954
 60.5998851385716151  5.6956316022867357 28.6327538495249954
 49.3254367666116167  5.6956316022867357 28.6327538495249954
 46.5068669525916008  5.6956316022867357 28.6327538495249954
 32.4138487666116077  5.6956316022867357 28.6327538495249954
 29.5952789525916060  5.6956316022867357 28.6327538495249954
 18.3209151385716105  5.6956316022867357 28.6327538495249954
 15.5022607666116095  5.6956316022867357 28.6327538495249954
  9.8651211385716078  5.6956316022867357 28.6327538495249954
 23.9580546447046672 20.3414995914012344 28.6327538495249954
 35.2325030166646727 20.3414995914012344 28.6327538495249954
 38.0510728306846602 20.3414995914012344 28.6327538495249954
 31.0045635954701204 37.4283211689214923 28.6327538495249954
 28.1859937814501045 37.4283211689214923 28.6327538495249954
 19.7301997814501142 37.4283211689214923 28.6327538495249954
  5.6371815954701097 37.4283211689214923 28.6327538495249954
  2.8186117814501150 37.4283211689214923 28.6327538495249954
 -5.6371822185498859 37.4283211689214923 28.6327538495249954
 60.5998848947577358 34.9873675805157234 28.6327538495249954
 36.6417452180303869 71.6020375533019688 28.6327538495249954
 54.9626607087777472 34.9873675805157234 28.6327538495249954
 46.5068667087777357 34.9873675805157234 28.6327538495249954
 26.7767088947577392 34.9873675805157234 28.6327538495249954
 23.9580545227977240 34.9873675805157234 28.6327538495249954
 21.1394847087777364 34.9873675805157234 28.6327538495249954
 18.3209148947577418 34.9873675805157234 28.6327538495249954
 15.5022605227977337 34.9873675805157234 28.6327538495249954
  7.0464665227977319 34.9873675805157234 28.6327538495249954
 -4.2278972912222672 34.9873675805157234 28.6327538495249954
 -7.0464671052422672 34.9873675805157234 28.6327538495249954
 62.0092121010559580 32.5463407627700150 28.6327538495249954
 59.1905577290959641 32.5463407627700150 28.6327538495249954
 47.9161939150759579 32.5463407627700150 28.6327538495249954
 45.0976241010559633 32.5463407627700150 28.6327538495249954
 42.2789697290959623 32.5463407627700150 28.6327538495249954
 33.8232179674301037 37.4283211689214923 28.6327538495249954
 14.0930179150759578 32.5463407627700150 28.6327538495249954
 47.9161515954701187 37.4283211689214923 28.6327538495249954
 62.0091697814501188 37.4283211689214923 28.6327538495249954
 39.4603998338042672 42.3103015750729767 28.6327538495249954
 36.6417454618442662 42.3103015750729767 28.6327538495249954
 33.8231756478242644 42.3103015750729767 28.6327538495249954
 19.7301574618442501 42.3103015750729767 28.6327538495249954
 11.2743634618442599 42.3103015750729767 28.6327538495249954
  8.4557936478242581 42.3103015750729767 28.6327538495249954
  2.8185694618442589 42.3103015750729767 28.6327538495249954
 -11.2743641661957401 42.3103015750729767 28.6327538495249954
 -14.0930185381557376 42.3103015750729767 28.6327538495249954
 -16.9115883521757375 42.3103015750729767 28.6327538495249954
 54.9626606681424974 39.8692747573272612 28.6327538495249954
 40.8697270401024966 39.8692747573272612 28.6327538495249954
 38.0510726681424956 39.8692747573272612 28.6327538495249954
 35.2325028541224938 39.8692747573272612 28.6327538495249954
 32.4139330401024850 39.8692747573272612 28.6327538495249954
 23.9581390401024947 39.8692747573272612 28.6327538495249954
 21.1394846681424795 39.8692747573272612 28.6327538495249954
 18.3209148541224920 39.8692747573272612 28.6327538495249954
  9.8651208541224857 39.8692747573272612 28.6327538495249954
  7.0465510401024849 39.8692747573272612 28.6327538495249954
  4.2278966681424874 39.8692747573272612 28.6327538495249954
 -4.2278973318575099 39.8692747573272612 28.6327538495249954
 -12.6836913318575100 39.8692747573272612 28.6327538495249954
 59.1905999674301100 37.4283211689214923 28.6327538495249954
 11.2744481010559561 32.5463407627700150 28.6327538495249954
 -5.6371398989440404 32.5463407627700150 28.6327538495249954
 -8.4557942709040379 32.5463407627700150 28.6327538495249954
 60.5998849760294434 25.2234067682127652 28.6327538495249954
 57.7813151620094345 25.2234067682127652 28.6327538495249954
 46.5068667900494361 25.2234067682127652 28.6327538495249954
 26.7767089760294326 25.2234067682127652 28.6327538495249954
 23.9581391620094379 25.2234067682127652 28.6327538495249954
 12.6836907900494289 25.2234067682127652 28.6327538495249954
  1.4093269760294336 25.2234067682127652 28.6327538495249954
 -12.6836912099505668 25.2234067682127652 28.6327538495249954
 59.1906000893370532 22.7824531798069998 28.6327538495249954
 47.9161517173770548 22.7824531798069998 28.6327538495249954
 45.0975819033570531 22.7824531798069998 28.6327538495249954
 39.4603577173770574 22.7824531798069998 28.6327538495249954
 36.6417879033570415 22.7824531798069998 28.6327538495249954
 22.5487697173770485 22.7824531798069998 28.6327538495249954
 19.7301999033570468 22.7824531798069998 28.6327538495249954
 14.0929757173770476 22.7824531798069998 28.6327538495249954
 11.2744059033570529 22.7824531798069998 28.6327538495249954
 -8.4557519106629488 22.7824531798069998 28.6327538495249954
 71.8742488306846781 20.3414995914012344 28.6327538495249954
 69.0556790166646692 20.3414995914012344 28.6327538495249954
 60.5998850166646719 20.3414995914012344 28.6327538495249954
 52.1440910166646745 20.3414995914012344 28.6327538495249954
 46.5068668306846718 20.3414995914012344 28.6327538495249954
 -14.0930184162487979 27.6644335859584807 28.6327538495249954
 -2.8185700442888009 27.6644335859584807 28.6327538495249954
 -0.0000002302687971 27.6644335859584807 28.6327538495249954
  2.8185695837512008 27.6644335859584807 28.6327538495249954
 -14.0929338989440378 32.5463407627700150 28.6327538495249954
 66.2370668424035927 30.1053871743642461 28.6327538495249954
 49.3254788424035837 30.1053871743642461 28.6327538495249954
 46.5069090283835891 30.1053871743642461 28.6327538495249954
 35.2324606564235907 30.1053871743642461 28.6327538495249954
 32.4138908424035748 30.1053871743642461 28.6327538495249954
 29.5953210283835837 30.1053871743642461 28.6327538495249954
 15.5023028424035783 30.1053871743642461 28.6327538495249954
 12.6837330283835765 30.1053871743642461 28.6327538495249954
  1.4092846564235810 30.1053871743642461 28.6327538495249954
 -4.2278549716164209 30.1053871743642461 28.6327538495249954
 47.9161938338042646 42.3103015750729767 28.6327538495249954
 -7.0465093435764183 30.1053871743642461 28.6327538495249954
 -15.5023033435764184 30.1053871743642461 28.6327538495249954
 67.6463517697312113 27.6644335859584807 28.6327538495249954
 53.5533335837512112 27.6644335859584807 28.6327538495249954
 47.9161939557112078 27.6644335859584807 28.6327538495249954
 45.0975395837512067 27.6644335859584807 28.6327538495249954
 36.6417455837512094 27.6644335859584807 28.6327538495249954
 31.0046059557112059 27.6644335859584807 28.6327538495249954
 28.1859515837511907 27.6644335859584807 28.6327538495249954
 25.3673817697312032 27.6644335859584807 28.6327538495249954
 14.0930179557111952 27.6644335859584807 28.6327538495249954
 11.2743635837511977 27.6644335859584807 28.6327538495249954
 -12.6836489716164174 30.1053871743642461 28.6327538495249954
 57.7812305227977419 34.9873675805157234 28.6327538495249954
