 H  O 
 1.0000000000000000
    84.5579400000000021    0.0000000000000000    0.0000000000000000
   -42.2789706095346958   73.2293399455724767    0.0000000000000000
     0.0000000000000000    0.0000000000000000   46.9039550000000034
 H   O  
 214 276
Cartesian
 -0.0000000135450799  1.6273023922705114 28.1128704123049964
 46.5068242401747796 57.7698207603227232 28.1128704123049964
 40.8696846121347903 57.7698207603227232 28.1128704123049964
  1.4092846699686612 28.4780847820937346 28.1128704123049964
  9.8650786699686659 28.4780847820937346 28.1128704123049964
 21.1394422401747804 57.7698207603227232 28.1128704123049964
 23.9580968559486607 28.4780847820937346 28.1128704123049964
 26.7766666699686624 28.4780847820937346 28.1128704123049964
 18.3208724261547857 57.7698207603227232 28.1128704123049964
 32.4138908559486651 28.4780847820937346 28.1128704123049964
 12.6836482401747883 57.7698207603227232 28.1128704123049964
 49.3254788559486528 28.4780847820937346 28.1128704123049964
  4.2278542401747847 57.7698207603227232 28.1128704123049964
 -4.2279397598252162 57.7698207603227232 28.1128704123049964
 -15.5023033300313369 28.4780847820937346 28.1128704123049964
 60.5998426699686590 28.4780847820937346 28.1128704123049964
 -11.2743640713789581 30.9190383704995000 28.1128704123049964
 -23.9580975738452153 57.7698207603227232 28.1128704123049964
 50.7347635394624064 55.3288671719169614 28.1128704123049964
 47.9161091675023982 55.3288671719169614 28.1128704123049964
  5.6372239286210437 30.9190383704995000 28.1128704123049964
 22.5488119286210420 30.9190383704995000 28.1128704123049964
 25.3673817426410437 30.9190383704995000 28.1128704123049964
 33.8231757426410411 30.9190383704995000 28.1128704123049964
 36.6417455566610357 30.9190383704995000 28.1128704123049964
 47.9161939286210341 30.9190383704995000 28.1128704123049964
 19.7301573534824009 55.3288671719169614 28.1128704123049964
 64.8277819286210502 30.9190383704995000 28.1128704123049964
 16.9115875394624062 55.3288671719169614 28.1128704123049964
 -12.6837337598252144 57.7698207603227232 28.1128704123049964
 62.0091275972962777 26.0371311936879657 28.1128704123049964
 -31.0046066871528367 60.2107743487284921 28.1128704123049964
 47.9161094113162704 26.0371311936879657 28.1128704123049964
 22.5487697309221353 21.1551507875364884 28.1128704123049964
 28.1859939169021310 21.1551507875364884 28.1128704123049964
 42.2789275449421211 21.1551507875364884 28.1128704123049964
 45.0975819169021293 21.1551507875364884 28.1128704123049964
 -15.5023458934510643 62.6518011664742076 28.1128704123049964
 64.8277397309221328 21.1551507875364884 28.1128704123049964
 70.4649639169021356 21.1551507875364884 28.1128704123049964
 -9.8651213823854889 23.5961043759422537 28.1128704123049964
 -7.0464670104254905 23.5961043759422537 28.1128704123049964
 -4.2278971964054897 23.5961043759422537 28.1128704123049964
 -1.4093273823854895 23.5961043759422537 28.1128704123049964
  4.2278968035945095 23.5961043759422537 28.1128704123049964
 -26.7767097074710669 62.6518011664742076 28.1128704123049964
 21.1394848035945166 23.5961043759422537 28.1128704123049964
 32.4138486176145122 23.5961043759422537 28.1128704123049964
 38.0510728035945078 23.5961043759422537 28.1128704123049964
 28.1859513128471555 60.2107743487284921 28.1128704123049964
 -18.3209155855641299 48.0059331773597151 28.1128704123049964
 16.9115874988271635 60.2107743487284921 28.1128704123049964
 66.2370246176145088 23.5961043759422537 28.1128704123049964
 11.2743633128471661 60.2107743487284921 28.1128704123049964
 -8.4557945011728339 60.2107743487284921 28.1128704123049964
 -11.2743643151928357 60.2107743487284921 28.1128704123049964
  8.4557937832762846 26.0371311936879657 28.1128704123049964
 11.2743635972962863 26.0371311936879657 28.1128704123049964
 -19.7301583151928384 60.2107743487284921 28.1128704123049964
 25.3673817832762829 26.0371311936879657 28.1128704123049964
 28.1859515972962846 26.0371311936879657 28.1128704123049964
 -22.5488126871528358 60.2107743487284921 28.1128704123049964
 14.0929331675024070 55.3288671719169614 28.1128704123049964
  1.4092423503628120 33.3600651882452155 28.1128704123049964
  9.8650363503628089 33.3600651882452155 28.1128704123049964
 15.5022605363428152 33.3600651882452155 28.1128704123049964
 50.7347213011282463 50.4468867657654769 28.1128704123049964
 11.2743634753893449 40.6829991828024689 28.1128704123049964
 19.7301574753893405 40.6829991828024689 28.1128704123049964
 28.1859514753893379 40.6829991828024689 28.1128704123049964
 42.2789273011282489 50.4468867657654769 28.1128704123049964
 25.3673393011282471 50.4468867657654769 28.1128704123049964
 39.4603152894093299 40.6829991828024689 28.1128704123049964
 16.9115453011282568 50.4468867657654769 28.1128704123049964
  2.8186116730882564 50.4468867657654769 28.1128704123049964
 -7.0465094519382783 43.1239527712082307 28.1128704123049964
 -4.2279396379182765 43.1239527712082307 28.1128704123049964
  1.4092845480617260 43.1239527712082307 28.1128704123049964
  4.2278543620817208 43.1239527712082307 28.1128704123049964
 29.5952363620817174 43.1239527712082307 28.1128704123049964
 52.1440062284558650 48.0059331773597151 28.1128704123049964
 54.9626183620817130 43.1239527712082307 28.1128704123049964
 -25.3673823792659014 45.5649063596139996 28.1128704123049964
 -22.5488125652458997 45.5649063596139996 28.1128704123049964
 -14.0930185652459006 45.5649063596139996 28.1128704123049964
 -11.2743641932859031 45.5649063596139996 28.1128704123049964
 40.8696424144358730 48.0059331773597151 28.1128704123049964
 14.0930178067140996 45.5649063596139996 28.1128704123049964
 35.2324182284558631 48.0059331773597151 28.1128704123049964
 32.4138484144358685 48.0059331773597151 28.1128704123049964
 29.5952786004158739 48.0059331773597151 28.1128704123049964
 39.4603998067140935 45.5649063596139996 28.1128704123049964
 18.3208302284558755 48.0059331773597151 28.1128704123049964
  9.8650362284558710 48.0059331773597151 28.1128704123049964
  7.0464664144358764 48.0059331773597151 28.1128704123049964
 -29.5952794402193682 52.8878403541712458 28.1128704123049964
  8.4557515449421317 21.1551507875364884 28.1128704123049964
  2.8185694753893440 40.6829991828024689 28.1128704123049964
 -18.3209156261993691 52.8878403541712458 28.1128704123049964
 21.1394847223228126 33.3600651882452155 28.1128704123049964
 26.7766243503628161 33.3600651882452155 28.1128704123049964
 29.5952787223228171 33.3600651882452155 28.1128704123049964
  2.8185693534824074 55.3288671719169614 28.1128704123049964
 46.5068667223228047 33.3600651882452155 28.1128704123049964
 49.3254365363428136 33.3600651882452155 28.1128704123049964
 -2.8186548324975988 55.3288671719169614 28.1128704123049964
 57.7812305363428109 33.3600651882452155 28.1128704123049964
 -16.9115884605376010 55.3288671719169614 28.1128704123049964
 -14.0929762050048097 35.8010187766509844 28.1128704123049964
 -8.4558365769648098 35.8010187766509844 28.1128704123049964
 -28.1860368324975958 55.3288671719169614 28.1128704123049964
 -0.0000425769648080 35.8010187766509844 28.1128704123049964
 19.7301997949951904 35.8010187766509844 28.1128704123049964
 25.3673394230351938 35.8010187766509844 28.1128704123049964
 42.2789274230351850 35.8010187766509844 28.1128704123049964
 45.0975817949951860 35.8010187766509844 28.1128704123049964
 47.9161516090151949 35.8010187766509844 28.1128704123049964
 53.5533757949951976 35.8010187766509844 28.1128704123049964
 32.4138904902278497 72.4156887494372228 28.1128704123049964
 -15.5022611323324266 38.2419723650567462 28.1128704123049964
 18.3209147457606356 52.8878403541712458 28.1128704123049964
  1.4093268676675752 38.2419723650567462 28.1128704123049964
  4.2278966816875769 38.2419723650567462 28.1128704123049964
 15.5022603738006346 52.8878403541712458 28.1128704123049964
 15.5022604957075725 38.2419723650567462 28.1128704123049964
 23.9580544957075787 38.2419723650567462 28.1128704123049964
 60.5998848676675763 38.2419723650567462 28.1128704123049964
 -19.7302427105906588 40.6829991828024689 28.1128704123049964
 -23.9580552542393690 52.8878403541712458 28.1128704123049964
 -1.4093277074710613 62.6518011664742076 28.1128704123049964
 19.7301573128471581 60.2107743487284921 28.1128704123049964
 -2.8186122690778692 21.1551507875364884 28.1128704123049964
 25.3673819051832226 11.3912632045734714 28.1128704123049964
 -40.8696856957521533 72.4156887494372228 28.1128704123049964
 -4.2278975621263015 67.5337083432857384 28.1128704123049964
 -7.0464673761463033 67.5337083432857384 28.1128704123049964
 -9.8651217481063078 67.5337083432857384 28.1128704123049964
 70.4649217192032182 11.3912632045734714 28.1128704123049964
 -38.0511158817321586 72.4156887494372228 28.1128704123049964
 -35.2324615097721576 72.4156887494372228 28.1128704123049964
 -15.5022613761463042 67.5337083432857384 28.1128704123049964
 22.5487275332232180 11.3912632045734714 28.1128704123049964
 -29.5952795621263043 67.5337083432857384 28.1128704123049964
 45.0975815511813138 65.0927547548799765 28.1128704123049964
 36.6417875511813165 65.0927547548799765 28.1128704123049964
 18.3208305941766909  4.0683292100162243 28.1128704123049964
 31.0045633652013137 65.0927547548799765 28.1128704123049964
 67.6463096668490635  6.5092827984219914 28.1128704123049964
 -15.5023036957521541 72.4156887494372228 28.1128704123049964
 40.8696849778556057 13.8322167929792403 28.1128704123049964
 16.9115451792213065 65.0927547548799765 28.1128704123049964
 63.4184126058955968 13.8322167929792403 28.1128704123049964
 21.1394849661366919  4.0683292100162243 28.1128704123049964
 66.2370669778556049 13.8322167929792403 28.1128704123049964
  7.0464662518936976 67.5337083432857384 28.1128704123049964
  9.8651206238536986 67.5337083432857384 28.1128704123049964
  2.8185692315754580 69.9747351610314468 28.1128704123049964
  5.6371390455954664 69.9747351610314468 28.1128704123049964
 73.2835338528290663  6.5092827984219914 28.1128704123049964
 76.1021036668490609  6.5092827984219914 28.1128704123049964
 -1.4093272604785494  8.9502363868277595 28.1128704123049964
  8.4557934175554603 69.9747351610314468 28.1128704123049964
 14.0929330455954638 69.9747351610314468 28.1128704123049964
 36.6417880388090680  6.5092827984219914 28.1128704123049964
  4.2278969255014500  8.9502363868277595 28.1128704123049964
 14.0929335332232206 11.3912632045734714 28.1128704123049964
 28.1859940388090742  6.5092827984219914 28.1128704123049964
 19.7302000388090732  6.5092827984219914 28.1128704123049964
 11.2744060388090670  6.5092827984219914 28.1128704123049964
 -2.8186121471709296  6.5092827984219914 28.1128704123049964
 80.3300429661366877  4.0683292100162243 28.1128704123049964
 66.2370247395214449  8.9502363868277595 28.1128704123049964
 18.3209146238536960 67.5337083432857384 28.1128704123049964
 12.6836904378736932 67.5337083432857384 28.1128704123049964
 46.5068669661366982  4.0683292100162243 28.1128704123049964
  5.6371395332232206 11.3912632045734714 28.1128704123049964
 23.9580547395214474  8.9502363868277595 28.1128704123049964
 14.0929753652013119 65.0927547548799765 28.1128704123049964
 62.0091700388090601  6.5092827984219914 28.1128704123049964
 42.2789699864549249  1.6273023922705114 28.1128704123049964
 59.1905579864549196  1.6273023922705114 28.1128704123049964
 64.8277820505279863 16.2731703813850075 28.1128704123049964
 67.6463518645479809 16.2731703813850075 28.1128704123049964
 73.2835760505279836 16.2731703813850075 28.1128704123049964
 -33.8232188207786848 65.0927547548799765 28.1128704123049964
 50.7347639864549222  1.6273023922705114 28.1128704123049964
 -1.4093273417502492 18.7141971991307194 28.1128704123049964
  4.2278968442297478 18.7141971991307194 28.1128704123049964
  9.8650364722697521 18.7141971991307194 28.1128704123049964
 12.6836908442297531 18.7141971991307194 28.1128704123049964
 -4.2279398817321576 72.4156887494372228 28.1128704123049964
 25.3673819864549230  1.6273023922705114 28.1128704123049964
 29.5952784785089271 62.6518011664742076 28.1128704123049964
 15.5023024902278443 72.4156887494372228 28.1128704123049964
 18.3208304722697477 18.7141971991307194 28.1128704123049964
 56.3719880505279747 16.2731703813850075 28.1128704123049964
 38.0510728442297577 18.7141971991307194 28.1128704123049964
 56.3719881724349250  1.6273023922705114 28.1128704123049964
 23.9580542925289315 62.6518011664742076 28.1128704123049964
 -8.4558364550578684 21.1551507875364884 28.1128704123049964
 76.1021459864549144  1.6273023922705114 28.1128704123049964
 -8.4558368207786891 65.0927547548799765 28.1128704123049964
  8.4557939864549194  1.6273023922705114 28.1128704123049964
  7.0464662925289359 62.6518011664742076 28.1128704123049964
 60.5998004722697488 18.7141971991307194 28.1128704123049964
 26.7766663042478434 72.4156887494372228 28.1128704123049964
 -25.3674248207786874 65.0927547548799765 28.1128704123049964
  5.6372240505279780 16.2731703813850075 28.1128704123049964
 -0.0000001354520196 16.2731703813850075 28.1128704123049964
 49.3254366582497497 18.7141971991307194 28.1128704123049964
 67.6463519864549170  1.6273023922705114 28.1128704123049964
 -9.8650795097721549 72.4156887494372228 28.1128704123049964
 28.1859516785679780 16.2731703813850075 28.1128704123049964
 29.5952788442297496 18.7141971991307194 28.1128704123049964
  5.6371814735631682 52.0741891580359919 28.6327538495249954
 -5.6371823404568273 52.0741891580359919 28.6327538495249954
  8.4558358455231772 52.0741891580359919 28.6327538495249954
 18.3209146103086198 69.1610107355562462 28.6327538495249954
 -11.2744065264368292 52.0741891580359919 28.6327538495249954
 23.9581387962886225 69.1610107355562462 28.6327538495249954
 -0.0000003928109814 47.1922087518845075 28.6327538495249954
 22.5488115899903860 71.6020375533019688 28.6327538495249954
 11.2744056595431719 52.0741891580359919 28.6327538495249954
 -2.8186125264368322 52.0741891580359919 28.6327538495249954
 -9.8651215991092069 49.6332355696302230 28.6327538495249954
 19.7302419791490244 47.1922087518845075 28.6327538495249954
 -7.0464672271492059 49.6332355696302230 28.6327538495249954
 -21.1394854131292078 49.6332355696302230 28.6327538495249954
 -4.2278974131292042 49.6332355696302230 28.6327538495249954
 -23.9580552271492060 49.6332355696302230 28.6327538495249954
 -11.2743644100096230 71.6020375533019688 28.6327538495249954
 -26.7767095991092070 49.6332355696302230 28.6327538495249954
 -25.3673825959896213 71.6020375533019688 28.6327538495249954
  7.0464664008907913 49.6332355696302230 28.6327538495249954
 12.6836905868707941 49.6332355696302230 28.6327538495249954
 47.9161937931690360 47.1922087518845075 28.6327538495249954
 23.9580544008907985 49.6332355696302230 28.6327538495249954
 -5.6372247819696195 71.6020375533019688 28.6327538495249954
 46.5068665868708067 49.6332355696302230 28.6327538495249954
 40.8697267962886173 69.1610107355562462 28.6327538495249954
 -15.5022612271492086 49.6332355696302230 28.6327538495249954
  5.6372235899903860 71.6020375533019688 28.6327538495249954
 35.2325026103086287 69.1610107355562462 28.6327538495249954
 11.2743632180303894 71.6020375533019688 28.6327538495249954
 29.5952784243286260 69.1610107355562462 28.6327538495249954
 -28.1859945264368292 52.0741891580359919 28.6327538495249954
 -22.5488127819696196 71.6020375533019688 28.6327538495249954
 25.3674237236162377 66.7200571471504844 28.6327538495249954
 25.3674238455231631 52.0741891580359919 28.6327538495249954
  8.4557935259173256 56.9561695641874692 28.6327538495249954
 23.9580542789838589 64.2791035587447084 28.6327538495249954
 21.1394844649638500 64.2791035587447084 28.6327538495249954
 25.3673815259173274 56.9561695641874692 28.6327538495249954
 33.8231755259173212 56.9561695641874692 28.6327538495249954
  4.2278964649638544 64.2791035587447084 28.6327538495249954
 36.6417453399373301 56.9561695641874692 28.6327538495249954
  1.4093266509438596 64.2791035587447084 28.6327538495249954
 -12.6836915350361448 64.2791035587447084 28.6327538495249954
 -18.3209157210161457 64.2791035587447084 28.6327538495249954
 -26.7766674014102968 59.3971231525932382 28.6327538495249954
 -23.9580553490561456 64.2791035587447084 28.6327538495249954
 -29.5952795350361448 64.2791035587447084 28.6327538495249954
 26.7767086509438528 64.2791035587447084 28.6327538495249954
 -32.4138493490561430 64.2791035587447084 28.6327538495249954
  1.4092844126096999 59.3971231525932382 28.6327538495249954
 -35.2325037210161440 64.2791035587447084 28.6327538495249954
 32.4138905985897026 59.3971231525932382 28.6327538495249954
 35.2324604126097114 59.3971231525932382 28.6327538495249954
 47.9161936712620928 61.8380767409990000 28.6327538495249954
 49.3254785985897115 59.3971231525932382 28.6327538495249954
 -33.8231765147179146 61.8380767409990000 28.6327538495249954
 45.0976238572420840 61.8380767409990000 28.6327538495249954
 42.2789694852820901 61.8380767409990000 28.6327538495249954
  8.4557934852820722 61.8380767409990000 28.6327538495249954
 -5.6371401427579215 61.8380767409990000 28.6327538495249954
 -2.8185703287379194 61.8380767409990000 28.6327538495249954
  5.6372236712620847 61.8380767409990000 28.6327538495249954
 -15.5023035873902977 59.3971231525932382 28.6327538495249954
 22.5487694735631763 52.0741891580359919 28.6327538495249954
 35.2325026509438644 64.2791035587447084 28.6327538495249954
 46.5068664649638706 64.2791035587447084 28.6327538495249954
 -4.2278975756713866 69.1610107355562462 28.6327538495249954
 28.1859936595431719 52.0741891580359919 28.6327538495249954
 33.8232178455231747 52.0741891580359919 28.6327538495249954
 -9.8650372037113900 69.1610107355562462 28.6327538495249954
 36.6417876595431693 52.0741891580359919 28.6327538495249954
 39.4603574735631781 52.0741891580359919 28.6327538495249954
 50.7348058455231694 52.0741891580359919 28.6327538495249954
 -18.3208312037113821 69.1610107355562462 28.6327538495249954
 -21.1394855756713831 69.1610107355562462 28.6327538495249954
 -26.7766252037113830 69.1610107355562462 28.6327538495249954
 -23.9580552677844487 54.5151427464417537 28.6327538495249954
 -32.4138493896913857 69.1610107355562462 28.6327538495249954
 -12.6836914537644478 54.5151427464417537 28.6327538495249954
 -8.4557944740826727 56.9561695641874692 28.6327538495249954
 39.4603573516562420 66.7200571471504844 28.6327538495249954
 33.8232177236162386 66.7200571471504844 28.6327538495249954
 28.1859935376362323 66.7200571471504844 28.6327538495249954
 -0.0000005147179177 61.8380767409990000 28.6327538495249954
  7.0465509181955595 54.5151427464417537 28.6327538495249954
  9.8651207322155532 54.5151427464417537 28.6327538495249954
  2.8186115376362340 66.7200571471504844 28.6327538495249954
  0.0000417236162395 66.7200571471504844 28.6327538495249954
 29.5952785462355585 54.5151427464417537 28.6327538495249954
 32.4139329181955560 54.5151427464417537 28.6327538495249954
 35.2325027322155506 54.5151427464417537 28.6327538495249954
 46.5068665462355568 54.5151427464417537 28.6327538495249954
 -33.8231342763837688 66.7200571471504844 28.6327538495249954
 -36.6417886483437698 66.7200571471504844 28.6327538495249954
 36.6417875376362474 66.7200571471504844 28.6327538495249954
 -2.8185702068309761 47.1922087518845075 28.6327538495249954
 -19.7302004045298887 37.4283211689214923 28.6327538495249954
 -19.7301582068309784 47.1922087518845075 28.6327538495249954
 -4.2278548497094786 15.4595191852497500 28.6327538495249954
 -7.0465092216694787 15.4595191852497500 28.6327538495249954
 76.1021458916381448 13.0185655968439828 28.6327538495249954
 73.2835760776181360 13.0185655968439828 28.6327538495249954
 70.4649217056581421 13.0185655968439828 28.6327538495249954
 67.6463518916381474 13.0185655968439828 28.6327538495249954
 50.7347638916381456 13.0185655968439828 28.6327538495249954
 45.0975397056581500 13.0185655968439828 28.6327538495249954
 23.9580969643105171 15.4595191852497500 28.6327538495249954
 36.6417457056581313 13.0185655968439828 28.6327538495249954
 31.0046060776181456 13.0185655968439828 28.6327538495249954
 28.1859517056581375 13.0185655968439828 28.6327538495249954
 16.9115878916381419 13.0185655968439828 28.6327538495249954
 14.0930180776181420 13.0185655968439828 28.6327538495249954
 11.2743637056581409 13.0185655968439828 28.6327538495249954
 -0.0000001083618602 13.0185655968439828 28.6327538495249954
 -5.6372242943418591 13.0185655968439828 28.6327538495249954
 74.6929032839163654 10.5775387790982709 28.6327538495249954
 33.8231758916381438 13.0185655968439828 28.6327538495249954
 71.8742489119563714 10.5775387790982709 28.6327538495249954
 32.4138909643105251 15.4595191852497500 28.6327538495249954
 60.5998427783305331 15.4595191852497500 28.6327538495249954
 16.9116300893370450 22.7824531798069998 28.6327538495249954
 11.2744059033570529 22.7824531798069998 28.6327538495249954
  5.6371817173770493 22.7824531798069998 28.6327538495249954
 60.5998850166646719 20.3414995914012344 28.6327538495249954
 57.7812306447046780 20.3414995914012344 28.6327538495249954
 38.0510728306846602 20.3414995914012344 28.6327538495249954
  7.0464666447046698 20.3414995914012344 28.6327538495249954
  1.4093270166646681 20.3414995914012344 28.6327538495249954
 43.6882547783305313 15.4595191852497500 28.6327538495249954
 64.8277820369829101 17.9004727736555189 28.6327538495249954
 45.0976242229628923 17.9004727736555189 28.6327538495249954
 42.2789698510029055 17.9004727736555189 28.6327538495249954
 36.6418302229629020 17.9004727736555189 28.6327538495249954
 33.8231758510028868 17.9004727736555189 28.6327538495249954
 22.5488120369828984 17.9004727736555189 28.6327538495249954
 14.0930180369829028 17.9004727736555189 28.6327538495249954
 -5.6371397770370981 17.9004727736555189 28.6327538495249954
 74.6928609643105261 15.4595191852497500 28.6327538495249954
 62.0092122229629013 17.9004727736555189 28.6327538495249954
 63.4184549119563812 10.5775387790982709 28.6327538495249954
 57.7813152839163777 10.5775387790982709 28.6327538495249954
 52.1440910979363750 10.5775387790982709 28.6327538495249954
 67.6463519729098550  3.2546047845410229 28.6327538495249954
 64.8277821588898462  3.2546047845410229 28.6327538495249954
 45.0976243448698426  3.2546047845410229 28.6327538495249954
 42.2789699729098274  3.2546047845410229 28.6327538495249954
 36.6418303448698452  3.2546047845410229 28.6327538495249954
 31.0046061588898354  3.2546047845410229 28.6327538495249954
  5.6372241588898389  3.2546047845410229 28.6327538495249954
  2.8186543448698407  3.2546047845410229 28.6327538495249954
 15.5022607666116095  5.6956316022867357 28.6327538495249954
 -0.0000000270901599  3.2546047845410229 28.6327538495249954
 63.4184972721974631  0.8136511961352557 28.6327538495249954
 52.1440489002374647  0.8136511961352557 28.6327538495249954
 32.4138910862174541  0.8136511961352557 28.6327538495249954
 29.5953212721974559  0.8136511961352557 28.6327538495249954
 21.1395272721974621  0.8136511961352557 28.6327538495249954
 18.3208729002374611  0.8136511961352557 28.6327538495249954
 15.5023030862174611  0.8136511961352557 28.6327538495249954
 12.6837332721974576  0.8136511961352557 28.6327538495249954
 80.3300852721974650  0.8136511961352557 28.6327538495249954
 23.9580547666116068  5.6956316022867357 28.6327538495249954
 38.0510729525916105  5.6956316022867357 28.6327538495249954
 40.8696427666115980  5.6956316022867357 28.6327538495249954
 35.2325030979363731 10.5775387790982709 28.6327538495249954
 32.4139332839163785 10.5775387790982709 28.6327538495249954
 15.5023452839163713 10.5775387790982709 28.6327538495249954
 12.6836909119563703 10.5775387790982709 28.6327538495249954
 -4.2278970880436288 10.5775387790982709 28.6327538495249954
 70.4649640252639955  8.1365851906925037 28.6327538495249954
 56.3719458392839954  8.1365851906925037 28.6327538495249954
 53.5533760252639937  8.1365851906925037 28.6327538495249954
 50.7348062112439848  8.1365851906925037 28.6327538495249954
 47.9161518392839980  8.1365851906925037 28.6327538495249954
 42.2790122112439946  8.1365851906925037 28.6327538495249954
 39.4603578392839793  8.1365851906925037 28.6327538495249954
 19.7302000252639935  8.1365851906925037 28.6327538495249954
 14.0929758392839890  8.1365851906925037 28.6327538495249954
 11.2744060252639908  8.1365851906925037 28.6327538495249954
  8.4558362112439873  8.1365851906925037 28.6327538495249954
  2.8186120252639890  8.1365851906925037 28.6327538495249954
 71.8742489525916284  5.6956316022867357 28.6327538495249954
 52.1440911385716035  5.6956316022867357 28.6327538495249954
 28.1859939033570512 22.7824531798069998 28.6327538495249954
 50.7348060893370558 22.7824531798069998 28.6327538495249954
 53.5533759033570504 22.7824531798069998 28.6327538495249954
 56.3719457173770593 22.7824531798069998 28.6327538495249954
 35.2325028541224938 39.8692747573272612 28.6327538495249954
 32.4139330401024850 39.8692747573272612 28.6327538495249954
  9.8651208541224857 39.8692747573272612 28.6327538495249954
  7.0465510401024849 39.8692747573272612 28.6327538495249954
 -4.2278973318575099 39.8692747573272612 28.6327538495249954
 -9.8650369598975125 39.8692747573272612 28.6327538495249954
 -12.6836913318575100 39.8692747573272612 28.6327538495249954
 -21.1394853318575109 39.8692747573272612 28.6327538495249954
 38.0510726681424956 39.8692747573272612 28.6327538495249954
 56.3719455954701161 37.4283211689214923 28.6327538495249954
 33.8232179674301037 37.4283211689214923 28.6327538495249954
 31.0045635954701204 37.4283211689214923 28.6327538495249954
 28.1859937814501045 37.4283211689214923 28.6327538495249954
  5.6371815954701097 37.4283211689214923 28.6327538495249954
 -5.6371822185498859 37.4283211689214923 28.6327538495249954
 -8.4557520325698885 37.4283211689214923 28.6327538495249954
 63.4184547087777446 34.9873675805157234 28.6327538495249954
 38.0510727087777383 34.9873675805157234 28.6327538495249954
 36.6417877814501125 37.4283211689214923 28.6327538495249954
 46.5068666681425000 39.8692747573272612 28.6327538495249954
 49.3255210401024939 39.8692747573272612 28.6327538495249954
 52.1440908541225028 39.8692747573272612 28.6327538495249954
 49.3254787204966547 44.7512551634787386 28.6327538495249954
 46.5069089064766459 44.7512551634787386 28.6327538495249954
 43.6882545345166520 44.7512551634787386 28.6327538495249954
 35.2324605345166475 44.7512551634787386 28.6327538495249954
 23.9580967204966342 44.7512551634787386 28.6327538495249954
 18.3208725345166314 44.7512551634787386 28.6327538495249954
 15.5023027204966439 44.7512551634787386 28.6327538495249954
  9.8650785345166412 44.7512551634787386 28.6327538495249954
 56.3719878338042619 42.3103015750729767 28.6327538495249954
 50.7347636478242734 42.3103015750729767 28.6327538495249954
 45.0975394618442706 42.3103015750729767 28.6327538495249954
 33.8231756478242644 42.3103015750729767 28.6327538495249954
 31.0046058338042556 42.3103015750729767 28.6327538495249954
 22.5488118338042653 42.3103015750729767 28.6327538495249954
 19.7301574618442501 42.3103015750729767 28.6327538495249954
  8.4557936478242581 42.3103015750729767 28.6327538495249954
  5.6372238338042564 42.3103015750729767 28.6327538495249954
 57.7813150401024913 39.8692747573272612 28.6327538495249954
 54.9626606681424974 39.8692747573272612 28.6327538495249954
 32.4138485227977426 34.9873675805157234 28.6327538495249954
 -5.6371400208509774 47.1922087518845075 28.6327538495249954
 15.5022605227977337 34.9873675805157234 28.6327538495249954
  4.2278967087777302 34.9873675805157234 28.6327538495249954
 39.4603999557111962 27.6644335859584807 28.6327538495249954
 31.0046059557112059 27.6644335859584807 28.6327538495249954
 19.7301575837512004 27.6644335859584807 28.6327538495249954
 16.9115877697311987 27.6644335859584807 28.6327538495249954
 14.0930179557111952 27.6644335859584807 28.6327538495249954
 -2.8185700442888009 27.6644335859584807 28.6327538495249954
 -8.4557942302688005 27.6644335859584807 28.6327538495249954
 -14.0930184162487979 27.6644335859584807 28.6327538495249954
 42.2789697697312050 27.6644335859584807 28.6327538495249954
 54.9626607900494406 25.2234067682127652 28.6327538495249954
 38.0510727900494388 25.2234067682127652 28.6327538495249954
 15.5023451620094264 25.2234067682127652 28.6327538495249954
 -4.2278972099505676 25.2234067682127652 28.6327538495249954
 -7.0464670239705693 25.2234067682127652 28.6327538495249954
 -9.8650368379905675 25.2234067682127652 28.6327538495249954
 -12.6836912099505668 25.2234067682127652 28.6327538495249954
 70.4649639033570594 22.7824531798069998 28.6327538495249954
 62.0091699033570620 22.7824531798069998 28.6327538495249954
 43.6882969760294344 25.2234067682127652 28.6327538495249954
 50.7347637697312024 27.6644335859584807 28.6327538495249954
 53.5533335837512112 27.6644335859584807 28.6327538495249954
 56.3719879557112051 27.6644335859584807 28.6327538495249954
 -4.2278972912222672 34.9873675805157234 28.6327538495249954
 -9.8651214772022673 34.9873675805157234 28.6327538495249954
 -18.3209154772022664 34.9873675805157234 28.6327538495249954
 62.0092121010559580 32.5463407627700150 28.6327538495249954
 53.5534181010559607 32.5463407627700150 28.6327538495249954
 42.2789697290959623 32.5463407627700150 28.6327538495249954
 25.3673817290959498 32.5463407627700150 28.6327538495249954
 16.9115877290959595 32.5463407627700150 28.6327538495249954
 -2.8185700849240374 32.5463407627700150 28.6327538495249954
 -16.9115882709040370 32.5463407627700150 28.6327538495249954
 54.9627030283835865 30.1053871743642461 28.6327538495249954
 43.6882546564235881 30.1053871743642461 28.6327538495249954
 15.5023028424035783 30.1053871743642461 28.6327538495249954
 12.6837330283835765 30.1053871743642461 28.6327538495249954
  7.0465088424035836 30.1053871743642461 28.6327538495249954
  4.2279390283835818 30.1053871743642461 28.6327538495249954
 -1.4092851575964171 30.1053871743642461 28.6327538495249954
 -7.0465093435764183 30.1053871743642461 28.6327538495249954
 64.8277819557112025 27.6644335859584807 28.6327538495249954
  9.8651208947577302 34.9873675805157234 28.6327538495249954
 36.6417452180303869 71.6020375533019688 28.6327538495249954
