 H  O 
 1.0000000000000000
    84.5579400000000021    0.0000000000000000    0.0000000000000000
   -42.2789706095346958   73.2293399455724767    0.0000000000000000
     0.0000000000000000    0.0000000000000000   46.9039550000000034
 H   O  
 198 360
Cartesian
 62.0091697949951950 35.8010187766509844 28.1128704123049964
 35.2325028676675771 38.2419723650567462 28.1128704123049964
 29.5952786816875744 38.2419723650567462 28.1128704123049964
 26.7767088676675797 38.2419723650567462 28.1128704123049964
 -4.2278973183124275 38.2419723650567462 28.1128704123049964
 38.0510301182678390 72.4156887494372228 28.1128704123049964
 53.5533757949951976 35.8010187766509844 28.1128704123049964
 38.0510726816875717 38.2419723650567462 28.1128704123049964
 45.0975817949951860 35.8010187766509844 28.1128704123049964
 16.9115454230351894 35.8010187766509844 28.1128704123049964
  8.4557514230351885 35.8010187766509844 28.1128704123049964
 -0.0000425769648080 35.8010187766509844 28.1128704123049964
 -5.6371822050048115 35.8010187766509844 28.1128704123049964
 -8.4558365769648098 35.8010187766509844 28.1128704123049964
 -16.9116305769648072 35.8010187766509844 28.1128704123049964
 28.1859937949951949 35.8010187766509844 28.1128704123049964
 46.5068667223228047 33.3600651882452155 28.1128704123049964
 -19.7302427105906588 40.6829991828024689 28.1128704123049964
  2.8185694753893440 40.6829991828024689 28.1128704123049964
 25.3673816207341005 45.5649063596139996 28.1128704123049964
 14.0930178067140996 45.5649063596139996 28.1128704123049964
  5.6372238067141032 45.5649063596139996 28.1128704123049964
 -0.0000003792658964 45.5649063596139996 28.1128704123049964
 -5.6372245652458988 45.5649063596139996 28.1128704123049964
 43.6882545480617210 43.1239527712082307 28.1128704123049964
 -5.6372245246106605 40.6829991828024689 28.1128704123049964
 38.0510303620817112 43.1239527712082307 28.1128704123049964
 -9.8650792659582809 43.1239527712082307 28.1128704123049964
 -12.6837336379182783 43.1239527712082307 28.1128704123049964
 -15.5023034519382783 43.1239527712082307 28.1128704123049964
 56.3719032894093317 40.6829991828024689 28.1128704123049964
 50.7347636613693425 40.6829991828024689 28.1128704123049964
  8.4557936613693432 40.6829991828024689 28.1128704123049964
 29.5952363620817174 43.1239527712082307 28.1128704123049964
 47.9161938067141051 45.5649063596139996 28.1128704123049964
 38.0510727223228145 33.3600651882452155 28.1128704123049964
  7.0464665363428152 33.3600651882452155 28.1128704123049964
 26.7767089895745123 23.5961043759422537 28.1128704123049964
 23.9580546176145113 23.5961043759422537 28.1128704123049964
 21.1394848035945166 23.5961043759422537 28.1128704123049964
 18.3209149895745149 23.5961043759422537 28.1128704123049964
  4.2278968035945095 23.5961043759422537 28.1128704123049964
 -1.4093273823854895 23.5961043759422537 28.1128704123049964
 40.8696426176145025 23.5961043759422537 28.1128704123049964
 -9.8651213823854889 23.5961043759422537 28.1128704123049964
 53.5533759169021195 21.1551507875364884 28.1128704123049964
 39.4603577309221265 21.1551507875364884 28.1128704123049964
 31.0045637309221327 21.1551507875364884 28.1128704123049964
 19.7301999169021336 21.1551507875364884 28.1128704123049964
 11.2744059169021327 21.1551507875364884 28.1128704123049964
  2.8186119169021282 21.1551507875364884 28.1128704123049964
 62.0091699169021311 21.1551507875364884 28.1128704123049964
 15.5022605363428152 33.3600651882452155 28.1128704123049964
 54.9626608035945097 23.5961043759422537 28.1128704123049964
 63.4184548035945070 23.5961043759422537 28.1128704123049964
 -9.8651214636571893 33.3600651882452155 28.1128704123049964
 59.1905577426410403 30.9190383704995000 28.1128704123049964
 -5.6372244433389582 30.9190383704995000 28.1128704123049964
 -11.2743640713789581 30.9190383704995000 28.1128704123049964
 -14.0930184433389574 30.9190383704995000 28.1128704123049964
 40.8696848559486625 28.4780847820937346 28.1128704123049964
 60.5998849895745124 23.5961043759422537 28.1128704123049964
 35.2324606699686598 28.4780847820937346 28.1128704123049964
 21.1394424839886597 28.4780847820937346 28.1128704123049964
 18.3208726699686650 28.4780847820937346 28.1128704123049964
 15.5023028559486651 28.4780847820937346 28.1128704123049964
  9.8650786699686659 28.4780847820937346 28.1128704123049964
 -12.6837335160113369 28.4780847820937346 28.1128704123049964
 69.0556789895745169 23.5961043759422537 28.1128704123049964
 26.7766666699686624 28.4780847820937346 28.1128704123049964
 -23.9581397715441291 48.0059331773597151 28.1128704123049964
 -7.0465517715441273 48.0059331773597151 28.1128704123049964
 15.5022604144358738 48.0059331773597151 28.1128704123049964
 40.8696422518936870 67.5337083432857384 28.1128704123049964
 29.5952784378736951 67.5337083432857384 28.1128704123049964
  7.0464662518936976 67.5337083432857384 28.1128704123049964
 -9.8651217481063078 67.5337083432857384 28.1128704123049964
 -26.7767097481063061 67.5337083432857384 28.1128704123049964
 -38.0510735621263052 67.5337083432857384 28.1128704123049964
 -33.8231765824445318 69.9747351610314468 28.1128704123049964
 45.0975815511813138 65.0927547548799765 28.1128704123049964
 19.7301995511813146 65.0927547548799765 28.1128704123049964
 14.0929753652013119 65.0927547548799765 28.1128704123049964
  5.6371813652013136 65.0927547548799765 28.1128704123049964
 -2.8186126347986837 65.0927547548799765 28.1128704123049964
 -8.4558368207786891 65.0927547548799765 28.1128704123049964
 -22.5487704488186900 65.0927547548799765 28.1128704123049964
 25.3673391792213039 65.0927547548799765 28.1128704123049964
 -28.1859946347986892 65.0927547548799765 28.1128704123049964
 -31.0046067684245337 69.9747351610314468 28.1128704123049964
  2.8185692315754580 69.9747351610314468 28.1128704123049964
 35.2324603042478444 72.4156887494372228 28.1128704123049964
 32.4138904902278497 72.4156887494372228 28.1128704123049964
 29.5952361182678381 72.4156887494372228 28.1128704123049964
 21.1394421182678336 72.4156887494372228 28.1128704123049964
 18.3208723042478390 72.4156887494372228 28.1128704123049964
 15.5023024902278443 72.4156887494372228 28.1128704123049964
 -5.6372247684245327 69.9747351610314468 28.1128704123049964
  9.8650783042478416 72.4156887494372228 28.1128704123049964
  1.4092843042478451 72.4156887494372228 28.1128704123049964
 -4.2279398817321576 72.4156887494372228 28.1128704123049964
 -7.0465096957521522 72.4156887494372228 28.1128704123049964
 -18.3208735097721558 72.4156887494372228 28.1128704123049964
 42.2789694175554729 69.9747351610314468 28.1128704123049964
 33.8231754175554755 69.9747351610314468 28.1128704123049964
  4.2278541182678469 72.4156887494372228 28.1128704123049964
 43.6882121065489244 62.6518011664742076 28.1128704123049964
 38.0510724785089351 62.6518011664742076 28.1128704123049964
 29.5952784785089271 62.6518011664742076 28.1128704123049964
 -19.7302428324975985 55.3288671719169614 28.1128704123049964
 -31.0046066465175976 55.3288671719169614 28.1128704123049964
 43.6882967457606384 52.8878403541712458 28.1128704123049964
 18.3209147457606356 52.8878403541712458 28.1128704123049964
  9.8651207457606311 52.8878403541712458 28.1128704123049964
 -9.8651216261993682 52.8878403541712458 28.1128704123049964
 -16.9115884605376010 55.3288671719169614 28.1128704123049964
 -18.3209156261993691 52.8878403541712458 28.1128704123049964
 33.8231333011282445 50.4468867657654769 28.1128704123049964
 28.1859936730882552 50.4468867657654769 28.1128704123049964
 25.3673393011282471 50.4468867657654769 28.1128704123049964
  2.8186116730882564 50.4468867657654769 28.1128704123049964
 40.8696424144358730 48.0059331773597151 28.1128704123049964
 21.1394846004158765 48.0059331773597151 28.1128704123049964
 -26.7767096261993700 52.8878403541712458 28.1128704123049964
 -5.6372246465175939 55.3288671719169614 28.1128704123049964
  5.6371391675024016 55.3288671719169614 28.1128704123049964
 25.3673815394624036 55.3288671719169614 28.1128704123049964
 -1.4093277074710613 62.6518011664742076 28.1128704123049964
 -7.0465518934510678 62.6518011664742076 28.1128704123049964
 -35.2325037074710679 62.6518011664742076 28.1128704123049964
 39.4603996848071645 60.2107743487284921 28.1128704123049964
 25.3673814988271609 60.2107743487284921 28.1128704123049964
 16.9115874988271635 60.2107743487284921 28.1128704123049964
 14.0930176848071671 60.2107743487284921 28.1128704123049964
 11.2743633128471661 60.2107743487284921 28.1128704123049964
 -11.2743643151928357 60.2107743487284921 28.1128704123049964
 -31.0046066871528367 60.2107743487284921 28.1128704123049964
 40.8696846121347903 57.7698207603227232 28.1128704123049964
 -29.5953217598252145 57.7698207603227232 28.1128704123049964
 45.0975393534824036 55.3288671719169614 28.1128704123049964
 36.6417453534824062 55.3288671719169614 28.1128704123049964
 28.1859513534823982 55.3288671719169614 28.1128704123049964
 57.7812306582497541 18.7141971991307194 28.1128704123049964
 52.1440064722697443 18.7141971991307194 28.1128704123049964
 40.8696844902278471 72.4156887494372228 28.1128704123049964
 47.9161095332232136 11.3912632045734714 28.1128704123049964
 43.6882971114814538  8.9502363868277595 28.1128704123049964
 71.8742489661366903  4.0683292100162243 28.1128704123049964
 50.7347639051832218 11.3912632045734714 28.1128704123049964
 28.1859517192032243 11.3912632045734714 28.1128704123049964
 31.0045215332232189 11.3912632045734714 28.1128704123049964
 39.4604000505279870 16.2731703813850075 28.1128704123049964
 38.0510729255014510  8.9502363868277595 28.1128704123049964
 -1.4093272198433096  4.0683292100162243 28.1128704123049964
 33.8231759051832199 11.3912632045734714 28.1128704123049964
  4.2278969661366892  4.0683292100162243 28.1128704123049964
 66.2370247801566876  4.0683292100162243 28.1128704123049964
 39.4603155332232234 11.3912632045734714 28.1128704123049964
 62.0091276785679781 16.2731703813850075 28.1128704123049964
 -7.0465092081243990 13.8322167929792403 28.1128704123049964
 63.4184549661366859  4.0683292100162243 28.1128704123049964
 67.6463519051832236 11.3912632045734714 28.1128704123049964
 15.5022607801566892  4.0683292100162243 28.1128704123049964
 36.6417880388090680  6.5092827984219914 28.1128704123049964
 28.1859516785679780 16.2731703813850075 28.1128704123049964
 54.9626609661366956  4.0683292100162243 28.1128704123049964
 21.1394849661366919  4.0683292100162243 28.1128704123049964
 76.1021036668490609  6.5092827984219914 28.1128704123049964
 18.3209151114814510  8.9502363868277595 28.1128704123049964
 -4.2278970744985491  8.9502363868277595 28.1128704123049964
 59.1905579051832120 11.3912632045734714 28.1128704123049964
 11.2743636785679815 16.2731703813850075 28.1128704123049964
 12.6836909661366875  4.0683292100162243 28.1128704123049964
 16.9115879051832216 11.3912632045734714 28.1128704123049964
 69.0555945941766822  4.0683292100162243 28.1128704123049964
 -4.2278971557702505 18.7141971991307194 28.1128704123049964
 66.2370247395214449  8.9502363868277595 28.1128704123049964
 71.8742489255014476  8.9502363868277595 28.1128704123049964
 33.8231336668490670  6.5092827984219914 28.1128704123049964
 26.7766244722697486 18.7141971991307194 28.1128704123049964
 35.2324607918756030 13.8322167929792403 28.1128704123049964
 21.1394848442297523 18.7141971991307194 28.1128704123049964
 40.8696849778556057 13.8322167929792403 28.1128704123049964
 25.3673396668490696  6.5092827984219914 28.1128704123049964
 -0.0000000948167802 11.3912632045734714 28.1128704123049964
 15.5022606582497549 18.7141971991307194 28.1128704123049964
 47.9161518528290671  6.5092827984219914 28.1128704123049964
 64.8277820505279863 16.2731703813850075 28.1128704123049964
 -7.0465515277302488 18.7141971991307194 28.1128704123049964
 43.6882124722697469 18.7141971991307194 28.1128704123049964
 57.7812307395214404  8.9502363868277595 28.1128704123049964
  8.4557938645479798 16.2731703813850075 28.1128704123049964
  7.0465089778555976 13.8322167929792403 28.1128704123049964
  5.6371395332232206 11.3912632045734714 28.1128704123049964
 52.1440911114814512  8.9502363868277595 28.1128704123049964
 11.2743637192032189 11.3912632045734714 28.1128704123049964
 73.2835760505279836 16.2731703813850075 28.1128704123049964
 80.3300429661366877  4.0683292100162243 28.1128704123049964
 -25.3673824740826745 56.9561695641874692 28.6327538495249954
  5.6371818392839907  8.1365851906925037 28.6327538495249954
 16.9115875259173158 56.9561695641874692 28.6327538495249954
  2.8186120252639890  8.1365851906925037 28.6327538495249954
 29.5952785462355585 54.5151427464417537 28.6327538495249954
 32.4139329181955560 54.5151427464417537 28.6327538495249954
 -15.5023035873902977 59.3971231525932382 28.6327538495249954
 40.8697269181955534 54.5151427464417537 28.6327538495249954
 11.2743633399373131 56.9561695641874692 28.6327538495249954
  8.4557935259173256 56.9561695641874692 28.6327538495249954
 49.3255209181955507 54.5151427464417537 28.6327538495249954
 -19.7301582881026789 56.9561695641874692 28.6327538495249954
 -8.4557944740826727 56.9561695641874692 28.6327538495249954
 -31.0046066600626737 56.9561695641874692 28.6327538495249954
 69.0556791385716195  5.6956316022867357 28.6327538495249954
 -11.2743642881026744 56.9561695641874692 28.6327538495249954
 -26.7766674014102968 59.3971231525932382 28.6327538495249954
 52.1440911385716035  5.6956316022867357 28.6327538495249954
 50.7347635259173302 56.9561695641874692 28.6327538495249954
 -14.0930186600626755 56.9561695641874692 28.6327538495249954
 42.2789695259173328 56.9561695641874692 28.6327538495249954
 -28.1859522881026763 56.9561695641874692 28.6327538495249954
 -16.9115884740826736 56.9561695641874692 28.6327538495249954
 -23.9580975873902986 59.3971231525932382 28.6327538495249954
 19.7301573399373318 56.9561695641874692 28.6327538495249954
 47.9161940369829011 17.9004727736555189 28.6327538495249954
 21.1394845462355612 54.5151427464417537 28.6327538495249954
 -16.9115461544768308 52.0741891580359919 28.6327538495249954
 -19.7302005264368283 52.0741891580359919 28.6327538495249954
 -22.5487703404568300 52.0741891580359919 28.6327538495249954
 50.7348062112439848  8.1365851906925037 28.6327538495249954
 -28.1859945264368292 52.0741891580359919 28.6327538495249954
 54.9626605868708040 49.6332355696302230 28.6327538495249954
 46.5068665868708067 49.6332355696302230 28.6327538495249954
 29.5952785868707942 49.6332355696302230 28.6327538495249954
 -14.0929763404568273 52.0741891580359919 28.6327538495249954
 53.5533760252639937  8.1365851906925037 28.6327538495249954
 15.5022604008907816 49.6332355696302230 28.6327538495249954
 12.6836905868707941 49.6332355696302230 28.6327538495249954
  7.0464664008907913 49.6332355696302230 28.6327538495249954
 62.0091700252639910  8.1365851906925037 28.6327538495249954
 -1.4093275991092098 49.6332355696302230 28.6327538495249954
 -4.2278974131292042 49.6332355696302230 28.6327538495249954
 -7.0464672271492059 49.6332355696302230 28.6327538495249954
 -18.3209155991092061 49.6332355696302230 28.6327538495249954
 23.9580544008907985 49.6332355696302230 28.6327538495249954
 42.2790122112439946  8.1365851906925037 28.6327538495249954
 -5.6371823404568273 52.0741891580359919 28.6327538495249954
  0.0000418455231652 52.0741891580359919 28.6327538495249954
  8.4558362112439873  8.1365851906925037 28.6327538495249954
  4.2278965462355513 54.5151427464417537 28.6327538495249954
 -1.4092430818044526 54.5151427464417537 28.6327538495249954
 14.0929758392839890  8.1365851906925037 28.6327538495249954
 -7.0464672677844442 54.5151427464417537 28.6327538495249954
 -15.5022612677844460 54.5151427464417537 28.6327538495249954
 19.7302000252639935  8.1365851906925037 28.6327538495249954
 -29.5952794537644479 54.5151427464417537 28.6327538495249954
 22.5487698392839881  8.1365851906925037 28.6327538495249954
 53.5533756595431782 52.0741891580359919 28.6327538495249954
 31.0045638392839891  8.1365851906925037 28.6327538495249954
 42.2790118455231720 52.0741891580359919 28.6327538495249954
 39.4603574735631781 52.0741891580359919 28.6327538495249954
 31.0045634735631737 52.0741891580359919 28.6327538495249954
 28.1859936595431719 52.0741891580359919 28.6327538495249954
 25.3674238455231631 52.0741891580359919 28.6327538495249954
 22.5487694735631763 52.0741891580359919 28.6327538495249954
 33.8232182112439972  8.1365851906925037 28.6327538495249954
 14.0929754735631594 52.0741891580359919 28.6327538495249954
 23.9581389181955480 54.5151427464417537 28.6327538495249954
 -9.8650794014102949 59.3971231525932382 28.6327538495249954
 35.2324604126097114 59.3971231525932382 28.6327538495249954
 -1.4092854014103018 59.3971231525932382 28.6327538495249954
 18.3209146103086198 69.1610107355562462 28.6327538495249954
 12.6836904243286224 69.1610107355562462 28.6327538495249954
  7.0465507962886189 69.1610107355562462 28.6327538495249954
  4.2278964243286037 69.1610107355562462 28.6327538495249954
 77.5114309002374711  0.8136511961352557 28.6327538495249954
  1.4093266103086164 69.1610107355562462 28.6327538495249954
 -1.4092432037113782 69.1610107355562462 28.6327538495249954
 83.1486550862174738  0.8136511961352557 28.6327538495249954
 -9.8650372037113900 69.1610107355562462 28.6327538495249954
 21.1394844243286215 69.1610107355562462 28.6327538495249954
 -15.5022613896913821 69.1610107355562462 28.6327538495249954
 -21.1394855756713831 69.1610107355562462 28.6327538495249954
 -29.5952795756713840 69.1610107355562462 28.6327538495249954
 -0.0000000270901599  3.2546047845410229 28.6327538495249954
 -35.2324192037113804 69.1610107355562462 28.6327538495249954
 36.6417875376362474 66.7200571471504844 28.6327538495249954
 33.8232177236162386 66.7200571471504844 28.6327538495249954
 11.2744483448698372  3.2546047845410229 28.6327538495249954
  2.8186115376362340 66.7200571471504844 28.6327538495249954
 -5.6371824623637705 66.7200571471504844 28.6327538495249954
 -18.3208312037113821 69.1610107355562462 28.6327538495249954
 23.9581387962886225 69.1610107355562462 28.6327538495249954
 26.7767086103086172 69.1610107355562462 28.6327538495249954
 32.4139327962886199 69.1610107355562462 28.6327538495249954
  4.2279392721974602  0.8136511961352557 28.6327538495249954
  7.0465090862174584  0.8136511961352557 28.6327538495249954
 12.6837332721974576  0.8136511961352557 28.6327538495249954
 15.5023030862174611  0.8136511961352557 28.6327538495249954
 18.3208729002374611  0.8136511961352557 28.6327538495249954
 23.9580970862174638  0.8136511961352557 28.6327538495249954
 26.7766669002374584  0.8136511961352557 28.6327538495249954
  5.6372235899903860 71.6020375533019688 28.6327538495249954
 38.0511152721974639  0.8136511961352557 28.6327538495249954
 43.6882549002374461  0.8136511961352557 28.6327538495249954
 46.5069092721974613  0.8136511961352557 28.6327538495249954
 49.3254790862174488  0.8136511961352557 28.6327538495249954
 -8.4557945959896212 71.6020375533019688 28.6327538495249954
 -16.9115885959896168 71.6020375533019688 28.6327538495249954
 63.4184972721974631  0.8136511961352557 28.6327538495249954
 -28.1859524100096195 71.6020375533019688 28.6327538495249954
 -36.6417464100096169 71.6020375533019688 28.6327538495249954
 43.6882966103086261 69.1610107355562462 28.6327538495249954
 69.0556369002374737  0.8136511961352557 28.6327538495249954
 35.2325026103086287 69.1610107355562462 28.6327538495249954
 74.6928610862174764  0.8136511961352557 28.6327538495249954
 -19.7302006483437680 66.7200571471504844 28.6327538495249954
 -7.0465095873903012 59.3971231525932382 28.6327538495249954
 16.9115879729098388  3.2546047845410229 28.6327538495249954
 -33.8231342763837688 66.7200571471504844 28.6327538495249954
 28.1860358572420893 61.8380767409990000 28.6327538495249954
 25.3673814852820882 61.8380767409990000 28.6327538495249954
 22.5488116712620865 61.8380767409990000 28.6327538495249954
 19.7302418572420777 61.8380767409990000 28.6327538495249954
 16.9115874852820909 61.8380767409990000 28.6327538495249954
 14.0930176712620749 61.8380767409990000 28.6327538495249954
 -5.6371401427579215 61.8380767409990000 28.6327538495249954
 -19.7301583287379145 61.8380767409990000 28.6327538495249954
 -25.3673825147179137 61.8380767409990000 28.6327538495249954
 33.8231754852820927 61.8380767409990000 28.6327538495249954
 73.2835761588898578  3.2546047845410229 28.6327538495249954
 43.6882544126097088 59.3971231525932382 28.6327538495249954
 50.7347636071890307 47.1922087518845075 28.6327538495249954
 32.4138905985897026 59.3971231525932382 28.6327538495249954
 29.5953207845697079 59.3971231525932382 28.6327538495249954
  7.0464667666116103  5.6956316022867357 28.6327538495249954
 21.1395267845696964 59.3971231525932382 28.6327538495249954
 29.5952789525916060  5.6956316022867357 28.6327538495249954
  7.0465085985897025 59.3971231525932382 28.6327538495249954
  1.4092844126096999 59.3971231525932382 28.6327538495249954
 46.5069087845697027 59.3971231525932382 28.6327538495249954
 42.2789694852820901 61.8380767409990000 28.6327538495249954
 59.1905579729098434  3.2546047845410229 28.6327538495249954
 45.0976238572420840 61.8380767409990000 28.6327538495249954
 -36.6417886483437698 66.7200571471504844 28.6327538495249954
 25.3673819729098362  3.2546047845410229 28.6327538495249954
 40.8696422789838678 64.2791035587447084 28.6327538495249954
 35.2325026509438644 64.2791035587447084 28.6327538495249954
 32.4138482789838704 64.2791035587447084 28.6327538495249954
 26.7767086509438528 64.2791035587447084 28.6327538495249954
 28.1860363448698337  3.2546047845410229 28.6327538495249954
 31.0046061588898354  3.2546047845410229 28.6327538495249954
 15.5022602789838597 64.2791035587447084 28.6327538495249954
 33.8231759729098371  3.2546047845410229 28.6327538495249954
  9.8651206509438563 64.2791035587447084 28.6327538495249954
 39.4604001588898399  3.2546047845410229 28.6327538495249954
  4.2278964649638544 64.2791035587447084 28.6327538495249954
  1.4093266509438596 64.2791035587447084 28.6327538495249954
 45.0976243448698426  3.2546047845410229 28.6327538495249954
 50.7347639729098461  3.2546047845410229 28.6327538495249954
 -9.8651217210161430 64.2791035587447084 28.6327538495249954
 -18.3209157210161457 64.2791035587447084 28.6327538495249954
 -21.1394855350361439 64.2791035587447084 28.6327538495249954
 53.5534183448698329  3.2546047845410229 28.6327538495249954
 -29.5952795350361448 64.2791035587447084 28.6327538495249954
 -31.0045644623637671 66.7200571471504844 28.6327538495249954
 45.0976239791490272 47.1922087518845075 28.6327538495249954
  4.2278969119563712 10.5775387790982709 28.6327538495249954
 36.6418299791490298 47.1922087518845075 28.6327538495249954
 45.0975395837512067 27.6644335859584807 28.6327538495249954
  4.2279391502905188 15.4595191852497500 28.6327538495249954
 39.4603999557111962 27.6644335859584807 28.6327538495249954
 31.0046059557112059 27.6644335859584807 28.6327538495249954
 22.5488119557112086 27.6644335859584807 28.6327538495249954
 12.6837331502905215 15.4595191852497500 28.6327538495249954
 18.3208727783305179 15.4595191852497500 28.6327538495249954
 23.9580969643105171 15.4595191852497500 28.6327538495249954
 14.0930179557111952 27.6644335859584807 28.6327538495249954
 47.9161939557112078 27.6644335859584807 28.6327538495249954
 26.7766667783305188 15.4595191852497500 28.6327538495249954
 -0.0000002302687971 27.6644335859584807 28.6327538495249954
 -2.8185700442888009 27.6644335859584807 28.6327538495249954
 -8.4557942302688005 27.6644335859584807 28.6327538495249954
 -11.2743640442888005 27.6644335859584807 28.6327538495249954
 60.5998849760294434 25.2234067682127652 28.6327538495249954
 57.7813151620094345 25.2234067682127652 28.6327538495249954
 54.9626607900494406 25.2234067682127652 28.6327538495249954
 52.1440909760294318 25.2234067682127652 28.6327538495249954
 49.3255211620094371 25.2234067682127652 28.6327538495249954
  5.6372239557112023 27.6644335859584807 28.6327538495249954
 46.5068667900494361 25.2234067682127652 28.6327538495249954
 53.5533335837512112 27.6644335859584807 28.6327538495249954
 62.0091275837512086 27.6644335859584807 28.6327538495249954
 28.1860361010559650 32.5463407627700150 28.6327538495249954
 25.3673817290959498 32.5463407627700150 28.6327538495249954
 19.7302421010559677 32.5463407627700150 28.6327538495249954
 62.0091277056581518 13.0185655968439828 28.6327538495249954
 14.0930179150759578 32.5463407627700150 28.6327538495249954
 11.2744481010559561 32.5463407627700150 28.6327538495249954
 64.8277820776181386 13.0185655968439828 28.6327538495249954
  2.8186541010559618 32.5463407627700150 28.6327538495249954
 -8.4557942709040379 32.5463407627700150 28.6327538495249954
 56.3719879557112051 27.6644335859584807 28.6327538495249954
 73.2835760776181360 13.0185655968439828 28.6327538495249954
 -7.0465092216694787 15.4595191852497500 28.6327538495249954
 46.5069090283835891 30.1053871743642461 28.6327538495249954
 43.6882546564235881 30.1053871743642461 28.6327538495249954
 -1.4092851575964171 30.1053871743642461 28.6327538495249954
 -4.2278548497094786 15.4595191852497500 28.6327538495249954
 -9.8650791575964192 30.1053871743642461 28.6327538495249954
 -1.4092850356894804 15.4595191852497500 28.6327538495249954
  1.4092847783305213 15.4595191852497500 28.6327538495249954
 67.6463517697312113 27.6644335859584807 28.6327538495249954
 -11.2743640849240396 32.5463407627700150 28.6327538495249954
 33.8231757290959649 32.5463407627700150 28.6327538495249954
 38.0510727900494388 25.2234067682127652 28.6327538495249954
 29.5952787900494201 25.2234067682127652 28.6327538495249954
  0.0000420893370479 22.7824531798069998 28.6327538495249954
 74.6928609643105261 15.4595191852497500 28.6327538495249954
 -5.6371820966429516 22.7824531798069998 28.6327538495249954
 -8.4557941489970982 17.9004727736555189 28.6327538495249954
 -11.2744062826229499 22.7824531798069998 28.6327538495249954
 71.8742488306846781 20.3414995914012344 28.6327538495249954
 66.2370246447046753 20.3414995914012344 28.6327538495249954
 63.4184548306846807 20.3414995914012344 28.6327538495249954
 54.9626608306846691 20.3414995914012344 28.6327538495249954
 16.9116300893370450 22.7824531798069998 28.6327538495249954
 -0.0000001489970986 17.9004727736555189 28.6327538495249954
 29.5952788306846699 20.3414995914012344 28.6327538495249954
 23.9580546447046672 20.3414995914012344 28.6327538495249954
 19.7302422229628966 17.9004727736555189 28.6327538495249954
 12.6836908306846716 20.3414995914012344 28.6327538495249954
  7.0464666447046698 20.3414995914012344 28.6327538495249954
  1.4093270166646681 20.3414995914012344 28.6327538495249954
 -9.8651213552953294 20.3414995914012344 28.6327538495249954
 33.8231758510028868 17.9004727736555189 28.6327538495249954
 39.4604000369828896 17.9004727736555189 28.6327538495249954
 35.2325030166646727 20.3414995914012344 28.6327538495249954
 32.4139331620094353 25.2234067682127652 28.6327538495249954
 69.0556367783305234 15.4595191852497500 28.6327538495249954
 60.5998427783305331 15.4595191852497500 28.6327538495249954
 26.7767089760294326 25.2234067682127652 28.6327538495249954
 23.9581391620094379 25.2234067682127652 28.6327538495249954
 21.1394847900494298 25.2234067682127652 28.6327538495249954
 18.3209149760294281 25.2234067682127652 28.6327538495249954
 15.5023451620094264 25.2234067682127652 28.6327538495249954
 12.6836907900494289 25.2234067682127652 28.6327538495249954
  9.8651209760294343 25.2234067682127652 28.6327538495249954
  7.0465511620094325 25.2234067682127652 28.6327538495249954
  4.2278967900494315 25.2234067682127652 28.6327538495249954
 22.5487697173770485 22.7824531798069998 28.6327538495249954
  1.4093269760294336 25.2234067682127652 28.6327538495249954
 43.6882547783305313 15.4595191852497500 28.6327538495249954
 46.5069091502905181 15.4595191852497500 28.6327538495249954
 59.1906000893370532 22.7824531798069998 28.6327538495249954
 52.1440487783305286 15.4595191852497500 28.6327538495249954
 50.7348060893370558 22.7824531798069998 28.6327538495249954
 45.0975819033570531 22.7824531798069998 28.6327538495249954
 42.2790120893370442 22.7824531798069998 28.6327538495249954
 54.9627031502905297 15.4595191852497500 28.6327538495249954
 28.1859939033570512 22.7824531798069998 28.6327538495249954
 -12.6836912099505668 25.2234067682127652 28.6327538495249954
 64.8277398392839928  8.1365851906925037 28.6327538495249954
 59.1905578916381430 13.0185655968439828 28.6327538495249954
 53.5533337056581473 13.0185655968439828 28.6327538495249954
 33.8231756478242644 42.3103015750729767 28.6327538495249954
 28.1859514618442688 42.3103015750729767 28.6327538495249954
 22.5488118338042653 42.3103015750729767 28.6327538495249954
 16.9115876478242626 42.3103015750729767 28.6327538495249954
  2.8185694618442589 42.3103015750729767 28.6327538495249954
 -0.0000003521757358 42.3103015750729767 28.6327538495249954
 -2.8185701661957374 42.3103015750729767 28.6327538495249954
 38.0510729119563607 10.5775387790982709 28.6327538495249954
 -16.9115883521757375 42.3103015750729767 28.6327538495249954
 39.4603998338042672 42.3103015750729767 28.6327538495249954
 -22.5488125381557367 42.3103015750729767 28.6327538495249954
 46.5068669119563793 10.5775387790982709 28.6327538495249954
 52.1440908541225028 39.8692747573272612 28.6327538495249954
 46.5068666681425000 39.8692747573272612 28.6327538495249954
 40.8697270401024966 39.8692747573272612 28.6327538495249954
 38.0510726681424956 39.8692747573272612 28.6327538495249954
 35.2325028541224938 39.8692747573272612 28.6327538495249954
 32.4139330401024850 39.8692747573272612 28.6327538495249954
 29.5952786681424982 39.8692747573272612 28.6327538495249954
 26.7767088541224823 39.8692747573272612 28.6327538495249954
 60.5998848541225001 39.8692747573272612 28.6327538495249954
 23.9581390401024947 39.8692747573272612 28.6327538495249954
 26.7767090979363651 10.5775387790982709 28.6327538495249954
 -23.9580974654833554 44.7512551634787386 28.6327538495249954
 31.0046057931690235 47.1922087518845075 28.6327538495249954
 11.2744479791490271 47.1922087518845075 28.6327538495249954
 -2.8185702068309761 47.1922087518845075 28.6327538495249954
 76.1021882112439840  8.1365851906925037 28.6327538495249954
 -11.2743642068309775 47.1922087518845075 28.6327538495249954
 -16.9115883928109767 47.1922087518845075 28.6327538495249954
 -19.7301582068309784 47.1922087518845075 28.6327538495249954
 57.7812727204966521 44.7512551634787386 28.6327538495249954
 54.9627029064766432 44.7512551634787386 28.6327538495249954
 53.5533334618442680 42.3103015750729767 28.6327538495249954
 52.1440485345166493 44.7512551634787386 28.6327538495249954
 43.6882545345166520 44.7512551634787386 28.6327538495249954
 18.3208725345166314 44.7512551634787386 28.6327538495249954
 15.5023027204966439 44.7512551634787386 28.6327538495249954
  9.8650785345166412 44.7512551634787386 28.6327538495249954
 15.5023452839163713 10.5775387790982709 28.6327538495249954
  1.4092845345166412 44.7512551634787386 28.6327538495249954
 21.1394849119563659 10.5775387790982709 28.6327538495249954
 -12.6836490935233588 44.7512551634787386 28.6327538495249954
 -18.3208732795033562 44.7512551634787386 28.6327538495249954
 46.5069089064766459 44.7512551634787386 28.6327538495249954
 42.2789697290959623 32.5463407627700150 28.6327538495249954
 21.1394846681424795 39.8692747573272612 28.6327538495249954
 12.6836906681424875 39.8692747573272612 28.6327538495249954
 49.3254365227977445 34.9873675805157234 28.6327538495249954
 19.7301577056581365 13.0185655968439828 28.6327538495249954
 43.6882968947577410 34.9873675805157234 28.6327538495249954
 40.8696425227977400 34.9873675805157234 28.6327538495249954
 35.2325028947577295 34.9873675805157234 28.6327538495249954
 32.4138485227977426 34.9873675805157234 28.6327538495249954
 22.5488120776181340 13.0185655968439828 28.6327538495249954
 26.7767088947577392 34.9873675805157234 28.6327538495249954
 25.3673818916381357 13.0185655968439828 28.6327538495249954
  8.4557938916381428 13.0185655968439828 28.6327538495249954
 12.6836907087777320 34.9873675805157234 28.6327538495249954
  4.2278967087777302 34.9873675805157234 28.6327538495249954
 -4.2278972912222672 34.9873675805157234 28.6327538495249954
 45.0975397056581500 13.0185655968439828 28.6327538495249954
 -12.6836912912222672 34.9873675805157234 28.6327538495249954
 50.7347638916381456 13.0185655968439828 28.6327538495249954
 64.8277819150759740 32.5463407627700150 28.6327538495249954
 56.3719879150759695 32.5463407627700150 28.6327538495249954
 50.7347637290959668 32.5463407627700150 28.6327538495249954
 47.9161939150759579 32.5463407627700150 28.6327538495249954
 31.0046060776181456 13.0185655968439828 28.6327538495249954
 15.5023450401024956 39.8692747573272612 28.6327538495249954
 57.7812305227977419 34.9873675805157234 28.6327538495249954
  2.8185697056581414 13.0185655968439828 28.6327538495249954
 54.9626609119563767 10.5775387790982709 28.6327538495249954
 -1.4092429598975091 39.8692747573272612 28.6327538495249954
 -7.0464671458775081 39.8692747573272612 28.6327538495249954
 -12.6836913318575100 39.8692747573272612 28.6327538495249954
 -15.5022611458775117 39.8692747573272612 28.6327538495249954
 -18.3208309598975099 39.8692747573272612 28.6327538495249954
 63.4184549119563812 10.5775387790982709 28.6327538495249954
 -21.1394853318575109 39.8692747573272612 28.6327538495249954
 53.5533757814501215 37.4283211689214923 28.6327538495249954
 -19.7302004045298887 37.4283211689214923 28.6327538495249954
 50.7348059674301126 37.4283211689214923 28.6327538495249954
 -5.6372242943418591 13.0185655968439828 28.6327538495249954
 -2.8185699223818586 13.0185655968439828 28.6327538495249954
 25.3674239674301170 37.4283211689214923 28.6327538495249954
 22.5487695954701017 37.4283211689214923 28.6327538495249954
 14.0929755954701115 37.4283211689214923 28.6327538495249954
 11.2744057814501097 37.4283211689214923 28.6327538495249954
  8.4558359674301080 37.4283211689214923 28.6327538495249954
  5.6371815954701097 37.4283211689214923 28.6327538495249954
 -2.8186124045298877 37.4283211689214923 28.6327538495249954
 47.9161515954701187 37.4283211689214923 28.6327538495249954
  1.4092849002374601  0.8136511961352557 28.6327538495249954
