 H  O 
 1.0000000000000000
    84.5579400000000021    0.0000000000000000    0.0000000000000000
   -42.2789706095346958   73.2293399455724767    0.0000000000000000
     0.0000000000000000    0.0000000000000000   46.9039550000000034
 H   O  
 195 249
Cartesian
 40.8696844902278471 72.4156887494372228 28.1128704123049964
  4.2278542401747847 57.7698207603227232 28.1128704123049964
 -4.2279397598252162 57.7698207603227232 28.1128704123049964
 -9.8650791440513395 28.4780847820937346 28.1128704123049964
 -1.4092851440513405 28.4780847820937346 28.1128704123049964
 -12.6837337598252144 57.7698207603227232 28.1128704123049964
 18.3208726699686650 28.4780847820937346 28.1128704123049964
 23.9580968559486607 28.4780847820937346 28.1128704123049964
 26.7766666699686624 28.4780847820937346 28.1128704123049964
 29.5952364839886641 28.4780847820937346 28.1128704123049964
 35.2324606699686598 28.4780847820937346 28.1128704123049964
 43.6882546699686571 28.4780847820937346 28.1128704123049964
 39.4603151675024009 55.3288671719169614 28.1128704123049964
 60.5998426699686590 28.4780847820937346 28.1128704123049964
 -16.9115882573589573 30.9190383704995000 28.1128704123049964
 11.2743633534824053 55.3288671719169614 28.1128704123049964
 -5.6372244433389582 30.9190383704995000 28.1128704123049964
  8.4557935394624035 55.3288671719169614 28.1128704123049964
  2.8185695566610427 30.9190383704995000 28.1128704123049964
  8.4557937426410454 30.9190383704995000 28.1128704123049964
 16.9115877426410464 30.9190383704995000 28.1128704123049964
 25.3673817426410437 30.9190383704995000 28.1128704123049964
 31.0046059286210465 30.9190383704995000 28.1128704123049964
 36.6417455566610357 30.9190383704995000 28.1128704123049964
 47.9161939286210341 30.9190383704995000 28.1128704123049964
 53.5533335566610376 30.9190383704995000 28.1128704123049964
 18.3208724261547857 57.7698207603227232 28.1128704123049964
 62.0091275566610349 30.9190383704995000 28.1128704123049964
 23.9580966121347885 57.7698207603227232 28.1128704123049964
 19.7301575972962873 26.0371311936879657 28.1128704123049964
 46.5068668442297550 18.7141971991307194 28.1128704123049964
 49.3254366582497497 18.7141971991307194 28.1128704123049964
 52.1440064722697443 18.7141971991307194 28.1128704123049964
 54.9626608442297453 18.7141971991307194 28.1128704123049964
 57.7812306582497541 18.7141971991307194 28.1128704123049964
 -21.1394855214910677 62.6518011664742076 28.1128704123049964
 -35.2325037074710679 62.6518011664742076 28.1128704123049964
  8.4557515449421317 21.1551507875364884 28.1128704123049964
 11.2744059169021327 21.1551507875364884 28.1128704123049964
 16.9115455449421290 21.1551507875364884 28.1128704123049964
 19.7301999169021336 21.1551507875364884 28.1128704123049964
 28.1859939169021310 21.1551507875364884 28.1128704123049964
 39.4603577309221265 21.1551507875364884 28.1128704123049964
 -12.6836911964054888 23.5961043759422537 28.1128704123049964
  1.4093269895745080 23.5961043759422537 28.1128704123049964
  4.2278968035945095 23.5961043759422537 28.1128704123049964
 23.9580546176145113 23.5961043759422537 28.1128704123049964
 -0.0000005011728327 60.2107743487284921 28.1128704123049964
 40.8696426176145025 23.5961043759422537 28.1128704123049964
 -22.5488126871528358 60.2107743487284921 28.1128704123049964
 -28.1859523151928357 60.2107743487284921 28.1128704123049964
 -31.0046066871528367 60.2107743487284921 28.1128704123049964
 49.3254786121347877 57.7698207603227232 28.1128704123049964
 -2.8186545886837178 26.0371311936879657 28.1128704123049964
  2.8185695972962814 26.0371311936879657 28.1128704123049964
 36.6417455972962784 26.0371311936879657 28.1128704123049964
 -15.5023456496371885 33.3600651882452155 28.1128704123049964
 -12.6836912776771893 33.3600651882452155 28.1128704123049964
  2.8185693534824074 55.3288671719169614 28.1128704123049964
 45.0975816730882570 50.4468867657654769 28.1128704123049964
 39.4603574871082543 50.4468867657654769 28.1128704123049964
 38.0510726816875717 38.2419723650567462 28.1128704123049964
 43.6882968676675674 38.2419723650567462 28.1128704123049964
 52.1440908676675789 38.2419723650567462 28.1128704123049964
 54.9626606816875736 38.2419723650567462 28.1128704123049964
 57.7812304957075682 38.2419723650567462 28.1128704123049964
  2.8185694753893440 40.6829991828024689 28.1128704123049964
 25.3673393011282471 50.4468867657654769 28.1128704123049964
 11.2743634753893449 40.6829991828024689 28.1128704123049964
 14.0929332894093395 40.6829991828024689 28.1128704123049964
 22.5487272894093422 40.6829991828024689 28.1128704123049964
 36.6417454753893352 40.6829991828024689 28.1128704123049964
 -8.4558366988717459 50.4468867657654769 28.1128704123049964
 -9.8650792659582809 43.1239527712082307 28.1128704123049964
 49.3254364144358703 48.0059331773597151 28.1128704123049964
 40.8696424144358730 48.0059331773597151 28.1128704123049964
 18.3208302284558755 48.0059331773597151 28.1128704123049964
 12.6836906004158720 48.0059331773597151 28.1128704123049964
 -22.5488125652458997 45.5649063596139996 28.1128704123049964
 -11.2743641932859031 45.5649063596139996 28.1128704123049964
  5.6372238067141032 45.5649063596139996 28.1128704123049964
 11.2743634347540986 45.5649063596139996 28.1128704123049964
 -21.1394853995841281 48.0059331773597151 28.1128704123049964
 47.9161938067141051 45.5649063596139996 28.1128704123049964
 15.5022604957075725 38.2419723650567462 28.1128704123049964
 -23.9580552542393690 52.8878403541712458 28.1128704123049964
 -18.3209156261993691 52.8878403541712458 28.1128704123049964
 -1.4093275042924258 38.2419723650567462 28.1128704123049964
 -1.4093274636571897 33.3600651882452155 28.1128704123049964
 15.5022605363428152 33.3600651882452155 28.1128704123049964
 52.1440907457606357 52.8878403541712458 28.1128704123049964
 46.5068665597806330 52.8878403541712458 28.1128704123049964
 40.8696425363428091 33.3600651882452155 28.1128704123049964
 43.6882967457606384 52.8878403541712458 28.1128704123049964
 46.5068667223228047 33.3600651882452155 28.1128704123049964
 49.3254365363428136 33.3600651882452155 28.1128704123049964
 35.2325027457606268 52.8878403541712458 28.1128704123049964
 21.1394845597806302 52.8878403541712458 28.1128704123049964
 57.7812305363428109 33.3600651882452155 28.1128704123049964
 -5.6371822050048115 35.8010187766509844 28.1128704123049964
 43.6882124722697469 18.7141971991307194 28.1128704123049964
 29.5952361182678381 72.4156887494372228 28.1128704123049964
 19.7301997949951904 35.8010187766509844 28.1128704123049964
 12.6836905597806329 52.8878403541712458 28.1128704123049964
 31.0045636090151895 35.8010187766509844 28.1128704123049964
 36.6417877949951958 35.8010187766509844 28.1128704123049964
  1.4093267457606342 52.8878403541712458 28.1128704123049964
 -7.0464672542393672 52.8878403541712458 28.1128704123049964
 -9.8651216261993682 52.8878403541712458 28.1128704123049964
 -18.3209155042924259 38.2419723650567462 28.1128704123049964
 -15.5022612542393716 52.8878403541712458 28.1128704123049964
 -12.6836913183124267 38.2419723650567462 28.1128704123049964
 -7.0464671323324293 38.2419723650567462 28.1128704123049964
 -4.2278973183124275 38.2419723650567462 28.1128704123049964
 15.5022603738006346 52.8878403541712458 28.1128704123049964
 29.5952788442297496 18.7141971991307194 28.1128704123049964
 12.6836908035945140 23.5961043759422537 28.1128704123049964
 23.9580546582497540 18.7141971991307194 28.1128704123049964
 32.4138487395214483  8.9502363868277595 28.1128704123049964
 46.5068669255014484  8.9502363868277595 28.1128704123049964
 60.5998851114814414  8.9502363868277595 28.1128704123049964
 69.0556791114814530  8.9502363868277595 28.1128704123049964
 77.5114731114814504  8.9502363868277595 28.1128704123049964
 -7.0465518934510678 62.6518011664742076 28.1128704123049964
 25.3673819051832226 11.3912632045734714 28.1128704123049964
 33.8231759051832199 11.3912632045734714 28.1128704123049964
 39.4603155332232234 11.3912632045734714 28.1128704123049964
 -38.0510735621263052 67.5337083432857384 28.1128704123049964
 45.0975397192032190 11.3912632045734714 28.1128704123049964
 47.9161095332232136 11.3912632045734714 28.1128704123049964
 50.7347639051832218 11.3912632045734714 28.1128704123049964
 53.5533337192032164 11.3912632045734714 28.1128704123049964
 45.0975815511813138 65.0927547548799765 28.1128704123049964
 67.6463519051832236 11.3912632045734714 28.1128704123049964
 36.6417875511813165 65.0927547548799765 28.1128704123049964
 76.1021459051832210 11.3912632045734714 28.1128704123049964
 -4.2279393941043990 13.8322167929792403 28.1128704123049964
  7.0465089778555976 13.8322167929792403 28.1128704123049964
 28.1859935511813049 65.0927547548799765 28.1128704123049964
 21.1394426058955993 13.8322167929792403 28.1128704123049964
 14.0929753652013119 65.0927547548799765 28.1128704123049964
 26.7767091114814519  8.9502363868277595 28.1128704123049964
 -0.0000428207786890 65.0927547548799765 28.1128704123049964
  1.4093266238536943 67.5337083432857384 28.1128704123049964
  4.2278964378736958 67.5337083432857384 28.1128704123049964
 21.1394421182678336 72.4156887494372228 28.1128704123049964
 56.3719881724349250  1.6273023922705114 28.1128704123049964
 -18.3208735097721558 72.4156887494372228 28.1128704123049964
 73.2835761724349197  1.6273023922705114 28.1128704123049964
 81.7393701724349171  1.6273023922705114 28.1128704123049964
 -38.0511158817321586 72.4156887494372228 28.1128704123049964
  7.0464667801566900  4.0683292100162243 28.1128704123049964
 12.6836909661366875  4.0683292100162243 28.1128704123049964
 35.2324185941766927  4.0683292100162243 28.1128704123049964
 46.5068669661366982  4.0683292100162243 28.1128704123049964
  8.4557934175554603 69.9747351610314468 28.1128704123049964
 -0.0000005824445366 69.9747351610314468 28.1128704123049964
 -2.8186549544045376 69.9747351610314468 28.1128704123049964
 -22.5488127684245363 69.9747351610314468 28.1128704123049964
  2.8186120388090696  6.5092827984219914 28.1128704123049964
 -25.3673825824445345 69.9747351610314468 28.1128704123049964
 25.3673396668490696  6.5092827984219914 28.1128704123049964
 45.0975820388090725  6.5092827984219914 28.1128704123049964
 56.3719458528290644  6.5092827984219914 28.1128704123049964
 40.8696422518936870 67.5337083432857384 28.1128704123049964
 70.4649640388090717  6.5092827984219914 28.1128704123049964
 76.1021036668490609  6.5092827984219914 28.1128704123049964
  9.8651211114814483  8.9502363868277595 28.1128704123049964
 18.3209151114814510  8.9502363868277595 28.1128704123049964
 38.0510306058956047 13.8322167929792403 28.1128704123049964
 14.0929335332232206 11.3912632045734714 28.1128704123049964
 40.8696849778556057 13.8322167929792403 28.1128704123049964
 -16.9116308207786865 65.0927547548799765 28.1128704123049964
 60.5998427918756022 13.8322167929792403 28.1128704123049964
 71.8742066058955942 13.8322167929792403 28.1128704123049964
 -2.8185699494720202 16.2731703813850075 28.1128704123049964
 -19.7302006347986882 65.0927547548799765 28.1128704123049964
  5.6372240505279780 16.2731703813850075 28.1128704123049964
  8.4557938645479798 16.2731703813850075 28.1128704123049964
 57.7812729778555934 13.8322167929792403 28.1128704123049964
 14.0930180505279825 16.2731703813850075 28.1128704123049964
 28.1859516785679780 16.2731703813850075 28.1128704123049964
 31.0046060505279790 16.2731703813850075 28.1128704123049964
 -36.6417886347986865 65.0927547548799765 28.1128704123049964
 73.2835760505279836 16.2731703813850075 28.1128704123049964
 -7.0465515277302488 18.7141971991307194 28.1128704123049964
  1.4092424722697507 18.7141971991307194 28.1128704123049964
  4.2278964785089341 62.6518011664742076 28.1128704123049964
 19.7301576785679771 16.2731703813850075 28.1128704123049964
 54.9626186058955923 13.8322167929792403 28.1128704123049964
 42.2789696207341024 45.5649063596139996 28.1128704123049964
 43.6882547918756003 13.8322167929792403 28.1128704123049964
 52.1440487918755977 13.8322167929792403 28.1128704123049964
 49.3254789778556031 13.8322167929792403 28.1128704123049964
 46.5068246058955950 13.8322167929792403 28.1128704123049964
 42.2789695259173328 56.9561695641874692 28.6327538495249954
 -31.0046067819696169 71.6020375533019688 28.6327538495249954
  9.8651206509438563 64.2791035587447084 28.6327538495249954
  4.2278965868707896 49.6332355696302230 28.6327538495249954
 16.9115875259173158 56.9561695641874692 28.6327538495249954
 11.2744478572420874 61.8380767409990000 28.6327538495249954
 -14.0930186600626755 56.9561695641874692 28.6327538495249954
  7.0464664008907913 49.6332355696302230 28.6327538495249954
  9.8651207728507995 49.6332355696302230 28.6327538495249954
 40.8697267962886173 69.1610107355562462 28.6327538495249954
 38.0510724243286234 69.1610107355562462 28.6327538495249954
 29.5952785868707942 49.6332355696302230 28.6327538495249954
 32.4139327962886199 69.1610107355562462 28.6327538495249954
 18.3209146103086198 69.1610107355562462 28.6327538495249954
 -16.9115885147179164 61.8380767409990000 28.6327538495249954
 32.4138484008907994 49.6332355696302230 28.6327538495249954
 14.0930176712620749 61.8380767409990000 28.6327538495249954
 15.5023447962886092 69.1610107355562462 28.6327538495249954
 -12.6836914131292051 49.6332355696302230 28.6327538495249954
 -26.7767095991092070 49.6332355696302230 28.6327538495249954
 56.3719877931690334 47.1922087518845075 28.6327538495249954
 53.5534179791490246 47.1922087518845075 28.6327538495249954
 25.3673814040103807 71.6020375533019688 28.6327538495249954
 -11.2743643287379136 61.8380767409990000 28.6327538495249954
 -16.9115883928109767 47.1922087518845075 28.6327538495249954
  5.6372235899903860 71.6020375533019688 28.6327538495249954
 -5.6372247819696195 71.6020375533019688 28.6327538495249954
 -14.0929340208509810 47.1922087518845075 28.6327538495249954
 -5.6371400208509774 47.1922087518845075 28.6327538495249954
 -8.4557945959896212 71.6020375533019688 28.6327538495249954
 -2.8185702068309761 47.1922087518845075 28.6327538495249954
 -14.0930187819696204 71.6020375533019688 28.6327538495249954
 -0.0000003928109814 47.1922087518845075 28.6327538495249954
 -16.9115885959896168 71.6020375533019688 28.6327538495249954
 -14.0929341427579153 61.8380767409990000 28.6327538495249954
 19.7302419791490244 47.1922087518845075 28.6327538495249954
 22.5488117931690120 47.1922087518845075 28.6327538495249954
 31.0046057931690235 47.1922087518845075 28.6327538495249954
 36.6418299791490298 47.1922087518845075 28.6327538495249954
  2.8186538572420905 61.8380767409990000 28.6327538495249954
 45.0976239791490272 47.1922087518845075 28.6327538495249954
 -28.1859524100096195 71.6020375533019688 28.6327538495249954
 -8.4557944740826727 56.9561695641874692 28.6327538495249954
 16.9115874852820909 61.8380767409990000 28.6327538495249954
 25.3673814852820882 61.8380767409990000 28.6327538495249954
 -4.2278975756713866 69.1610107355562462 28.6327538495249954
 39.4603996712620955 61.8380767409990000 28.6327538495249954
 47.9161514735631755 52.0741891580359919 28.6327538495249954
  7.0465085985897025 59.3971231525932382 28.6327538495249954
 -29.5952794537644479 54.5151427464417537 28.6327538495249954
 -11.2744066483437688 66.7200571471504844 28.6327538495249954
 -25.3673824740826745 56.9561695641874692 28.6327538495249954
 -26.7766250818044469 54.5151427464417537 28.6327538495249954
 25.3673815259173274 56.9561695641874692 28.6327538495249954
 -25.3673402763837679 66.7200571471504844 28.6327538495249954
 -28.1859946483437653 66.7200571471504844 28.6327538495249954
 -31.0045644623637671 66.7200571471504844 28.6327538495249954
 -1.4092854014103018 59.3971231525932382 28.6327538495249954
 -18.3208734014102959 59.3971231525932382 28.6327538495249954
 -28.1859522881026763 56.9561695641874692 28.6327538495249954
 29.5952785462355585 54.5151427464417537 28.6327538495249954
 31.0046057118973302 56.9561695641874692 28.6327538495249954
  7.0465509181955595 54.5151427464417537 28.6327538495249954
 47.9161937118973214 56.9561695641874692 28.6327538495249954
 23.9581389181955480 54.5151427464417537 28.6327538495249954
 36.6417453399373301 56.9561695641874692 28.6327538495249954
 12.6837327845697061 59.3971231525932382 28.6327538495249954
 -8.4557522763837714 66.7200571471504844 28.6327538495249954
 -5.6371824623637705 66.7200571471504844 28.6327538495249954
 32.4138482789838704 64.2791035587447084 28.6327538495249954
 40.8696422789838678 64.2791035587447084 28.6327538495249954
 -12.6836915756713875 69.1610107355562462 28.6327538495249954
 45.0976238572420840 61.8380767409990000 28.6327538495249954
 43.6882544126097088 59.3971231525932382 28.6327538495249954
 23.9580542789838589 64.2791035587447084 28.6327538495249954
 -32.4138493896913857 69.1610107355562462 28.6327538495249954
 40.8696845985897141 59.3971231525932382 28.6327538495249954
 -35.2324192037113804 69.1610107355562462 28.6327538495249954
 42.2790117236162359 66.7200571471504844 28.6327538495249954
 -28.1859945264368292 52.0741891580359919 28.6327538495249954
 -2.8185702881026811 56.9561695641874692 28.6327538495249954
 31.0045633516562411 66.7200571471504844 28.6327538495249954
 22.5487693516562366 66.7200571471504844 28.6327538495249954
 29.5953207845697079 59.3971231525932382 28.6327538495249954
 19.7301995376362349 66.7200571471504844 28.6327538495249954
 26.7766664126097069 59.3971231525932382 28.6327538495249954
 -19.7301582881026789 56.9561695641874692 28.6327538495249954
 -26.7767097210161431 64.2791035587447084 28.6327538495249954
 46.5069089064766459 44.7512551634787386 28.6327538495249954
 15.5023025985896936 59.3971231525932382 28.6327538495249954
 38.0511147845697053 59.3971231525932382 28.6327538495249954
 -2.8186125264368322 52.0741891580359919 28.6327538495249954
  9.8650789002374601  0.8136511961352557 28.6327538495249954
 32.4138907204966458 44.7512551634787386 28.6327538495249954
 54.9627031502905297 15.4595191852497500 28.6327538495249954
 49.3254789643105269 15.4595191852497500 28.6327538495249954
 35.2324607783305126 15.4595191852497500 28.6327538495249954
 12.6837331502905215 15.4595191852497500 28.6327538495249954
  1.4092847783305213 15.4595191852497500 28.6327538495249954
 59.1905578916381430 13.0185655968439828 28.6327538495249954
 31.0046060776181456 13.0185655968439828 28.6327538495249954
 28.1859517056581375 13.0185655968439828 28.6327538495249954
 22.5488120776181340 13.0185655968439828 28.6327538495249954
 16.9115878916381419 13.0185655968439828 28.6327538495249954
 11.2743637056581409 13.0185655968439828 28.6327538495249954
  2.8185697056581414 13.0185655968439828 28.6327538495249954
 71.8742489119563714 10.5775387790982709 28.6327538495249954
 63.4184549119563812 10.5775387790982709 28.6327538495249954
 57.7813152839163777 10.5775387790982709 28.6327538495249954
 60.5998427783305331 15.4595191852497500 28.6327538495249954
 63.4184971502905270 15.4595191852497500 28.6327538495249954
 69.0556367783305234 15.4595191852497500 28.6327538495249954
 -8.4557941489970982 17.9004727736555189 28.6327538495249954
 33.8232180893370540 22.7824531798069998 28.6327538495249954
 25.3674240893370566 22.7824531798069998 28.6327538495249954
 22.5487697173770485 22.7824531798069998 28.6327538495249954
 -2.8186122826229494 22.7824531798069998 28.6327538495249954
 -8.4557519106629488 22.7824531798069998 28.6327538495249954
 69.0556790166646692 20.3414995914012344 28.6327538495249954
 35.2325030166646727 20.3414995914012344 28.6327538495249954
 40.8697272839163759 10.5775387790982709 28.6327538495249954
 23.9580546447046672 20.3414995914012344 28.6327538495249954
 -7.0464669833353293 20.3414995914012344 28.6327538495249954
 64.8277820369829101 17.9004727736555189 28.6327538495249954
 39.4604000369828896 17.9004727736555189 28.6327538495249954
 33.8231758510028868 17.9004727736555189 28.6327538495249954
 25.3673818510029001 17.9004727736555189 28.6327538495249954
 19.7302422229628966 17.9004727736555189 28.6327538495249954
  2.8186542229628988 17.9004727736555189 28.6327538495249954
 -4.2278971693153311 20.3414995914012344 28.6327538495249954
 36.6417879033570415 22.7824531798069998 28.6327538495249954
  4.2278969119563712 10.5775387790982709 28.6327538495249954
 -1.4092427160836287 10.5775387790982709 28.6327538495249954
 31.0046061588898354  3.2546047845410229 28.6327538495249954
 28.1860363448698337  3.2546047845410229 28.6327538495249954
 19.7302423448698399  3.2546047845410229 28.6327538495249954
 16.9115879729098388  3.2546047845410229 28.6327538495249954
 -0.0000000270901599  3.2546047845410229 28.6327538495249954
 77.5114309002374711  0.8136511961352557 28.6327538495249954
 66.2370670862174649  0.8136511961352557 28.6327538495249954
 57.7812730862174604  0.8136511961352557 28.6327538495249954
 52.1440489002374647  0.8136511961352557 28.6327538495249954
 46.5069092721974613  0.8136511961352557 28.6327538495249954
 43.6882549002374461  0.8136511961352557 28.6327538495249954
 38.0511152721974639  0.8136511961352557 28.6327538495249954
 29.5953212721974559  0.8136511961352557 28.6327538495249954
 21.1395272721974621  0.8136511961352557 28.6327538495249954
 15.5023030862174611  0.8136511961352557 28.6327538495249954
 47.9161941588898301  3.2546047845410229 28.6327538495249954
 50.7347639729098461  3.2546047845410229 28.6327538495249954
 62.0092123448698445  3.2546047845410229 28.6327538495249954
 64.8277821588898462  3.2546047845410229 28.6327538495249954
 64.8277398392839928  8.1365851906925037 28.6327538495249954
 39.4603578392839793  8.1365851906925037 28.6327538495249954
 36.6417880252639918  8.1365851906925037 28.6327538495249954
 22.5487698392839881  8.1365851906925037 28.6327538495249954
 14.0929758392839890  8.1365851906925037 28.6327538495249954
 -2.8186121607160102  8.1365851906925037 28.6327538495249954
 74.6928187666116230  5.6956316022867357 28.6327538495249954
  1.4093270979363695 10.5775387790982709 28.6327538495249954
 66.2370247666116256  5.6956316022867357 28.6327538495249954
 52.1440911385716035  5.6956316022867357 28.6327538495249954
 49.3254367666116167  5.6956316022867357 28.6327538495249954
 40.8696427666115980  5.6956316022867357 28.6327538495249954
  4.2278969525916086  5.6956316022867357 28.6327538495249954
  1.4093271385716108  5.6956316022867357 28.6327538495249954
 78.9208003448698463  3.2546047845410229 28.6327538495249954
 67.6463519729098550  3.2546047845410229 28.6327538495249954
 60.5998851385716151  5.6956316022867357 28.6327538495249954
 45.0975819033570531 22.7824531798069998 28.6327538495249954
 47.9161517173770548 22.7824531798069998 28.6327538495249954
 50.7348060893370558 22.7824531798069998 28.6327538495249954
 46.5068666681425000 39.8692747573272612 28.6327538495249954
 43.6882968541224912 39.8692747573272612 28.6327538495249954
 26.7767088541224823 39.8692747573272612 28.6327538495249954
  9.8651208541224857 39.8692747573272612 28.6327538495249954
  7.0465510401024849 39.8692747573272612 28.6327538495249954
  4.2278966681424874 39.8692747573272612 28.6327538495249954
 -21.1394853318575109 39.8692747573272612 28.6327538495249954
 47.9161515954701187 37.4283211689214923 28.6327538495249954
 31.0045635954701204 37.4283211689214923 28.6327538495249954
 25.3674239674301170 37.4283211689214923 28.6327538495249954
 16.9116299674301196 37.4283211689214923 28.6327538495249954
  8.4558359674301080 37.4283211689214923 28.6327538495249954
  5.6371815954701097 37.4283211689214923 28.6327538495249954
 -16.9115460325698876 37.4283211689214923 28.6327538495249954
 -19.7302004045298887 37.4283211689214923 28.6327538495249954
 60.5998848541225001 39.8692747573272612 28.6327538495249954
 -19.7301581661957393 42.3103015750729767 28.6327538495249954
 -14.0930185381557376 42.3103015750729767 28.6327538495249954
 -8.4557943521757366 42.3103015750729767 28.6327538495249954
 26.7766665345166501 44.7512551634787386 28.6327538495249954
 23.9580967204966342 44.7512551634787386 28.6327538495249954
 18.3208725345166314 44.7512551634787386 28.6327538495249954
 15.5023027204966439 44.7512551634787386 28.6327538495249954
 -1.4092852795033535 44.7512551634787386 28.6327538495249954
 -4.2278550935233552 44.7512551634787386 28.6327538495249954
 -18.3208732795033562 44.7512551634787386 28.6327538495249954
 63.4184547087777446 34.9873675805157234 28.6327538495249954
 56.3719878338042619 42.3103015750729767 28.6327538495249954
 47.9161938338042646 42.3103015750729767 28.6327538495249954
 42.2789696478242618 42.3103015750729767 28.6327538495249954
 31.0046058338042556 42.3103015750729767 28.6327538495249954
 19.7301574618442501 42.3103015750729767 28.6327538495249954
  8.4557936478242581 42.3103015750729767 28.6327538495249954
 -2.8185701661957374 42.3103015750729767 28.6327538495249954
 -5.6372245381557384 42.3103015750729767 28.6327538495249954
 50.7347636478242734 42.3103015750729767 28.6327538495249954
 60.5998848947577358 34.9873675805157234 28.6327538495249954
 57.7812305227977419 34.9873675805157234 28.6327538495249954
 21.1394847087777364 34.9873675805157234 28.6327538495249954
  8.4557937697312031 27.6644335859584807 28.6327538495249954
 -5.6372244162487979 27.6644335859584807 28.6327538495249954
 -14.0930184162487979 27.6644335859584807 28.6327538495249954
 69.0556789760294407 25.2234067682127652 28.6327538495249954
 63.4184547900494380 25.2234067682127652 28.6327538495249954
 60.5998849760294434 25.2234067682127652 28.6327538495249954
 49.3255211620094371 25.2234067682127652 28.6327538495249954
 14.0930179557111952 27.6644335859584807 28.6327538495249954
 46.5068667900494361 25.2234067682127652 28.6327538495249954
 15.5023451620094264 25.2234067682127652 28.6327538495249954
 12.6836907900494289 25.2234067682127652 28.6327538495249954
  9.8651209760294343 25.2234067682127652 28.6327538495249954
 -7.0464670239705693 25.2234067682127652 28.6327538495249954
 67.6463940893370506 22.7824531798069998 28.6327538495249954
 59.1906000893370532 22.7824531798069998 28.6327538495249954
 53.5533759033570504 22.7824531798069998 28.6327538495249954
 23.9581391620094379 25.2234067682127652 28.6327538495249954
 35.2324605345166475 44.7512551634787386 28.6327538495249954
 33.8231757697311934 27.6644335859584807 28.6327538495249954
 47.9161939557112078 27.6644335859584807 28.6327538495249954
  9.8651208947577302 34.9873675805157234 28.6327538495249954
 56.3719879150759695 32.5463407627700150 28.6327538495249954
 53.5534181010559607 32.5463407627700150 28.6327538495249954
 42.2789697290959623 32.5463407627700150 28.6327538495249954
 39.4603999150759606 32.5463407627700150 28.6327538495249954
 33.8231757290959649 32.5463407627700150 28.6327538495249954
 28.1860361010559650 32.5463407627700150 28.6327538495249954
 39.4603999557111962 27.6644335859584807 28.6327538495249954
 22.5488119150759623 32.5463407627700150 28.6327538495249954
 -5.6371398989440404 32.5463407627700150 28.6327538495249954
 12.6837330283835765 30.1053871743642461 28.6327538495249954
  1.4092846564235810 30.1053871743642461 28.6327538495249954
 -7.0465093435764183 30.1053871743642461 28.6327538495249954
 67.6463517697312113 27.6644335859584807 28.6327538495249954
 56.3719879557112051 27.6644335859584807 28.6327538495249954
 50.7347637697312024 27.6644335859584807 28.6327538495249954
 -2.8185700849240374 32.5463407627700150 28.6327538495249954
  4.2278967087777302 34.9873675805157234 28.6327538495249954
