 H  O 
 1.0000000000000000
    84.5579400000000021    0.0000000000000000    0.0000000000000000
   -42.2789706095346958   73.2293399455724767    0.0000000000000000
     0.0000000000000000    0.0000000000000000   46.9039550000000034
 H   O  
 205 430
Cartesian
 -0.0000000135450799  1.6273023922705114 28.1128704123049964
 32.4138486176145122 23.5961043759422537 28.1128704123049964
 29.5952362401747777 57.7698207603227232 28.1128704123049964
 60.5998849895745124 23.5961043759422537 28.1128704123049964
 23.9580966121347885 57.7698207603227232 28.1128704123049964
 63.4184548035945070 23.5961043759422537 28.1128704123049964
 66.2370246176145088 23.5961043759422537 28.1128704123049964
  5.6371394113162827 26.0371311936879657 28.1128704123049964
 19.7301575972962873 26.0371311936879657 28.1128704123049964
 22.5487274113162819 26.0371311936879657 28.1128704123049964
 25.3673817832762829 26.0371311936879657 28.1128704123049964
  4.2278542401747847 57.7698207603227232 28.1128704123049964
 47.9161094113162704 26.0371311936879657 28.1128704123049964
 62.0091275972962777 26.0371311936879657 28.1128704123049964
 64.8276974113162794 26.0371311936879657 28.1128704123049964
 -15.5023033300313369 28.4780847820937346 28.1128704123049964
 -9.8650791440513395 28.4780847820937346 28.1128704123049964
 -26.7766673878652135 57.7698207603227232 28.1128704123049964
  7.0465088559486642 28.4780847820937346 28.1128704123049964
 18.3208726699686650 28.4780847820937346 28.1128704123049964
 16.9115875394624062 55.3288671719169614 28.1128704123049964
 23.9580968559486607 28.4780847820937346 28.1128704123049964
 14.0929331675024070 55.3288671719169614 28.1128704123049964
 29.5952364839886641 28.4780847820937346 28.1128704123049964
  2.8185693534824074 55.3288671719169614 28.1128704123049964
 43.6882546699686571 28.4780847820937346 28.1128704123049964
 52.1440486699686616 28.4780847820937346 28.1128704123049964
 60.5998426699686590 28.4780847820937346 28.1128704123049964
 -0.0000004605375943 55.3288671719169614 28.1128704123049964
 -8.4557944605375948 55.3288671719169614 28.1128704123049964
 35.2324604261547876 57.7698207603227232 28.1128704123049964
 -16.9115884605376010 55.3288671719169614 28.1128704123049964
  9.8651209895745122 23.5961043759422537 28.1128704123049964
 -1.4093273823854895 23.5961043759422537 28.1128704123049964
 53.5533336785679737 16.2731703813850075 28.1128704123049964
 38.0510724785089351 62.6518011664742076 28.1128704123049964
 26.7766241065489261 62.6518011664742076 28.1128704123049964
 23.9580542925289315 62.6518011664742076 28.1128704123049964
 -9.8651213417502497 18.7141971991307194 28.1128704123049964
  9.8650364722697521 18.7141971991307194 28.1128704123049964
 18.3208304722697477 18.7141971991307194 28.1128704123049964
 -7.0465518934510678 62.6518011664742076 28.1128704123049964
 23.9580546582497540 18.7141971991307194 28.1128704123049964
 -9.8651217074710615 62.6518011664742076 28.1128704123049964
 29.5952788442297496 18.7141971991307194 28.1128704123049964
 40.8696426582497523 18.7141971991307194 28.1128704123049964
 43.6882124722697469 18.7141971991307194 28.1128704123049964
 -35.2325037074710679 62.6518011664742076 28.1128704123049964
 46.5068668442297550 18.7141971991307194 28.1128704123049964
 25.3673814988271609 60.2107743487284921 28.1128704123049964
 14.0930176848071671 60.2107743487284921 28.1128704123049964
 -11.2744062690778684 21.1551507875364884 28.1128704123049964
 -8.4558364550578684 21.1551507875364884 28.1128704123049964
 -5.6371820830978701 21.1551507875364884 28.1128704123049964
 -8.4557945011728339 60.2107743487284921 28.1128704123049964
 36.6417879169021319 21.1551507875364884 28.1128704123049964
 42.2789275449421211 21.1551507875364884 28.1128704123049964
 -25.3673825011728376 60.2107743487284921 28.1128704123049964
 -31.0046066871528367 60.2107743487284921 28.1128704123049964
 56.3719457309221283 21.1551507875364884 28.1128704123049964
 -19.7301581932858987 45.5649063596139996 28.1128704123049964
 -4.2278971964054897 23.5961043759422537 28.1128704123049964
 46.5068242401747796 57.7698207603227232 28.1128704123049964
 40.8696846121347903 57.7698207603227232 28.1128704123049964
 -25.3673824605375984 55.3288671719169614 28.1128704123049964
 11.2743635566610401 30.9190383704995000 28.1128704123049964
 -28.1860368324975958 55.3288671719169614 28.1128704123049964
 15.5022604957075725 38.2419723650567462 28.1128704123049964
 43.6882122284558676 48.0059331773597151 28.1128704123049964
 23.9580544957075787 38.2419723650567462 28.1128704123049964
 38.0510726004158641 48.0059331773597151 28.1128704123049964
 26.7767088676675797 38.2419723650567462 28.1128704123049964
 38.0510726816875717 38.2419723650567462 28.1128704123049964
 23.9580544144358711 48.0059331773597151 28.1128704123049964
 18.3208302284558755 48.0059331773597151 28.1128704123049964
 49.3254364957075708 38.2419723650567462 28.1128704123049964
 60.5998848676675763 38.2419723650567462 28.1128704123049964
 -19.7302427105906588 40.6829991828024689 28.1128704123049964
 -11.2744487105906597 40.6829991828024689 28.1128704123049964
  9.8650362284558710 48.0059331773597151 28.1128704123049964
 -8.4557943386306622 40.6829991828024689 28.1128704123049964
 39.4603152894093299 40.6829991828024689 28.1128704123049964
 53.5533334753893371 40.6829991828024689 28.1128704123049964
 59.1905576613693398 40.6829991828024689 28.1128704123049964
 50.7347636207340997 45.5649063596139996 28.1128704123049964
 -9.8650792659582809 43.1239527712082307 28.1128704123049964
 31.0046058067141033 45.5649063596139996 28.1128704123049964
  7.0465087340417254 43.1239527712082307 28.1128704123049964
  9.8650785480617262 43.1239527712082307 28.1128704123049964
 18.3208725480617254 43.1239527712082307 28.1128704123049964
 23.9580967340417281 43.1239527712082307 28.1128704123049964
  5.6372238067141032 45.5649063596139996 28.1128704123049964
 35.2324605480617166 43.1239527712082307 28.1128704123049964
 -0.0000003792658964 45.5649063596139996 28.1128704123049964
 -8.4557943792659014 45.5649063596139996 28.1128704123049964
 -25.3673823792659014 45.5649063596139996 28.1128704123049964
  4.2278966816875769 38.2419723650567462 28.1128704123049964
 32.4138904902278497 72.4156887494372228 28.1128704123049964
 -9.8651215042924267 38.2419723650567462 28.1128704123049964
 54.9626606004158731 48.0059331773597151 28.1128704123049964
 43.6882967457606384 52.8878403541712458 28.1128704123049964
 35.2325027457606268 52.8878403541712458 28.1128704123049964
 39.4603999286210438 30.9190383704995000 28.1128704123049964
 26.7767087457606330 52.8878403541712458 28.1128704123049964
 50.7347637426410429 30.9190383704995000 28.1128704123049964
 53.5533335566610376 30.9190383704995000 28.1128704123049964
 -15.5023456496371885 33.3600651882452155 28.1128704123049964
 15.5022603738006346 52.8878403541712458 28.1128704123049964
  1.4093267457606342 52.8878403541712458 28.1128704123049964
 -4.2278972776771910 33.3600651882452155 28.1128704123049964
 -1.4093276261993704 52.8878403541712458 28.1128704123049964
 -4.2278974402193654 52.8878403541712458 28.1128704123049964
 15.5022605363428152 33.3600651882452155 28.1128704123049964
 26.7766243503628161 33.3600651882452155 28.1128704123049964
 43.6882121065489244 62.6518011664742076 28.1128704123049964
 35.2324183503628063 33.3600651882452155 28.1128704123049964
 46.5068667223228047 33.3600651882452155 28.1128704123049964
 49.3254365363428136 33.3600651882452155 28.1128704123049964
 31.0045634871082498 50.4468867657654769 28.1128704123049964
 -0.0000425769648080 35.8010187766509844 28.1128704123049964
  8.4557514230351885 35.8010187766509844 28.1128704123049964
 -2.8186125128917427 50.4468867657654769 28.1128704123049964
 -11.2744065128917477 50.4468867657654769 28.1128704123049964
 28.1859937949951949 35.8010187766509844 28.1128704123049964
 39.4603576090151904 35.8010187766509844 28.1128704123049964
 -16.9116306988717469 50.4468867657654769 28.1128704123049964
 59.1905154230351869 35.8010187766509844 28.1128704123049964
 -25.3674246988717442 50.4468867657654769 28.1128704123049964
 62.0091697949951950 35.8010187766509844 28.1128704123049964
 -21.1394853183124276 38.2419723650567462 28.1128704123049964
 47.9161514871082517 50.4468867657654769 28.1128704123049964
 45.0975396785679763 16.2731703813850075 28.1128704123049964
 -11.2743641932859031 45.5649063596139996 28.1128704123049964
 15.5022607801566892  4.0683292100162243 28.1128704123049964
 49.3254367801566929  4.0683292100162243 28.1128704123049964
  7.0464662518936976 67.5337083432857384 28.1128704123049964
  5.6371395332232206 11.3912632045734714 28.1128704123049964
 -35.2324615097721576 72.4156887494372228 28.1128704123049964
 26.7766245941766883  4.0683292100162243 28.1128704123049964
 33.8231759051832199 11.3912632045734714 28.1128704123049964
 -29.5953218817321577 72.4156887494372228 28.1128704123049964
 21.1394849661366919  4.0683292100162243 28.1128704123049964
 36.6417457192032217 11.3912632045734714 28.1128704123049964
 -2.8186544667767790 11.3912632045734714 28.1128704123049964
 -32.4138493761463025 67.5337083432857384 28.1128704123049964
 12.6836909661366875  4.0683292100162243 28.1128704123049964
 56.3719035332232110 11.3912632045734714 28.1128704123049964
 -7.0465096957521522 72.4156887494372228 28.1128704123049964
 25.3673391792213039 65.0927547548799765 28.1128704123049964
  1.4092425941766900  4.0683292100162243 28.1128704123049964
  1.4092847918756004 13.8322167929792403 28.1128704123049964
 -1.4093272198433096  4.0683292100162243 28.1128704123049964
 -4.2279398817321576 72.4156887494372228 28.1128704123049964
 12.6836486058956019 13.8322167929792403 28.1128704123049964
 45.0975397192032190 11.3912632045734714 28.1128704123049964
 52.1440065941766875  4.0683292100162243 28.1128704123049964
 -38.0511158817321586 72.4156887494372228 28.1128704123049964
 39.4603150455954648 69.9747351610314468 28.1128704123049964
 -8.4557945824445344 69.9747351610314468 28.1128704123049964
 64.8277398528290689  6.5092827984219914 28.1128704123049964
 73.2835338528290663  6.5092827984219914 28.1128704123049964
 -25.3673825824445345 69.9747351610314468 28.1128704123049964
 78.9207580388090690  6.5092827984219914 28.1128704123049964
 47.9161518528290671  6.5092827984219914 28.1128704123049964
 39.4603578528290697  6.5092827984219914 28.1128704123049964
  9.8651211114814483  8.9502363868277595 28.1128704123049964
 33.8231336668490670  6.5092827984219914 28.1128704123049964
 -2.8186549544045376 69.9747351610314468 28.1128704123049964
 28.1859516785679780 16.2731703813850075 28.1128704123049964
 18.3209151114814510  8.9502363868277595 28.1128704123049964
 23.9580547395214474  8.9502363868277595 28.1128704123049964
 38.0510729255014510  8.9502363868277595 28.1128704123049964
 35.2325026238536978 67.5337083432857384 28.1128704123049964
 40.8696427395214528  8.9502363868277595 28.1128704123049964
 14.0929330455954638 69.9747351610314468 28.1128704123049964
 21.1394844378736906 67.5337083432857384 28.1128704123049964
 15.5022602518936878 67.5337083432857384 28.1128704123049964
 60.5998005941766849  4.0683292100162243 28.1128704123049964
 74.6928187395214422  8.9502363868277595 28.1128704123049964
 11.2744055511813173 65.0927547548799765 28.1128704123049964
 15.5023029778556030 13.8322167929792403 28.1128704123049964
 -16.9115885824445336 69.9747351610314468 28.1128704123049964
 66.2370669778556049 13.8322167929792403 28.1128704123049964
  7.0465084902278479 72.4156887494372228 28.1128704123049964
 25.3673819864549230  1.6273023922705114 28.1128704123049964
 21.1394421182678336 72.4156887494372228 28.1128704123049964
 49.3254789778556031 13.8322167929792403 28.1128704123049964
  5.6372241724349186  1.6273023922705114 28.1128704123049964
 -8.4558368207786891 65.0927547548799765 28.1128704123049964
 60.5998427918756022 13.8322167929792403 28.1128704123049964
 32.4138909778556012 13.8322167929792403 28.1128704123049964
  5.6372240505279780 16.2731703813850075 28.1128704123049964
 -22.5487704488186900 65.0927547548799765 28.1128704123049964
  2.8186115511813119 65.0927547548799765 28.1128704123049964
  1.4092843042478451 72.4156887494372228 28.1128704123049964
 -0.0000001354520196 16.2731703813850075 28.1128704123049964
 -16.9116308207786865 65.0927547548799765 28.1128704123049964
 64.8277821724349081  1.6273023922705114 28.1128704123049964
 26.7766663042478434 72.4156887494372228 28.1128704123049964
 14.0930180505279825 16.2731703813850075 28.1128704123049964
 74.6928609778556023 13.8322167929792403 28.1128704123049964
 28.1859518004749177  1.6273023922705114 28.1128704123049964
 25.3673818645479834 16.2731703813850075 28.1128704123049964
 29.5952366058956002 13.8322167929792403 28.1128704123049964
  2.8185698004749202  1.6273023922705114 28.1128704123049964
 29.5952784243286260 69.1610107355562462 28.6327538495249954
  7.0465087204966403 44.7512551634787386 28.6327538495249954
 15.5022604008907816 49.6332355696302230 28.6327538495249954
 -9.8651215991092069 49.6332355696302230 28.6327538495249954
 15.5023447962886092 69.1610107355562462 28.6327538495249954
 12.6836905868707941 49.6332355696302230 28.6327538495249954
 -1.4093275991092098 49.6332355696302230 28.6327538495249954
 18.3209146103086198 69.1610107355562462 28.6327538495249954
  7.0465507962886189 69.1610107355562462 28.6327538495249954
 22.5488115899903860 71.6020375533019688 28.6327538495249954
 26.7767087728507853 49.6332355696302230 28.6327538495249954
 -2.8186125264368322 52.0741891580359919 28.6327538495249954
 31.0046055899903834 71.6020375533019688 28.6327538495249954
 -16.9115461544768308 52.0741891580359919 28.6327538495249954
 -4.2278975756713866 69.1610107355562462 28.6327538495249954
 -19.7302005264368283 52.0741891580359919 28.6327538495249954
 -1.4092852795033535 44.7512551634787386 28.6327538495249954
 -25.3673401544768282 52.0741891580359919 28.6327538495249954
 23.9580544008907985 49.6332355696302230 28.6327538495249954
  1.4092845345166412 44.7512551634787386 28.6327538495249954
 54.9626605868708040 49.6332355696302230 28.6327538495249954
 46.5068665868708067 49.6332355696302230 28.6327538495249954
 -1.4092432037113782 69.1610107355562462 28.6327538495249954
  9.8650785345166412 44.7512551634787386 28.6327538495249954
 43.6882967728507978 49.6332355696302230 28.6327538495249954
 38.0510725868707951 49.6332355696302230 28.6327538495249954
  4.2278964243286037 69.1610107355562462 28.6327538495249954
  4.2279389064766386 44.7512551634787386 28.6327538495249954
 -15.5022612271492086 49.6332355696302230 28.6327538495249954
 -8.4557943928109793 47.1922087518845075 28.6327538495249954
 35.2325026103086287 69.1610107355562462 28.6327538495249954
 -15.5022613896913821 69.1610107355562462 28.6327538495249954
 25.3673816071890279 47.1922087518845075 28.6327538495249954
  5.6372235899903860 71.6020375533019688 28.6327538495249954
 -28.1859524100096195 71.6020375533019688 28.6327538495249954
 -8.4557945959896212 71.6020375533019688 28.6327538495249954
 16.9115876071890092 47.1922087518845075 28.6327538495249954
 14.0930177931690217 47.1922087518845075 28.6327538495249954
 11.2744479791490271 47.1922087518845075 28.6327538495249954
 -2.8185704100096114 71.6020375533019688 28.6327538495249954
 52.1440485345166493 44.7512551634787386 28.6327538495249954
 54.9627029064766432 44.7512551634787386 28.6327538495249954
 -5.6372247819696195 71.6020375533019688 28.6327538495249954
 -25.3673823928109776 47.1922087518845075 28.6327538495249954
 -19.7301582068309784 47.1922087518845075 28.6327538495249954
  8.4557936071890190 47.1922087518845075 28.6327538495249954
 -0.0000003928109814 47.1922087518845075 28.6327538495249954
 -16.9115883928109767 47.1922087518845075 28.6327538495249954
 28.1860359791490147 47.1922087518845075 28.6327538495249954
 49.3254787204966547 44.7512551634787386 28.6327538495249954
 46.5069089064766459 44.7512551634787386 28.6327538495249954
 32.4138907204966458 44.7512551634787386 28.6327538495249954
 -18.3209155991092061 49.6332355696302230 28.6327538495249954
 38.0510724243286234 69.1610107355562462 28.6327538495249954
 -2.8185702068309761 47.1922087518845075 28.6327538495249954
 12.6837329064766493 44.7512551634787386 28.6327538495249954
 -26.7767095991092070 49.6332355696302230 28.6327538495249954
 15.5023027204966439 44.7512551634787386 28.6327538495249954
 56.3719877931690334 47.1922087518845075 28.6327538495249954
 19.7301572180303850 71.6020375533019688 28.6327538495249954
 32.4139327962886199 69.1610107355562462 28.6327538495249954
 -36.6417464100096169 71.6020375533019688 28.6327538495249954
 18.3208725345166314 44.7512551634787386 28.6327538495249954
 50.7347636071890307 47.1922087518845075 28.6327538495249954
 29.5953209064766369 44.7512551634787386 28.6327538495249954
 -33.8231765959896151 71.6020375533019688 28.6327538495249954
 45.0976239791490272 47.1922087518845075 28.6327538495249954
  8.4557934040103735 71.6020375533019688 28.6327538495249954
 42.2789696071890333 47.1922087518845075 28.6327538495249954
 -31.0046067819696169 71.6020375533019688 28.6327538495249954
 53.5534179791490246 47.1922087518845075 28.6327538495249954
 45.0976238572420840 61.8380767409990000 28.6327538495249954
 42.2790117236162359 66.7200571471504844 28.6327538495249954
 -18.3208312037113821 69.1610107355562462 28.6327538495249954
  4.2279387845697078 59.3971231525932382 28.6327538495249954
 -7.0465095873903012 59.3971231525932382 28.6327538495249954
  4.2278964649638544 64.2791035587447084 28.6327538495249954
 -9.8650794014102949 59.3971231525932382 28.6327538495249954
 -15.5023035873902977 59.3971231525932382 28.6327538495249954
  7.0464662789838490 64.2791035587447084 28.6327538495249954
 -18.3208734014102959 59.3971231525932382 28.6327538495249954
 -23.9580975873902986 59.3971231525932382 28.6327538495249954
 -26.7766674014102968 59.3971231525932382 28.6327538495249954
 -29.5952372154302985 59.3971231525932382 28.6327538495249954
 18.3209146509438554 64.2791035587447084 28.6327538495249954
 -32.4138915873902960 59.3971231525932382 28.6327538495249954
 21.1394844649638500 64.2791035587447084 28.6327538495249954
 23.9580542789838589 64.2791035587447084 28.6327538495249954
 38.0510724649638732 64.2791035587447084 28.6327538495249954
 39.4603997118973240 56.9561695641874692 28.6327538495249954
 46.5068664649638706 64.2791035587447084 28.6327538495249954
 36.6417453399373301 56.9561695641874692 28.6327538495249954
 -36.6417886483437698 66.7200571471504844 28.6327538495249954
 33.8231755259173212 56.9561695641874692 28.6327538495249954
 31.0046057118973302 56.9561695641874692 28.6327538495249954
  7.0465085985897025 59.3971231525932382 28.6327538495249954
  9.8650784126096909 59.3971231525932382 28.6327538495249954
 12.6837327845697061 59.3971231525932382 28.6327538495249954
 -1.4093277210161486 64.2791035587447084 28.6327538495249954
 47.9161936712620928 61.8380767409990000 28.6327538495249954
 42.2789694852820901 61.8380767409990000 28.6327538495249954
 -35.2325037210161440 64.2791035587447084 28.6327538495249954
 28.1860358572420893 61.8380767409990000 28.6327538495249954
 -32.4138493490561430 64.2791035587447084 28.6327538495249954
 25.3673814852820882 61.8380767409990000 28.6327538495249954
 22.5488116712620865 61.8380767409990000 28.6327538495249954
 14.0930176712620749 61.8380767409990000 28.6327538495249954
 -2.8185703287379194 61.8380767409990000 28.6327538495249954
 -18.3209157210161457 64.2791035587447084 28.6327538495249954
 25.3673815259173274 56.9561695641874692 28.6327538495249954
 -5.6371401427579215 61.8380767409990000 28.6327538495249954
 -31.0045221427579136 61.8380767409990000 28.6327538495249954
 -15.5022613490561429 64.2791035587447084 28.6327538495249954
 -9.8651217210161430 64.2791035587447084 28.6327538495249954
 -33.8231765147179146 61.8380767409990000 28.6327538495249954
 49.3254785985897115 59.3971231525932382 28.6327538495249954
 40.8696845985897141 59.3971231525932382 28.6327538495249954
 35.2324604126097114 59.3971231525932382 28.6327538495249954
 26.7766664126097069 59.3971231525932382 28.6327538495249954
 -7.0464673490561447 64.2791035587447084 28.6327538495249954
 23.9580965985897052 59.3971231525932382 28.6327538495249954
 -8.4557945147179190 61.8380767409990000 28.6327538495249954
 -22.5487704623637697 66.7200571471504844 28.6327538495249954
 -19.7302006483437680 66.7200571471504844 28.6327538495249954
 22.5488117118973186 56.9561695641874692 28.6327538495249954
  4.2278965462355513 54.5151427464417537 28.6327538495249954
 33.8232177236162386 66.7200571471504844 28.6327538495249954
  1.4093267322155492 54.5151427464417537 28.6327538495249954
 -1.4092430818044526 54.5151427464417537 28.6327538495249954
 36.6417875376362474 66.7200571471504844 28.6327538495249954
 -9.8650370818044468 54.5151427464417537 28.6327538495249954
 -15.5022612677844460 54.5151427464417537 28.6327538495249954
 39.4603573516562420 66.7200571471504844 28.6327538495249954
 -18.3208310818044460 54.5151427464417537 28.6327538495249954
 -23.9580552677844487 54.5151427464417537 28.6327538495249954
 12.6836905462355407 54.5151427464417537 28.6327538495249954
 -38.0510735756713814 69.1610107355562462 28.6327538495249954
 45.0975816595431809 52.0741891580359919 28.6327538495249954
 -29.5952795756713840 69.1610107355562462 28.6327538495249954
 36.6417876595431693 52.0741891580359919 28.6327538495249954
 -26.7766252037113830 69.1610107355562462 28.6327538495249954
 33.8232178455231747 52.0741891580359919 28.6327538495249954
 31.0045634735631737 52.0741891580359919 28.6327538495249954
 25.3674238455231631 52.0741891580359919 28.6327538495249954
 -23.9580553896913813 69.1610107355562462 28.6327538495249954
 16.9116298455231728 52.0741891580359919 28.6327538495249954
 11.2744056595431719 52.0741891580359919 28.6327538495249954
 47.9161514735631755 52.0741891580359919 28.6327538495249954
  0.0000418455231652 52.0741891580359919 28.6327538495249954
 31.0045633516562411 66.7200571471504844 28.6327538495249954
 15.5023449181955559 54.5151427464417537 28.6327538495249954
 14.0930177118973283 56.9561695641874692 28.6327538495249954
 11.2743633399373131 56.9561695641874692 28.6327538495249954
 -16.9115462763837670 66.7200571471504844 28.6327538495249954
  8.4557935259173256 56.9561695641874692 28.6327538495249954
 -14.0929764623637634 66.7200571471504844 28.6327538495249954
  5.6372237118973310 56.9561695641874692 28.6327538495249954
  0.0000417236162395 66.7200571471504844 28.6327538495249954
  5.6371813516562215 66.7200571471504844 28.6327538495249954
  2.8185693399373224 56.9561695641874692 28.6327538495249954
 -8.4557944740826727 56.9561695641874692 28.6327538495249954
 22.5487693516562366 66.7200571471504844 28.6327538495249954
 -11.2743642881026744 56.9561695641874692 28.6327538495249954
  8.4558357236162376 66.7200571471504844 28.6327538495249954
 -22.5488126600626764 56.9561695641874692 28.6327538495249954
 -25.3673824740826745 56.9561695641874692 28.6327538495249954
 11.2744055376362251 66.7200571471504844 28.6327538495249954
 43.6882967322155622 54.5151427464417537 28.6327538495249954
 38.0510725462355595 54.5151427464417537 28.6327538495249954
 35.2325027322155506 54.5151427464417537 28.6327538495249954
 16.9116297236162261 66.7200571471504844 28.6327538495249954
 26.7767087322155568 54.5151427464417537 28.6327538495249954
 19.7301995376362349 66.7200571471504844 28.6327538495249954
 -16.9115884740826736 56.9561695641874692 28.6327538495249954
 50.7347635259173302 56.9561695641874692 28.6327538495249954
 -8.4557520325698885 37.4283211689214923 28.6327538495249954
 53.5533334618442680 42.3103015750729767 28.6327538495249954
 60.5998427783305331 15.4595191852497500 28.6327538495249954
 54.9627031502905297 15.4595191852497500 28.6327538495249954
 52.1440487783305286 15.4595191852497500 28.6327538495249954
 49.3254789643105269 15.4595191852497500 28.6327538495249954
 29.5953211502905269 15.4595191852497500 28.6327538495249954
 26.7766667783305188 15.4595191852497500 28.6327538495249954
 23.9580969643105171 15.4595191852497500 28.6327538495249954
 12.6837331502905215 15.4595191852497500 28.6327538495249954
  9.8650787783305205 15.4595191852497500 28.6327538495249954
  4.2279391502905188 15.4595191852497500 28.6327538495249954
  1.4092847783305213 15.4595191852497500 28.6327538495249954
 64.8277820776181386 13.0185655968439828 28.6327538495249954
 62.0091277056581518 13.0185655968439828 28.6327538495249954
 56.3719880776181483 13.0185655968439828 28.6327538495249954
 39.4604000776181465 13.0185655968439828 28.6327538495249954
 33.8231758916381438 13.0185655968439828 28.6327538495249954
 31.0046060776181456 13.0185655968439828 28.6327538495249954
 28.1859517056581375 13.0185655968439828 28.6327538495249954
 16.9115878916381419 13.0185655968439828 28.6327538495249954
 14.0930180776181420 13.0185655968439828 28.6327538495249954
  5.6372240776181393 13.0185655968439828 28.6327538495249954
  2.8185697056581414 13.0185655968439828 28.6327538495249954
 -0.0000001083618602 13.0185655968439828 28.6327538495249954
 -2.8185699223818586 13.0185655968439828 28.6327538495249954
 74.6929032839163654 10.5775387790982709 28.6327538495249954
 71.8742489119563714 10.5775387790982709 28.6327538495249954
 66.2371092839163680 10.5775387790982709 28.6327538495249954
 63.4184971502905270 15.4595191852497500 28.6327538495249954
 66.2370669643105288 15.4595191852497500 28.6327538495249954
 74.6928609643105261 15.4595191852497500 28.6327538495249954
 -8.4557941489970982 17.9004727736555189 28.6327538495249954
 49.3254366447046735 20.3414995914012344 28.6327538495249954
 46.5068668306846718 20.3414995914012344 28.6327538495249954
 40.8696426447046761 20.3414995914012344 28.6327538495249954
 38.0510728306846602 20.3414995914012344 28.6327538495249954
 35.2325030166646727 20.3414995914012344 28.6327538495249954
 21.1394848306846654 20.3414995914012344 28.6327538495249954
 18.3209150166646637 20.3414995914012344 28.6327538495249954
  9.8651210166646699 20.3414995914012344 28.6327538495249954
  7.0464666447046698 20.3414995914012344 28.6327538495249954
 -4.2278971693153311 20.3414995914012344 28.6327538495249954
 -7.0464669833353293 20.3414995914012344 28.6327538495249954
 -9.8651213552953294 20.3414995914012344 28.6327538495249954
 73.2835760369829075 17.9004727736555189 28.6327538495249954
 43.6882970979363634 10.5775387790982709 28.6327538495249954
 67.6463518510029047 17.9004727736555189 28.6327538495249954
 56.3719880369828985 17.9004727736555189 28.6327538495249954
 53.5534182229629039 17.9004727736555189 28.6327538495249954
 50.7347638510029029 17.9004727736555189 28.6327538495249954
 47.9161940369829011 17.9004727736555189 28.6327538495249954
 45.0976242229628923 17.9004727736555189 28.6327538495249954
 42.2789698510029055 17.9004727736555189 28.6327538495249954
 28.1860362229629082 17.9004727736555189 28.6327538495249954
 25.3673818510029001 17.9004727736555189 28.6327538495249954
 22.5488120369828984 17.9004727736555189 28.6327538495249954
 19.7302422229628966 17.9004727736555189 28.6327538495249954
 11.2744482229629011 17.9004727736555189 28.6327538495249954
  8.4557938510029000 17.9004727736555189 28.6327538495249954
  5.6372240369829028 17.9004727736555189 28.6327538495249954
 64.8277820369829101 17.9004727736555189 28.6327538495249954
 40.8697272839163759 10.5775387790982709 28.6327538495249954
 38.0510729119563607 10.5775387790982709 28.6327538495249954
 35.2325030979363731 10.5775387790982709 28.6327538495249954
 12.6836909525916113  5.6956316022867357 28.6327538495249954
 -1.4093272333883895  5.6956316022867357 28.6327538495249954
 81.7393701588898551  3.2546047845410229 28.6327538495249954
 73.2835761588898578  3.2546047845410229 28.6327538495249954
 64.8277821588898462  3.2546047845410229 28.6327538495249954
 62.0092123448698445  3.2546047845410229 28.6327538495249954
 56.3719881588898417  3.2546047845410229 28.6327538495249954
 53.5534183448698329  3.2546047845410229 28.6327538495249954
 50.7347639729098461  3.2546047845410229 28.6327538495249954
 47.9161941588898301  3.2546047845410229 28.6327538495249954
 39.4604001588898399  3.2546047845410229 28.6327538495249954
 25.3673819729098362  3.2546047845410229 28.6327538495249954
 22.5488121588898416  3.2546047845410229 28.6327538495249954
 15.5022607666116095  5.6956316022867357 28.6327538495249954
 14.0930181588898407  3.2546047845410229 28.6327538495249954
  2.8186543448698407  3.2546047845410229 28.6327538495249954
 -0.0000000270901599  3.2546047845410229 28.6327538495249954
 74.6928610862174764  0.8136511961352557 28.6327538495249954
 63.4184972721974631  0.8136511961352557 28.6327538495249954
 49.3254790862174488  0.8136511961352557 28.6327538495249954
 40.8696850862174585  0.8136511961352557 28.6327538495249954
 38.0511152721974639  0.8136511961352557 28.6327538495249954
 35.2324609002374558  0.8136511961352557 28.6327538495249954
 29.5953212721974559  0.8136511961352557 28.6327538495249954
 26.7766669002374584  0.8136511961352557 28.6327538495249954
 12.6837332721974576  0.8136511961352557 28.6327538495249954
  4.2279392721974602  0.8136511961352557 28.6327538495249954
  1.4092849002374601  0.8136511961352557 28.6327538495249954
 11.2744483448698372  3.2546047845410229 28.6327538495249954
 52.1440910166646745 20.3414995914012344 28.6327538495249954
 18.3209151385716105  5.6956316022867357 28.6327538495249954
 23.9580547666116068  5.6956316022867357 28.6327538495249954
 32.4139332839163785 10.5775387790982709 28.6327538495249954
 18.3209150979363713 10.5775387790982709 28.6327538495249954
  7.0465512839163686 10.5775387790982709 28.6327538495249954
  1.4093270979363695 10.5775387790982709 28.6327538495249954
 78.9207580252639929  8.1365851906925037 28.6327538495249954
 76.1021882112439840  8.1365851906925037 28.6327538495249954
 73.2835338392839901  8.1365851906925037 28.6327538495249954
 67.6463942112439867  8.1365851906925037 28.6327538495249954
 64.8277398392839928  8.1365851906925037 28.6327538495249954
 56.3719458392839954  8.1365851906925037 28.6327538495249954
 53.5533760252639937  8.1365851906925037 28.6327538495249954
 50.7348062112439848  8.1365851906925037 28.6327538495249954
 42.2790122112439946  8.1365851906925037 28.6327538495249954
 21.1394849525916122  5.6956316022867357 28.6327538495249954
 39.4603578392839793  8.1365851906925037 28.6327538495249954
 19.7302000252639935  8.1365851906925037 28.6327538495249954
 16.9116302112439918  8.1365851906925037 28.6327538495249954
 14.0929758392839890  8.1365851906925037 28.6327538495249954
 11.2744060252639908  8.1365851906925037 28.6327538495249954
 80.3300429525916257  5.6956316022867357 28.6327538495249954
 77.5114731385716169  5.6956316022867357 28.6327538495249954
 74.6928187666116230  5.6956316022867357 28.6327538495249954
 63.4184549525916097  5.6956316022867357 28.6327538495249954
 57.7812307666116141  5.6956316022867357 28.6327538495249954
 54.9626609525916123  5.6956316022867357 28.6327538495249954
 52.1440911385716035  5.6956316022867357 28.6327538495249954
 49.3254367666116167  5.6956316022867357 28.6327538495249954
 26.7767091385716043  5.6956316022867357 28.6327538495249954
 22.5487698392839881  8.1365851906925037 28.6327538495249954
 54.9626608306846691 20.3414995914012344 28.6327538495249954
 -8.4557519106629488 22.7824531798069998 28.6327538495249954
 -5.6371820966429516 22.7824531798069998 28.6327538495249954
 28.1859937814501045 37.4283211689214923 28.6327538495249954
 25.3674239674301170 37.4283211689214923 28.6327538495249954
 22.5487695954701017 37.4283211689214923 28.6327538495249954
 19.7301997814501142 37.4283211689214923 28.6327538495249954
 16.9116299674301196 37.4283211689214923 28.6327538495249954
  2.8186117814501150 37.4283211689214923 28.6327538495249954
  0.0000419674301133 37.4283211689214923 28.6327538495249954
 -11.2744064045298860 37.4283211689214923 28.6327538495249954
 -19.7302004045298887 37.4283211689214923 28.6327538495249954
 63.4184547087777446 34.9873675805157234 28.6327538495249954
 60.5998848947577358 34.9873675805157234 28.6327538495249954
 52.1440908947577384 34.9873675805157234 28.6327538495249954
 49.3254365227977445 34.9873675805157234 28.6327538495249954
 39.4603575954701142 37.4283211689214923 28.6327538495249954
 38.0510727087777383 34.9873675805157234 28.6327538495249954
 23.9580545227977240 34.9873675805157234 28.6327538495249954
 18.3209148947577418 34.9873675805157234 28.6327538495249954
 15.5022605227977337 34.9873675805157234 28.6327538495249954
  4.2278967087777302 34.9873675805157234 28.6327538495249954
  1.4093268947577322 34.9873675805157234 28.6327538495249954
 -1.4093274772022688 34.9873675805157234 28.6327538495249954
 -4.2278972912222672 34.9873675805157234 28.6327538495249954
 -9.8651214772022673 34.9873675805157234 28.6327538495249954
 53.5534181010559607 32.5463407627700150 28.6327538495249954
 50.7347637290959668 32.5463407627700150 28.6327538495249954
 47.9161939150759579 32.5463407627700150 28.6327538495249954
 39.4603999150759606 32.5463407627700150 28.6327538495249954
 36.6418301010559517 32.5463407627700150 28.6327538495249954
 26.7767088947577392 34.9873675805157234 28.6327538495249954
 31.0046059150759525 32.5463407627700150 28.6327538495249954
 42.2790119674301152 37.4283211689214923 28.6327538495249954
 59.1905999674301100 37.4283211689214923 28.6327538495249954
 47.9161938338042646 42.3103015750729767 28.6327538495249954
 45.0975394618442706 42.3103015750729767 28.6327538495249954
 42.2789696478242618 42.3103015750729767 28.6327538495249954
 36.6417454618442662 42.3103015750729767 28.6327538495249954
 33.8231756478242644 42.3103015750729767 28.6327538495249954
 31.0046058338042556 42.3103015750729767 28.6327538495249954
 16.9115876478242626 42.3103015750729767 28.6327538495249954
 11.2743634618442599 42.3103015750729767 28.6327538495249954
  8.4557936478242581 42.3103015750729767 28.6327538495249954
  5.6372238338042564 42.3103015750729767 28.6327538495249954
 -2.8185701661957374 42.3103015750729767 28.6327538495249954
 -8.4557943521757366 42.3103015750729767 28.6327538495249954
 -11.2743641661957401 42.3103015750729767 28.6327538495249954
 47.9161515954701187 37.4283211689214923 28.6327538495249954
 -16.9115883521757375 42.3103015750729767 28.6327538495249954
 60.5998848541225001 39.8692747573272612 28.6327538495249954
 43.6882968541224912 39.8692747573272612 28.6327538495249954
 40.8697270401024966 39.8692747573272612 28.6327538495249954
 38.0510726681424956 39.8692747573272612 28.6327538495249954
 26.7767088541224823 39.8692747573272612 28.6327538495249954
 23.9581390401024947 39.8692747573272612 28.6327538495249954
 21.1394846681424795 39.8692747573272612 28.6327538495249954
  7.0465510401024849 39.8692747573272612 28.6327538495249954
  4.2278966681424874 39.8692747573272612 28.6327538495249954
  1.4093268541224926 39.8692747573272612 28.6327538495249954
 -9.8650369598975125 39.8692747573272612 28.6327538495249954
 -21.1394853318575109 39.8692747573272612 28.6327538495249954
 62.0091697814501188 37.4283211689214923 28.6327538495249954
 -19.7301581661957393 42.3103015750729767 28.6327538495249954
 -9.8650792795033553 44.7512551634787386 28.6327538495249954
 16.9115877290959595 32.5463407627700150 28.6327538495249954
 11.2744481010559561 32.5463407627700150 28.6327538495249954
 22.5488119557112086 27.6644335859584807 28.6327538495249954
 19.7301575837512004 27.6644335859584807 28.6327538495249954
 16.9115877697311987 27.6644335859584807 28.6327538495249954
  8.4557937697312031 27.6644335859584807 28.6327538495249954
  5.6372239557112023 27.6644335859584807 28.6327538495249954
  2.8185695837512008 27.6644335859584807 28.6327538495249954
 -11.2743640442888005 27.6644335859584807 28.6327538495249954
 -14.0930184162487979 27.6644335859584807 28.6327538495249954
 69.0556789760294407 25.2234067682127652 28.6327538495249954
 66.2371091620094319 25.2234067682127652 28.6327538495249954
 63.4184547900494380 25.2234067682127652 28.6327538495249954
 60.5998849760294434 25.2234067682127652 28.6327538495249954
 35.2325029760294228 25.2234067682127652 28.6327538495249954
 25.3673817697312032 27.6644335859584807 28.6327538495249954
 23.9581391620094379 25.2234067682127652 28.6327538495249954
  4.2278967900494315 25.2234067682127652 28.6327538495249954
 -1.4092428379905699 25.2234067682127652 28.6327538495249954
 -4.2278972099505676 25.2234067682127652 28.6327538495249954
 62.0091699033570620 22.7824531798069998 28.6327538495249954
 53.5533759033570504 22.7824531798069998 28.6327538495249954
 50.7348060893370558 22.7824531798069998 28.6327538495249954
 36.6417879033570415 22.7824531798069998 28.6327538495249954
 33.8232180893370540 22.7824531798069998 28.6327538495249954
 31.0045637173770388 22.7824531798069998 28.6327538495249954
 11.2744059033570529 22.7824531798069998 28.6327538495249954
  8.4558360893370512 22.7824531798069998 28.6327538495249954
  0.0000420893370479 22.7824531798069998 28.6327538495249954
 -2.8186122826229494 22.7824531798069998 28.6327538495249954
 21.1394847900494298 25.2234067682127652 28.6327538495249954
 14.0930179150759578 32.5463407627700150 28.6327538495249954
 28.1859515837511907 27.6644335859584807 28.6327538495249954
 39.4603999557111962 27.6644335859584807 28.6327538495249954
 -0.0000002709040391 32.5463407627700150 28.6327538495249954
 -2.8185700849240374 32.5463407627700150 28.6327538495249954
 -5.6371398989440404 32.5463407627700150 28.6327538495249954
 -8.4557942709040379 32.5463407627700150 28.6327538495249954
 -11.2743640849240396 32.5463407627700150 28.6327538495249954
 -14.0929338989440378 32.5463407627700150 28.6327538495249954
 54.9627030283835865 30.1053871743642461 28.6327538495249954
 52.1440486564235925 30.1053871743642461 28.6327538495249954
 49.3254788424035837 30.1053871743642461 28.6327538495249954
 43.6882546564235881 30.1053871743642461 28.6327538495249954
 40.8696848424035863 30.1053871743642461 28.6327538495249954
 38.0511150283835775 30.1053871743642461 28.6327538495249954
 29.5953210283835837 30.1053871743642461 28.6327538495249954
 31.0046059557112059 27.6644335859584807 28.6327538495249954
 26.7766666564235685 30.1053871743642461 28.6327538495249954
 15.5023028424035783 30.1053871743642461 28.6327538495249954
 12.6837330283835765 30.1053871743642461 28.6327538495249954
  9.8650786564235791 30.1053871743642461 28.6327538495249954
  7.0465088424035836 30.1053871743642461 28.6327538495249954
  4.2279390283835818 30.1053871743642461 28.6327538495249954
 -9.8650791575964192 30.1053871743642461 28.6327538495249954
 -12.6836489716164174 30.1053871743642461 28.6327538495249954
 -15.5023033435764184 30.1053871743642461 28.6327538495249954
 67.6463517697312113 27.6644335859584807 28.6327538495249954
 64.8277819557112025 27.6644335859584807 28.6327538495249954
 62.0091275837512086 27.6644335859584807 28.6327538495249954
 47.9161939557112078 27.6644335859584807 28.6327538495249954
 42.2789697697312050 27.6644335859584807 28.6327538495249954
 18.3208726564235782 30.1053871743642461 28.6327538495249954
 33.8231754040103922 71.6020375533019688 28.6327538495249954
