 H  O 
 1.0000000000000000
    84.5579400000000021    0.0000000000000000    0.0000000000000000
   -42.2789706095346958   73.2293399455724767    0.0000000000000000
     0.0000000000000000    0.0000000000000000   46.9039550000000034
 H   O  
 248 316
Cartesian
 35.2324603042478444 72.4156887494372228 28.1128704123049964
 15.5023026121347893 57.7698207603227232 28.1128704123049964
  7.0465086121347857 57.7698207603227232 28.1128704123049964
 -15.5023033300313369 28.4780847820937346 28.1128704123049964
 -12.6837335160113369 28.4780847820937346 28.1128704123049964
 -7.0465093300313377 28.4780847820937346 28.1128704123049964
 -4.2279397598252162 57.7698207603227232 28.1128704123049964
  7.0465088559486642 28.4780847820937346 28.1128704123049964
 -21.1395277598252136 57.7698207603227232 28.1128704123049964
 26.7766666699686624 28.4780847820937346 28.1128704123049964
 -29.5953217598252145 57.7698207603227232 28.1128704123049964
 40.8696848559486625 28.4780847820937346 28.1128704123049964
 52.1440486699686616 28.4780847820937346 28.1128704123049964
 63.4184124839886536 28.4780847820937346 28.1128704123049964
 -11.2743640713789581 30.9190383704995000 28.1128704123049964
 -8.4557942573589582 30.9190383704995000 28.1128704123049964
 -5.6372244433389582 30.9190383704995000 28.1128704123049964
  5.6372239286210437 30.9190383704995000 28.1128704123049964
 12.6836907223228135 33.3600651882452155 28.1128704123049964
  1.4092423503628120 33.3600651882452155 28.1128704123049964
 -1.4093274636571897 33.3600651882452155 28.1128704123049964
 -4.2278972776771910 33.3600651882452155 28.1128704123049964
  2.8185693534824074 55.3288671719169614 28.1128704123049964
 64.8277819286210502 30.9190383704995000 28.1128704123049964
 50.7347637832762715 26.0371311936879657 28.1128704123049964
 62.0091275566610349 30.9190383704995000 28.1128704123049964
 50.7347637426410429 30.9190383704995000 28.1128704123049964
  8.4557935394624035 55.3288671719169614 28.1128704123049964
 14.0929331675024070 55.3288671719169614 28.1128704123049964
 36.6417455566610357 30.9190383704995000 28.1128704123049964
 31.0046059286210465 30.9190383704995000 28.1128704123049964
 11.2743635566610401 30.9190383704995000 28.1128704123049964
 53.5533335566610376 30.9190383704995000 28.1128704123049964
 45.0975395972962758 26.0371311936879657 28.1128704123049964
 36.6417455972962784 26.0371311936879657 28.1128704123049964
 31.0045214113162864 26.0371311936879657 28.1128704123049964
 56.3719457309221283 21.1551507875364884 28.1128704123049964
 47.9161517309221239 21.1551507875364884 28.1128704123049964
 -9.8651217074710615 62.6518011664742076 28.1128704123049964
  4.2278964785089341 62.6518011664742076 28.1128704123049964
 28.1859939169021310 21.1551507875364884 28.1128704123049964
  7.0464662925289359 62.6518011664742076 28.1128704123049964
 62.0091699169021311 21.1551507875364884 28.1128704123049964
 19.7301999169021336 21.1551507875364884 28.1128704123049964
 32.4138482925289324 62.6518011664742076 28.1128704123049964
 63.4184548442297569 18.7141971991307194 28.1128704123049964
 60.5998004722697488 18.7141971991307194 28.1128704123049964
 35.2324181065489270 62.6518011664742076 28.1128704123049964
 57.7812306582497541 18.7141971991307194 28.1128704123049964
 54.9626608442297453 18.7141971991307194 28.1128704123049964
 16.9115455449421290 21.1551507875364884 28.1128704123049964
 18.3208303503628116 33.3600651882452155 28.1128704123049964
 70.4649639169021356 21.1551507875364884 28.1128704123049964
  7.0464666176145112 23.5961043759422537 28.1128704123049964
 40.8696846121347903 57.7698207603227232 28.1128704123049964
 46.5068242401747796 57.7698207603227232 28.1128704123049964
 22.5487274113162819 26.0371311936879657 28.1128704123049964
 -25.3673825011728376 60.2107743487284921 28.1128704123049964
 -2.8186545886837178 26.0371311936879657 28.1128704123049964
 -11.2744485886837182 26.0371311936879657 28.1128704123049964
 -9.8651213823854889 23.5961043759422537 28.1128704123049964
 -14.0930184027037182 26.0371311936879657 28.1128704123049964
 66.2370246176145088 23.5961043759422537 28.1128704123049964
 19.7301573128471581 60.2107743487284921 28.1128704123049964
 38.0510728035945078 23.5961043759422537 28.1128704123049964
 35.2325029895745132 23.5961043759422537 28.1128704123049964
 23.9580546176145113 23.5961043759422537 28.1128704123049964
 12.6836908035945140 23.5961043759422537 28.1128704123049964
 -0.0000005011728327 60.2107743487284921 28.1128704123049964
 52.1440064722697443 18.7141971991307194 28.1128704123049964
 23.9580545363428143 33.3600651882452155 28.1128704123049964
 35.2324183503628063 33.3600651882452155 28.1128704123049964
 -8.4558366988717459 50.4468867657654769 28.1128704123049964
 -11.2744065128917477 50.4468867657654769 28.1128704123049964
 50.7347636613693425 40.6829991828024689 28.1128704123049964
 -16.9116306988717469 50.4468867657654769 28.1128704123049964
 -19.7302005128917450 50.4468867657654769 28.1128704123049964
 -28.1859945128917460 50.4468867657654769 28.1128704123049964
 -15.5023034519382783 43.1239527712082307 28.1128704123049964
 52.1440062284558650 48.0059331773597151 28.1128704123049964
 49.3254364144358703 48.0059331773597151 28.1128704123049964
  7.0465087340417254 43.1239527712082307 28.1128704123049964
  9.8650785480617262 43.1239527712082307 28.1128704123049964
 43.6882122284558676 48.0059331773597151 28.1128704123049964
 18.3208725480617254 43.1239527712082307 28.1128704123049964
 23.9580967340417281 43.1239527712082307 28.1128704123049964
 26.7766242284558658 48.0059331773597151 28.1128704123049964
 21.1394846004158765 48.0059331773597151 28.1128704123049964
 35.2324605480617166 43.1239527712082307 28.1128704123049964
 50.7347636207340997 45.5649063596139996 28.1128704123049964
 25.3673816207341005 45.5649063596139996 28.1128704123049964
 22.5488118067141059 45.5649063596139996 28.1128704123049964
 19.7301574347541049 45.5649063596139996 28.1128704123049964
 14.0930178067140996 45.5649063596139996 28.1128704123049964
 -23.9581397715441291 48.0059331773597151 28.1128704123049964
  8.4557513011282524 50.4468867657654769 28.1128704123049964
 -12.6836913995841307 48.0059331773597151 28.1128704123049964
 -11.2743641932859031 45.5649063596139996 28.1128704123049964
 -14.0930185652459006 45.5649063596139996 28.1128704123049964
 -22.5488125652458997 45.5649063596139996 28.1128704123049964
 43.6882545480617210 43.1239527712082307 28.1128704123049964
  9.8650362284558710 48.0059331773597151 28.1128704123049964
 18.3208302284558755 48.0059331773597151 28.1128704123049964
 -2.8185701932858982 45.5649063596139996 28.1128704123049964
 14.0929754871082551 50.4468867657654769 28.1128704123049964
 22.5487272894093422 40.6829991828024689 28.1128704123049964
 19.7301574753893405 40.6829991828024689 28.1128704123049964
 32.4138904902278497 72.4156887494372228 28.1128704123049964
 39.4603576090151904 35.8010187766509844 28.1128704123049964
 36.6417877949951958 35.8010187766509844 28.1128704123049964
 31.0045636090151895 35.8010187766509844 28.1128704123049964
 28.1859937949951949 35.8010187766509844 28.1128704123049964
 11.2744057949951930 35.8010187766509844 28.1128704123049964
 47.9161516090151949 35.8010187766509844 28.1128704123049964
 32.4138483738006258 52.8878403541712458 28.1128704123049964
 46.5068665597806330 52.8878403541712458 28.1128704123049964
 63.4184547223228137 33.3600651882452155 28.1128704123049964
 57.7812305363428109 33.3600651882452155 28.1128704123049964
 54.9626607223228163 33.3600651882452155 28.1128704123049964
 49.3254365363428136 33.3600651882452155 28.1128704123049964
 38.0510727223228145 33.3600651882452155 28.1128704123049964
 38.0510725597806356 52.8878403541712458 28.1128704123049964
 32.4138485363428117 33.3600651882452155 28.1128704123049964
  7.0464663738006301 52.8878403541712458 28.1128704123049964
 -4.2278974402193654 52.8878403541712458 28.1128704123049964
 16.9115876613693388 40.6829991828024689 28.1128704123049964
 14.0929332894093395 40.6829991828024689 28.1128704123049964
  8.4557936613693432 40.6829991828024689 28.1128704123049964
 19.7301996730882578 50.4468867657654769 28.1128704123049964
 -0.0000003386306579 40.6829991828024689 28.1128704123049964
 22.5487694871082525 50.4468867657654769 28.1128704123049964
 -15.5022611323324266 38.2419723650567462 28.1128704123049964
 25.3673393011282471 50.4468867657654769 28.1128704123049964
 39.4603574871082543 50.4468867657654769 28.1128704123049964
 46.5068666816875762 38.2419723650567462 28.1128704123049964
 29.5952786816875744 38.2419723650567462 28.1128704123049964
 21.1394846816875770 38.2419723650567462 28.1128704123049964
 15.5022604957075725 38.2419723650567462 28.1128704123049964
  9.8651208676675761 38.2419723650567462 28.1128704123049964
 28.1859936730882552 50.4468867657654769 28.1128704123049964
 49.3254366582497497 18.7141971991307194 28.1128704123049964
 33.8231754988271618 60.2107743487284921 28.1128704123049964
 32.4138482518936897 67.5337083432857384 28.1128704123049964
 -32.4138916957521559 72.4156887494372228 28.1128704123049964
 -29.5953218817321577 72.4156887494372228 28.1128704123049964
 47.9161095332232136 11.3912632045734714 28.1128704123049964
 -26.7766675097721567 72.4156887494372228 28.1128704123049964
 53.5533337192032164 11.3912632045734714 28.1128704123049964
 -0.0000423331509293  6.5092827984219914 28.1128704123049964
 -23.9580976957521585 72.4156887494372228 28.1128704123049964
 59.1905579051832120 11.3912632045734714 28.1128704123049964
 -18.3208735097721558 72.4156887494372228 28.1128704123049964
 -12.6836915621263024 67.5337083432857384 28.1128704123049964
 69.0555945941766822  4.0683292100162243 28.1128704123049964
 60.5998005941766849  4.0683292100162243 28.1128704123049964
 57.7812307801566902  4.0683292100162243 28.1128704123049964
 -21.1394855621263069 67.5337083432857384 28.1128704123049964
 -12.6837338817321594 72.4156887494372228 28.1128704123049964
 -26.7767097481063061 67.5337083432857384 28.1128704123049964
 -29.5952795621263043 67.5337083432857384 28.1128704123049964
  1.4092847918756004 13.8322167929792403 28.1128704123049964
  4.2278546058956001 13.8322167929792403 28.1128704123049964
 76.1021036668490609  6.5092827984219914 28.1128704123049964
 -9.8650795097721549 72.4156887494372228 28.1128704123049964
 36.6417875511813165 65.0927547548799765 28.1128704123049964
 33.8231331792213084 65.0927547548799765 28.1128704123049964
 46.5068669661366982  4.0683292100162243 28.1128704123049964
 31.0045633652013137 65.0927547548799765 28.1128704123049964
 31.0045215332232189 11.3912632045734714 28.1128704123049964
 43.6882125941766972  4.0683292100162243 28.1128704123049964
 -35.2324615097721576 72.4156887494372228 28.1128704123049964
 22.5487275332232180 11.3912632045734714 28.1128704123049964
 73.2835338528290663  6.5092827984219914 28.1128704123049964
  8.4557934175554603 69.9747351610314468 28.1128704123049964
 -0.0000005824445366 69.9747351610314468 28.1128704123049964
 56.3719458528290644  6.5092827984219914 28.1128704123049964
 15.5022607395214518  8.9502363868277595 28.1128704123049964
 19.7301572315754683 69.9747351610314468 28.1128704123049964
 -11.2744489544045354 69.9747351610314468 28.1128704123049964
 21.1394849255014528  8.9502363868277595 28.1128704123049964
 29.5952789255014537  8.9502363868277595 28.1128704123049964
 47.9161518528290671  6.5092827984219914 28.1128704123049964
 -25.3673825824445345 69.9747351610314468 28.1128704123049964
 -33.8231765824445318 69.9747351610314468 28.1128704123049964
 -36.6418309544045329 69.9747351610314468 28.1128704123049964
 43.6882971114814538  8.9502363868277595 28.1128704123049964
 38.0510724378736924 67.5337083432857384 28.1128704123049964
 35.2325026238536978 67.5337083432857384 28.1128704123049964
 28.1859512315754728 69.9747351610314468 28.1128704123049964
 33.8231754175554755 69.9747351610314468 28.1128704123049964
 39.4603150455954648 69.9747351610314468 28.1128704123049964
 29.5952784378736951 67.5337083432857384 28.1128704123049964
 -40.8696856957521533 72.4156887494372228 28.1128704123049964
  1.4093266238536943 67.5337083432857384 28.1128704123049964
  8.4557939051832172 11.3912632045734714 28.1128704123049964
 11.2743637192032189 11.3912632045734714 28.1128704123049964
 14.0929335332232206 11.3912632045734714 28.1128704123049964
 25.3673396668490696  6.5092827984219914 28.1128704123049964
 40.8696427801566955  4.0683292100162243 28.1128704123049964
 15.5023029778556030 13.8322167929792403 28.1128704123049964
  5.6371390455954664 69.9747351610314468 28.1128704123049964
  5.6371813652013136 65.0927547548799765 28.1128704123049964
 67.6463519864549170  1.6273023922705114 28.1128704123049964
 28.1859516785679780 16.2731703813850075 28.1128704123049964
 64.8277821724349081  1.6273023922705114 28.1128704123049964
  4.2278541182678469 72.4156887494372228 28.1128704123049964
 12.6836481182678362 72.4156887494372228 28.1128704123049964
 29.5952361182678381 72.4156887494372228 28.1128704123049964
 33.8231758645479843 16.2731703813850075 28.1128704123049964
 57.7812729778555934 13.8322167929792403 28.1128704123049964
 39.4604000505279870 16.2731703813850075 28.1128704123049964
 70.4649218004749116  1.6273023922705114 28.1128704123049964
 15.5023024902278443 72.4156887494372228 28.1128704123049964
 45.0975398004749266  1.6273023922705114 28.1128704123049964
 56.3719880505279747 16.2731703813850075 28.1128704123049964
 62.0091276785679781 16.2731703813850075 28.1128704123049964
 33.8231759864549275  1.6273023922705114 28.1128704123049964
 36.6417458004749221  1.6273023922705114 28.1128704123049964
 -2.8186126347986837 65.0927547548799765 28.1128704123049964
 39.4604001724349231  1.6273023922705114 28.1128704123049964
 -9.8651213417502497 18.7141971991307194 28.1128704123049964
 -4.2278971557702505 18.7141971991307194 28.1128704123049964
 42.2789699864549249  1.6273023922705114 28.1128704123049964
 26.7766663042478434 72.4156887494372228 28.1128704123049964
 73.2835761724349197  1.6273023922705114 28.1128704123049964
 11.2744055511813173 65.0927547548799765 28.1128704123049964
 19.7301576785679771 16.2731703813850075 28.1128704123049964
 38.0510729661366938  4.0683292100162243 28.1128704123049964
 29.5952789661366928  4.0683292100162243 28.1128704123049964
 16.9115451792213065 65.0927547548799765 28.1128704123049964
 -7.0465096957521522 72.4156887494372228 28.1128704123049964
 21.1394849661366919  4.0683292100162243 28.1128704123049964
 74.6928609778556023 13.8322167929792403 28.1128704123049964
 18.3208305941766909  4.0683292100162243 28.1128704123049964
 12.6836909661366875  4.0683292100162243 28.1128704123049964
 -36.6417886347986865 65.0927547548799765 28.1128704123049964
 19.7301578004749203  1.6273023922705114 28.1128704123049964
 -25.3674248207786874 65.0927547548799765 28.1128704123049964
 -1.4092855097721566 72.4156887494372228 28.1128704123049964
 -22.5487704488186900 65.0927547548799765 28.1128704123049964
  8.4557938645479798 16.2731703813850075 28.1128704123049964
  7.0464667801566900  4.0683292100162243 28.1128704123049964
  1.4092843042478451 72.4156887494372228 28.1128704123049964
 14.0930180505279825 16.2731703813850075 28.1128704123049964
 18.3208304722697477 18.7141971991307194 28.1128704123049964
 16.9115878645479825 16.2731703813850075 28.1128704123049964
 -0.0000001354520196 16.2731703813850075 28.1128704123049964
 -11.2744066347986838 65.0927547548799765 28.1128704123049964
 15.5023447962886092 69.1610107355562462 28.6327538495249954
 57.7812727204966521 44.7512551634787386 28.6327538495249954
 31.0046055899903834 71.6020375533019688 28.6327538495249954
 23.9581387962886225 69.1610107355562462 28.6327538495249954
  2.8186116595431669 52.0741891580359919 28.6327538495249954
 14.0929754735631594 52.0741891580359919 28.6327538495249954
 -16.9115461544768308 52.0741891580359919 28.6327538495249954
 -18.3209155991092061 49.6332355696302230 28.6327538495249954
 -22.5487703404568300 52.0741891580359919 28.6327538495249954
 -4.2278974131292042 49.6332355696302230 28.6327538495249954
 -5.6372247819696195 71.6020375533019688 28.6327538495249954
 -1.4093275991092098 49.6332355696302230 28.6327538495249954
  1.4093267728507877 49.6332355696302230 28.6327538495249954
 36.6418299791490298 47.1922087518845075 28.6327538495249954
 12.6836905868707941 49.6332355696302230 28.6327538495249954
 31.0046057931690235 47.1922087518845075 28.6327538495249954
 -22.5488127819696196 71.6020375533019688 28.6327538495249954
  5.6372237931690181 47.1922087518845075 28.6327538495249954
 43.6882967728507978 49.6332355696302230 28.6327538495249954
 49.3254364008908013 49.6332355696302230 28.6327538495249954
 -39.4604007819696179 71.6020375533019688 28.6327538495249954
 54.9626605868708040 49.6332355696302230 28.6327538495249954
 25.3673814040103807 71.6020375533019688 28.6327538495249954
 -28.1859945264368292 52.0741891580359919 28.6327538495249954
 -0.0000003928109814 47.1922087518845075 28.6327538495249954
 -8.4557943928109793 47.1922087518845075 28.6327538495249954
 -19.7302005264368283 52.0741891580359919 28.6327538495249954
  2.8186539791490159 47.1922087518845075 28.6327538495249954
 42.2789694852820901 61.8380767409990000 28.6327538495249954
 22.5487694735631763 52.0741891580359919 28.6327538495249954
 29.5953207845697079 59.3971231525932382 28.6327538495249954
 23.9580965985897052 59.3971231525932382 28.6327538495249954
 12.6837327845697061 59.3971231525932382 28.6327538495249954
  4.2279387845697078 59.3971231525932382 28.6327538495249954
  1.4092844126096999 59.3971231525932382 28.6327538495249954
 12.6836904649638509 64.2791035587447084 28.6327538495249954
 15.5022602789838597 64.2791035587447084 28.6327538495249954
 46.5069089064766459 44.7512551634787386 28.6327538495249954
 -9.8650794014102949 59.3971231525932382 28.6327538495249954
 -15.5023035873902977 59.3971231525932382 28.6327538495249954
 -21.1394432154303011 59.3971231525932382 28.6327538495249954
 50.7347635259173302 56.9561695641874692 28.6327538495249954
 21.1394844649638500 64.2791035587447084 28.6327538495249954
 23.9580542789838589 64.2791035587447084 28.6327538495249954
 26.7767086509438528 64.2791035587447084 28.6327538495249954
 36.6417453399373301 56.9561695641874692 28.6327538495249954
 -12.6836492154302967 59.3971231525932382 28.6327538495249954
 46.5069087845697027 59.3971231525932382 28.6327538495249954
 49.3254785985897115 59.3971231525932382 28.6327538495249954
 -33.8231765147179146 61.8380767409990000 28.6327538495249954
 45.0976238572420840 61.8380767409990000 28.6327538495249954
 -15.5022613490561429 64.2791035587447084 28.6327538495249954
 31.0046056712620839 61.8380767409990000 28.6327538495249954
 28.1860358572420893 61.8380767409990000 28.6327538495249954
 22.5488116712620865 61.8380767409990000 28.6327538495249954
 19.7302418572420777 61.8380767409990000 28.6327538495249954
 16.9115874852820909 61.8380767409990000 28.6327538495249954
 11.2744478572420874 61.8380767409990000 28.6327538495249954
  8.4557934852820722 61.8380767409990000 28.6327538495249954
 -7.0464673490561447 64.2791035587447084 28.6327538495249954
 -4.2278975350361501 64.2791035587447084 28.6327538495249954
 -14.0929341427579153 61.8380767409990000 28.6327538495249954
  1.4093266509438596 64.2791035587447084 28.6327538495249954
 -16.9115885147179164 61.8380767409990000 28.6327538495249954
 -19.7301583287379145 61.8380767409990000 28.6327538495249954
 -28.1859523287379155 61.8380767409990000 28.6327538495249954
 -31.0045221427579136 61.8380767409990000 28.6327538495249954
 33.8231755259173212 56.9561695641874692 28.6327538495249954
 16.9116298455231728 52.0741891580359919 28.6327538495249954
 19.7301573399373318 56.9561695641874692 28.6327538495249954
 -31.0045644623637671 66.7200571471504844 28.6327538495249954
 -7.0464672677844442 54.5151427464417537 28.6327538495249954
 39.4603996712620955 61.8380767409990000 28.6327538495249954
 33.8232177236162386 66.7200571471504844 28.6327538495249954
 -12.6836914537644478 54.5151427464417537 28.6327538495249954
 42.2790117236162359 66.7200571471504844 28.6327538495249954
 -18.3208310818044460 54.5151427464417537 28.6327538495249954
 -23.9580552677844487 54.5151427464417537 28.6327538495249954
 -1.4092430818044526 54.5151427464417537 28.6327538495249954
 53.5533756595431782 52.0741891580359919 28.6327538495249954
 47.9161514735631755 52.0741891580359919 28.6327538495249954
 45.0975816595431809 52.0741891580359919 28.6327538495249954
 -7.0464673896913883 69.1610107355562462 28.6327538495249954
 33.8232178455231747 52.0741891580359919 28.6327538495249954
 31.0045634735631737 52.0741891580359919 28.6327538495249954
 25.3674238455231631 52.0741891580359919 28.6327538495249954
  4.2278964243286037 69.1610107355562462 28.6327538495249954
 -21.1394855756713831 69.1610107355562462 28.6327538495249954
 25.3674237236162377 66.7200571471504844 28.6327538495249954
 14.0929753516562410 66.7200571471504844 28.6327538495249954
 11.2744055376362251 66.7200571471504844 28.6327538495249954
 -8.4557944740826727 56.9561695641874692 28.6327538495249954
 -11.2743642881026744 56.9561695641874692 28.6327538495249954
 -25.3673402763837679 66.7200571471504844 28.6327538495249954
 -25.3673824740826745 56.9561695641874692 28.6327538495249954
 -28.1859522881026763 56.9561695641874692 28.6327538495249954
 -16.9115462763837670 66.7200571471504844 28.6327538495249954
 49.3255209181955507 54.5151427464417537 28.6327538495249954
 43.6882967322155622 54.5151427464417537 28.6327538495249954
 35.2325027322155506 54.5151427464417537 28.6327538495249954
 32.4139329181955560 54.5151427464417537 28.6327538495249954
 -8.4557522763837714 66.7200571471504844 28.6327538495249954
 -5.6371824623637705 66.7200571471504844 28.6327538495249954
 -2.8186126483437688 66.7200571471504844 28.6327538495249954
 29.5952785462355585 54.5151427464417537 28.6327538495249954
 26.7767087322155568 54.5151427464417537 28.6327538495249954
 21.1394845462355612 54.5151427464417537 28.6327538495249954
 12.6836905462355407 54.5151427464417537 28.6327538495249954
 46.5068664649638706 64.2791035587447084 28.6327538495249954
 40.8696847204966431 44.7512551634787386 28.6327538495249954
  1.4092849002374601  0.8136511961352557 28.6327538495249954
 35.2324605345166475 44.7512551634787386 28.6327538495249954
 69.0556367783305234 15.4595191852497500 28.6327538495249954
 66.2370669643105288 15.4595191852497500 28.6327538495249954
 43.6882547783305313 15.4595191852497500 28.6327538495249954
 26.7766667783305188 15.4595191852497500 28.6327538495249954
 21.1395271502905153 15.4595191852497500 28.6327538495249954
 -4.2278548497094786 15.4595191852497500 28.6327538495249954
 -7.0465092216694787 15.4595191852497500 28.6327538495249954
 64.8277820776181386 13.0185655968439828 28.6327538495249954
 62.0091277056581518 13.0185655968439828 28.6327538495249954
 53.5533337056581473 13.0185655968439828 28.6327538495249954
 50.7347638916381456 13.0185655968439828 28.6327538495249954
 39.4604000776181465 13.0185655968439828 28.6327538495249954
 25.3673818916381357 13.0185655968439828 28.6327538495249954
 19.7301577056581365 13.0185655968439828 28.6327538495249954
  5.6372240776181393 13.0185655968439828 28.6327538495249954
 -2.8185699223818586 13.0185655968439828 28.6327538495249954
 -5.6372242943418591 13.0185655968439828 28.6327538495249954
 77.5114730979363742 10.5775387790982709 28.6327538495249954
 74.6929032839163654 10.5775387790982709 28.6327538495249954
 69.0556790979363768 10.5775387790982709 28.6327538495249954
 66.2371092839163680 10.5775387790982709 28.6327538495249954
  5.6372240369829028 17.9004727736555189 28.6327538495249954
  8.4557938510029000 17.9004727736555189 28.6327538495249954
 11.2744482229629011 17.9004727736555189 28.6327538495249954
 22.5488120369828984 17.9004727736555189 28.6327538495249954
 -2.8186122826229494 22.7824531798069998 28.6327538495249954
 -5.6371820966429516 22.7824531798069998 28.6327538495249954
 71.8742488306846781 20.3414995914012344 28.6327538495249954
 69.0556790166646692 20.3414995914012344 28.6327538495249954
 43.6882970166646629 20.3414995914012344 28.6327538495249954
 40.8696426447046761 20.3414995914012344 28.6327538495249954
 38.0510728306846602 20.3414995914012344 28.6327538495249954
 23.9580546447046672 20.3414995914012344 28.6327538495249954
 12.6836908306846716 20.3414995914012344 28.6327538495249954
  9.8651210166646699 20.3414995914012344 28.6327538495249954
 63.4184549119563812 10.5775387790982709 28.6327538495249954
  7.0464666447046698 20.3414995914012344 28.6327538495249954
 -1.4093273552953294 20.3414995914012344 28.6327538495249954
 -9.8651213552953294 20.3414995914012344 28.6327538495249954
 67.6463518510029047 17.9004727736555189 28.6327538495249954
 64.8277820369829101 17.9004727736555189 28.6327538495249954
 59.1905578510029073 17.9004727736555189 28.6327538495249954
 45.0976242229628923 17.9004727736555189 28.6327538495249954
 42.2789698510029055 17.9004727736555189 28.6327538495249954
 36.6418302229629020 17.9004727736555189 28.6327538495249954
 33.8231758510028868 17.9004727736555189 28.6327538495249954
 25.3673818510029001 17.9004727736555189 28.6327538495249954
  4.2278968306846716 20.3414995914012344 28.6327538495249954
 52.1440910979363750 10.5775387790982709 28.6327538495249954
 38.0510729119563607 10.5775387790982709 28.6327538495249954
 35.2325030979363731 10.5775387790982709 28.6327538495249954
 32.4138487666116077  5.6956316022867357 28.6327538495249954
 26.7767091385716043  5.6956316022867357 28.6327538495249954
 23.9580547666116068  5.6956316022867357 28.6327538495249954
 12.6836909525916113  5.6956316022867357 28.6327538495249954
  9.8651211385716078  5.6956316022867357 28.6327538495249954
  1.4093271385716108  5.6956316022867357 28.6327538495249954
 81.7393701588898551  3.2546047845410229 28.6327538495249954
 78.9208003448698463  3.2546047845410229 28.6327538495249954
 76.1021459729098524  3.2546047845410229 28.6327538495249954
 56.3719881588898417  3.2546047845410229 28.6327538495249954
 35.2325031385716159  5.6956316022867357 28.6327538495249954
 50.7347639729098461  3.2546047845410229 28.6327538495249954
 11.2744483448698372  3.2546047845410229 28.6327538495249954
  8.4557939729098397  3.2546047845410229 28.6327538495249954
 83.1486550862174738  0.8136511961352557 28.6327538495249954
 60.5998429002374621  0.8136511961352557 28.6327538495249954
 54.9627032721974516  0.8136511961352557 28.6327538495249954
 49.3254790862174488  0.8136511961352557 28.6327538495249954
 43.6882549002374461  0.8136511961352557 28.6327538495249954
 26.7766669002374584  0.8136511961352557 28.6327538495249954
 23.9580970862174638  0.8136511961352557 28.6327538495249954
 12.6837332721974576  0.8136511961352557 28.6327538495249954
 22.5488121588898416  3.2546047845410229 28.6327538495249954
  0.0000420893370479 22.7824531798069998 28.6327538495249954
 38.0510729525916105  5.6956316022867357 28.6327538495249954
 52.1440911385716035  5.6956316022867357 28.6327538495249954
 -1.4092427160836287 10.5775387790982709 28.6327538495249954
 -4.2278970880436288 10.5775387790982709 28.6327538495249954
 78.9207580252639929  8.1365851906925037 28.6327538495249954
 67.6463942112439867  8.1365851906925037 28.6327538495249954
 64.8277398392839928  8.1365851906925037 28.6327538495249954
 59.1906002112439964  8.1365851906925037 28.6327538495249954
 56.3719458392839954  8.1365851906925037 28.6327538495249954
 53.5533760252639937  8.1365851906925037 28.6327538495249954
 50.7348062112439848  8.1365851906925037 28.6327538495249954
 45.0975820252639821  8.1365851906925037 28.6327538495249954
 40.8696427666115980  5.6956316022867357 28.6327538495249954
 42.2790122112439946  8.1365851906925037 28.6327538495249954
 36.6417880252639918  8.1365851906925037 28.6327538495249954
 33.8232182112439972  8.1365851906925037 28.6327538495249954
 16.9116302112439918  8.1365851906925037 28.6327538495249954
 11.2744060252639908  8.1365851906925037 28.6327538495249954
  8.4558362112439873  8.1365851906925037 28.6327538495249954
  5.6371818392839907  8.1365851906925037 28.6327538495249954
  2.8186120252639890  8.1365851906925037 28.6327538495249954
 69.0556791385716195  5.6956316022867357 28.6327538495249954
 63.4184549525916097  5.6956316022867357 28.6327538495249954
 54.9626609525916123  5.6956316022867357 28.6327538495249954
 39.4603578392839793  8.1365851906925037 28.6327538495249954
 38.0511149064766485 44.7512551634787386 28.6327538495249954
  5.6371817173770493 22.7824531798069998 28.6327538495249954
 28.1859939033570512 22.7824531798069998 28.6327538495249954
 32.4139330401024850 39.8692747573272612 28.6327538495249954
 26.7767088541224823 39.8692747573272612 28.6327538495249954
 23.9581390401024947 39.8692747573272612 28.6327538495249954
  4.2278966681424874 39.8692747573272612 28.6327538495249954
 -4.2278973318575099 39.8692747573272612 28.6327538495249954
 -9.8650369598975125 39.8692747573272612 28.6327538495249954
 -21.1394853318575109 39.8692747573272612 28.6327538495249954
 59.1905999674301100 37.4283211689214923 28.6327538495249954
 56.3719455954701161 37.4283211689214923 28.6327538495249954
 53.5533757814501215 37.4283211689214923 28.6327538495249954
 42.2790119674301152 37.4283211689214923 28.6327538495249954
 25.3674239674301170 37.4283211689214923 28.6327538495249954
  5.6371815954701097 37.4283211689214923 28.6327538495249954
  2.8186117814501150 37.4283211689214923 28.6327538495249954
  0.0000419674301133 37.4283211689214923 28.6327538495249954
 -5.6371822185498859 37.4283211689214923 28.6327538495249954
 -14.0929762185498877 37.4283211689214923 28.6327538495249954
 60.5998848947577358 34.9873675805157234 28.6327538495249954
 52.1440908947577384 34.9873675805157234 28.6327538495249954
 26.7767088947577392 34.9873675805157234 28.6327538495249954
 23.9580545227977240 34.9873675805157234 28.6327538495249954
 35.2325028541224938 39.8692747573272612 28.6327538495249954
 38.0510726681424956 39.8692747573272612 28.6327538495249954
 40.8697270401024966 39.8692747573272612 28.6327538495249954
 43.6882968541224912 39.8692747573272612 28.6327538495249954
 29.5953209064766369 44.7512551634787386 28.6327538495249954
 21.1395269064766467 44.7512551634787386 28.6327538495249954
 12.6837329064766493 44.7512551634787386 28.6327538495249954
  1.4092845345166412 44.7512551634787386 28.6327538495249954
 -4.2278550935233552 44.7512551634787386 28.6327538495249954
 -7.0465094654833562 44.7512551634787386 28.6327538495249954
 56.3719878338042619 42.3103015750729767 28.6327538495249954
 53.5533334618442680 42.3103015750729767 28.6327538495249954
 42.2789696478242618 42.3103015750729767 28.6327538495249954
 36.6417454618442662 42.3103015750729767 28.6327538495249954
  7.0464665227977319 34.9873675805157234 28.6327538495249954
 33.8231756478242644 42.3103015750729767 28.6327538495249954
 25.3673816478242529 42.3103015750729767 28.6327538495249954
 16.9115876478242626 42.3103015750729767 28.6327538495249954
 11.2743634618442599 42.3103015750729767 28.6327538495249954
 -5.6372245381557384 42.3103015750729767 28.6327538495249954
 -11.2743641661957401 42.3103015750729767 28.6327538495249954
 -19.7301581661957393 42.3103015750729767 28.6327538495249954
 60.5998848541225001 39.8692747573272612 28.6327538495249954
 57.7813150401024913 39.8692747573272612 28.6327538495249954
 52.1440908541225028 39.8692747573272612 28.6327538495249954
 49.3255210401024939 39.8692747573272612 28.6327538495249954
 28.1859514618442688 42.3103015750729767 28.6327538495249954
  4.2278967087777302 34.9873675805157234 28.6327538495249954
  1.4093268947577322 34.9873675805157234 28.6327538495249954
 -7.0464671052422672 34.9873675805157234 28.6327538495249954
 -0.0000002302687971 27.6644335859584807 28.6327538495249954
 -2.8185700442888009 27.6644335859584807 28.6327538495249954
 60.5998849760294434 25.2234067682127652 28.6327538495249954
 54.9626607900494406 25.2234067682127652 28.6327538495249954
 52.1440909760294318 25.2234067682127652 28.6327538495249954
 40.8697271620094256 25.2234067682127652 28.6327538495249954
 32.4139331620094353 25.2234067682127652 28.6327538495249954
 26.7767089760294326 25.2234067682127652 28.6327538495249954
 23.9581391620094379 25.2234067682127652 28.6327538495249954
 18.3209149760294281 25.2234067682127652 28.6327538495249954
 16.9115877697311987 27.6644335859584807 28.6327538495249954
  9.8651209760294343 25.2234067682127652 28.6327538495249954
  1.4093269760294336 25.2234067682127652 28.6327538495249954
 -4.2278972099505676 25.2234067682127652 28.6327538495249954
 -7.0464670239705693 25.2234067682127652 28.6327538495249954
 70.4649639033570594 22.7824531798069998 28.6327538495249954
 67.6463940893370506 22.7824531798069998 28.6327538495249954
 59.1906000893370532 22.7824531798069998 28.6327538495249954
 56.3719457173770593 22.7824531798069998 28.6327538495249954
 53.5533759033570504 22.7824531798069998 28.6327538495249954
 50.7348060893370558 22.7824531798069998 28.6327538495249954
 33.8232180893370540 22.7824531798069998 28.6327538495249954
  4.2278967900494315 25.2234067682127652 28.6327538495249954
  8.4558360893370512 22.7824531798069998 28.6327538495249954
 19.7301575837512004 27.6644335859584807 28.6327538495249954
 33.8231757697311934 27.6644335859584807 28.6327538495249954
 -9.8651214772022673 34.9873675805157234 28.6327538495249954
 -12.6836912912222672 34.9873675805157234 28.6327538495249954
 -15.5022611052422672 34.9873675805157234 28.6327538495249954
 -18.3209154772022664 34.9873675805157234 28.6327538495249954
 45.0976241010559633 32.5463407627700150 28.6327538495249954
 39.4603999150759606 32.5463407627700150 28.6327538495249954
 28.1860361010559650 32.5463407627700150 28.6327538495249954
 16.9115877290959595 32.5463407627700150 28.6327538495249954
 -11.2743640849240396 32.5463407627700150 28.6327538495249954
 -14.0929338989440378 32.5463407627700150 28.6327538495249954
 28.1859515837511907 27.6644335859584807 28.6327538495249954
 -16.9115882709040370 32.5463407627700150 28.6327538495249954
 43.6882546564235881 30.1053871743642461 28.6327538495249954
 40.8696848424035863 30.1053871743642461 28.6327538495249954
 18.3208726564235782 30.1053871743642461 28.6327538495249954
 15.5023028424035783 30.1053871743642461 28.6327538495249954
 12.6837330283835765 30.1053871743642461 28.6327538495249954
 59.1905577697312140 27.6644335859584807 28.6327538495249954
 56.3719879557112051 27.6644335859584807 28.6327538495249954
 45.0975395837512067 27.6644335859584807 28.6327538495249954
 42.2789697697312050 27.6644335859584807 28.6327538495249954
 36.6417455837512094 27.6644335859584807 28.6327538495249954
 46.5069090283835891 30.1053871743642461 28.6327538495249954
 43.6882968947577410 34.9873675805157234 28.6327538495249954
