 H  O 
 1.0000000000000000
    84.5579400000000021    0.0000000000000000    0.0000000000000000
   -42.2789706095346958   73.2293399455724767    0.0000000000000000
     0.0000000000000000    0.0000000000000000   46.9039550000000034
 H   O  
 205 388
Cartesian
 15.5022604957075725 38.2419723650567462 28.1128704123049964
 54.9626606816875736 38.2419723650567462 28.1128704123049964
 49.3254364957075708 38.2419723650567462 28.1128704123049964
 43.6882968676675674 38.2419723650567462 28.1128704123049964
 40.8696424957075664 38.2419723650567462 28.1128704123049964
 38.0510726816875717 38.2419723650567462 28.1128704123049964
 18.3209148676675753 38.2419723650567462 28.1128704123049964
 -16.9115883386306614 40.6829991828024689 28.1128704123049964
 -1.4093275042924258 38.2419723650567462 28.1128704123049964
 -7.0464671323324293 38.2419723650567462 28.1128704123049964
 -15.5022611323324266 38.2419723650567462 28.1128704123049964
 -18.3209155042924259 38.2419723650567462 28.1128704123049964
 -21.1394853183124276 38.2419723650567462 28.1128704123049964
 42.2789274230351850 35.8010187766509844 28.1128704123049964
 16.9115454230351894 35.8010187766509844 28.1128704123049964
 -4.2278973183124275 38.2419723650567462 28.1128704123049964
 -14.0930185246106596 40.6829991828024689 28.1128704123049964
 -5.6372245246106605 40.6829991828024689 28.1128704123049964
  5.6371392894093386 40.6829991828024689 28.1128704123049964
 -26.7767095855641273 48.0059331773597151 28.1128704123049964
 31.0046058067141033 45.5649063596139996 28.1128704123049964
 11.2743634347540986 45.5649063596139996 28.1128704123049964
  2.8185694347540982 45.5649063596139996 28.1128704123049964
 -2.8185701932858982 45.5649063596139996 28.1128704123049964
 -11.2743641932859031 45.5649063596139996 28.1128704123049964
 43.6882545480617210 43.1239527712082307 28.1128704123049964
  7.0465087340417254 43.1239527712082307 28.1128704123049964
  4.2278543620817208 43.1239527712082307 28.1128704123049964
 50.7347636613693425 40.6829991828024689 28.1128704123049964
 39.4603152894093299 40.6829991828024689 28.1128704123049964
 33.8231756613693406 40.6829991828024689 28.1128704123049964
 28.1859514753893379 40.6829991828024689 28.1128704123049964
 22.5487272894093422 40.6829991828024689 28.1128704123049964
  8.4557936613693432 40.6829991828024689 28.1128704123049964
 14.0929756090151947 35.8010187766509844 28.1128704123049964
  5.6371816090151947 35.8010187766509844 28.1128704123049964
 -5.6371822050048115 35.8010187766509844 28.1128704123049964
 -19.7302003909848089 35.8010187766509844 28.1128704123049964
 11.2743635972962863 26.0371311936879657 28.1128704123049964
  8.4557937832762846 26.0371311936879657 28.1128704123049964
  2.8185695972962814 26.0371311936879657 28.1128704123049964
 57.7812306176145043 23.5961043759422537 28.1128704123049964
 46.5068668035945052 23.5961043759422537 28.1128704123049964
 18.3209149895745149 23.5961043759422537 28.1128704123049964
 12.6836908035945140 23.5961043759422537 28.1128704123049964
  9.8651209895745122 23.5961043759422537 28.1128704123049964
 -1.4093273823854895 23.5961043759422537 28.1128704123049964
 -7.0464670104254905 23.5961043759422537 28.1128704123049964
 -12.6836911964054888 23.5961043759422537 28.1128704123049964
 39.4603577309221265 21.1551507875364884 28.1128704123049964
 31.0045637309221327 21.1551507875364884 28.1128704123049964
 25.3673395449421299 21.1551507875364884 28.1128704123049964
 11.2744059169021327 21.1551507875364884 28.1128704123049964
 22.5487274113162819 26.0371311936879657 28.1128704123049964
 -23.9581397715441291 48.0059331773597151 28.1128704123049964
 45.0975395972962758 26.0371311936879657 28.1128704123049964
 67.6463517832762875 26.0371311936879657 28.1128704123049964
 18.3208303503628116 33.3600651882452155 28.1128704123049964
 -7.0465516496371885 33.3600651882452155 28.1128704123049964
 56.3719879286210457 30.9190383704995000 28.1128704123049964
 31.0046059286210465 30.9190383704995000 28.1128704123049964
 25.3673817426410437 30.9190383704995000 28.1128704123049964
 22.5488119286210420 30.9190383704995000 28.1128704123049964
  5.6372239286210437 30.9190383704995000 28.1128704123049964
 -5.6372244433389582 30.9190383704995000 28.1128704123049964
 -8.4557942573589582 30.9190383704995000 28.1128704123049964
 -16.9115882573589573 30.9190383704995000 28.1128704123049964
 63.4184124839886536 28.4780847820937346 28.1128704123049964
 35.2324606699686598 28.4780847820937346 28.1128704123049964
 26.7766666699686624 28.4780847820937346 28.1128704123049964
 23.9580968559486607 28.4780847820937346 28.1128704123049964
  1.4092846699686612 28.4780847820937346 28.1128704123049964
 47.9161094113162704 26.0371311936879657 28.1128704123049964
 12.6836906004158720 48.0059331773597151 28.1128704123049964
 15.5022604144358738 48.0059331773597151 28.1128704123049964
 38.0510726004158641 48.0059331773597151 28.1128704123049964
 -38.0510735621263052 67.5337083432857384 28.1128704123049964
 45.0975815511813138 65.0927547548799765 28.1128704123049964
 36.6417875511813165 65.0927547548799765 28.1128704123049964
 16.9115451792213065 65.0927547548799765 28.1128704123049964
 14.0929753652013119 65.0927547548799765 28.1128704123049964
  8.4557511792213162 65.0927547548799765 28.1128704123049964
 -36.6417886347986865 65.0927547548799765 28.1128704123049964
 35.2324181065489270 62.6518011664742076 28.1128704123049964
 21.1394844785089369 62.6518011664742076 28.1128704123049964
 18.3208301065489287 62.6518011664742076 28.1128704123049964
  4.2278964785089341 62.6518011664742076 28.1128704123049964
 -1.4093277074710613 62.6518011664742076 28.1128704123049964
 -12.6836915214910633 62.6518011664742076 28.1128704123049964
 -26.7767097074710669 62.6518011664742076 28.1128704123049964
 -32.4139338934510661 62.6518011664742076 28.1128704123049964
 -35.2325037481063035 67.5337083432857384 28.1128704123049964
 45.0975393128471538 60.2107743487284921 28.1128704123049964
 -23.9580553761463051 67.5337083432857384 28.1128704123049964
 -9.8651217481063078 67.5337083432857384 28.1128704123049964
 35.2324603042478444 72.4156887494372228 28.1128704123049964
 29.5952361182678381 72.4156887494372228 28.1128704123049964
  4.2278541182678469 72.4156887494372228 28.1128704123049964
 -1.4092855097721566 72.4156887494372228 28.1128704123049964
 36.6417452315754701 69.9747351610314468 28.1128704123049964
 25.3673814175554639 69.9747351610314468 28.1128704123049964
 19.7301572315754683 69.9747351610314468 28.1128704123049964
 14.0929330455954638 69.9747351610314468 28.1128704123049964
  2.8185692315754580 69.9747351610314468 28.1128704123049964
 -8.4557945824445344 69.9747351610314468 28.1128704123049964
 -11.2744489544045354 69.9747351610314468 28.1128704123049964
 -19.7302429544045346 69.9747351610314468 28.1128704123049964
 -33.8231765824445318 69.9747351610314468 28.1128704123049964
 35.2325026238536978 67.5337083432857384 28.1128704123049964
 -4.2278975621263015 67.5337083432857384 28.1128704123049964
 -21.1394855621263069 67.5337083432857384 28.1128704123049964
  8.4557515449421317 21.1551507875364884 28.1128704123049964
 39.4603996848071645 60.2107743487284921 28.1128704123049964
 25.3673814988271609 60.2107743487284921 28.1128704123049964
 42.2789273011282489 50.4468867657654769 28.1128704123049964
 31.0045634871082498 50.4468867657654769 28.1128704123049964
 28.1859936730882552 50.4468867657654769 28.1128704123049964
 25.3673393011282471 50.4468867657654769 28.1128704123049964
 16.9115453011282568 50.4468867657654769 28.1128704123049964
 14.0929754871082551 50.4468867657654769 28.1128704123049964
 11.2744056730882534 50.4468867657654769 28.1128704123049964
  5.6371814871082586 50.4468867657654769 28.1128704123049964
  2.8186116730882564 50.4468867657654769 28.1128704123049964
 -11.2744065128917477 50.4468867657654769 28.1128704123049964
 -14.0929763269117494 50.4468867657654769 28.1128704123049964
 -22.5487703269117468 50.4468867657654769 28.1128704123049964
 -28.1859945128917460 50.4468867657654769 28.1128704123049964
 46.5068666004158757 48.0059331773597151 28.1128704123049964
 40.8696424144358730 48.0059331773597151 28.1128704123049964
 -12.6836914402193699 52.8878403541712458 28.1128704123049964
 36.6417453128471564 60.2107743487284921 28.1128704123049964
 -9.8651216261993682 52.8878403541712458 28.1128704123049964
 15.5022603738006346 52.8878403541712458 28.1128704123049964
 19.7301573128471581 60.2107743487284921 28.1128704123049964
 -16.9115885011728366 60.2107743487284921 28.1128704123049964
 32.4138906121347787 57.7698207603227232 28.1128704123049964
  9.8650784261547866 57.7698207603227232 28.1128704123049964
 -1.4092853878652121 57.7698207603227232 28.1128704123049964
 -4.2279397598252162 57.7698207603227232 28.1128704123049964
 -23.9580975738452153 57.7698207603227232 28.1128704123049964
 -29.5953217598252145 57.7698207603227232 28.1128704123049964
 45.0975393534824036 55.3288671719169614 28.1128704123049964
 39.4603151675024009 55.3288671719169614 28.1128704123049964
  5.6371391675024016 55.3288671719169614 28.1128704123049964
 -16.9115884605376010 55.3288671719169614 28.1128704123049964
 52.1440907457606357 52.8878403541712458 28.1128704123049964
 32.4138483738006258 52.8878403541712458 28.1128704123049964
 29.5952785597806276 52.8878403541712458 28.1128704123049964
  4.2278965597806355 52.8878403541712458 28.1128704123049964
 57.7812306582497541 18.7141971991307194 28.1128704123049964
 38.0510301182678390 72.4156887494372228 28.1128704123049964
 74.6928187395214422  8.9502363868277595 28.1128704123049964
 66.2370669778556049 13.8322167929792403 28.1128704123049964
 69.0556367918755996 13.8322167929792403 28.1128704123049964
 11.2744060388090670  6.5092827984219914 28.1128704123049964
 54.9626609661366956  4.0683292100162243 28.1128704123049964
 52.1440065941766875  4.0683292100162243 28.1128704123049964
 35.2324185941766927  4.0683292100162243 28.1128704123049964
 11.2743636785679815 16.2731703813850075 28.1128704123049964
 16.9115878645479825 16.2731703813850075 28.1128704123049964
 14.0929758528290687  6.5092827984219914 28.1128704123049964
 29.5952789661366928  4.0683292100162243 28.1128704123049964
 26.7766245941766883  4.0683292100162243 28.1128704123049964
 23.9580547801566937  4.0683292100162243 28.1128704123049964
  9.8650365941766900  4.0683292100162243 28.1128704123049964
 39.4604000505279870 16.2731703813850075 28.1128704123049964
  1.4092425941766900  4.0683292100162243 28.1128704123049964
 47.9161940505279844 16.2731703813850075 28.1128704123049964
 78.9207158004749090  1.6273023922705114 28.1128704123049964
 53.5533336785679737 16.2731703813850075 28.1128704123049964
 25.3673818645479834 16.2731703813850075 28.1128704123049964
 62.0091276785679781 16.2731703813850075 28.1128704123049964
 49.3254789778556031 13.8322167929792403 28.1128704123049964
 29.5952366058956002 13.8322167929792403 28.1128704123049964
 60.5998851114814414  8.9502363868277595 28.1128704123049964
 32.4138487395214483  8.9502363868277595 28.1128704123049964
 18.3209151114814510  8.9502363868277595 28.1128704123049964
 77.5114731114814504  8.9502363868277595 28.1128704123049964
  9.8651211114814483  8.9502363868277595 28.1128704123049964
 -0.0000000948167802 11.3912632045734714 28.1128704123049964
  4.2278969255014500  8.9502363868277595 28.1128704123049964
 78.9207580388090690  6.5092827984219914 28.1128704123049964
 46.5068246058955950 13.8322167929792403 28.1128704123049964
 67.6463096668490635  6.5092827984219914 28.1128704123049964
 25.3673819051832226 11.3912632045734714 28.1128704123049964
 36.6417457192032217 11.3912632045734714 28.1128704123049964
 53.5533760388090698  6.5092827984219914 28.1128704123049964
 70.4649217192032182 11.3912632045734714 28.1128704123049964
 73.2834915332232129 11.3912632045734714 28.1128704123049964
 42.2789276668490714  6.5092827984219914 28.1128704123049964
  1.4092847918756004 13.8322167929792403 28.1128704123049964
 25.3673396668490696  6.5092827984219914 28.1128704123049964
 56.3719458528290644  6.5092827984219914 28.1128704123049964
 64.8277820505279863 16.2731703813850075 28.1128704123049964
 46.5068669255014484  8.9502363868277595 28.1128704123049964
 35.2324184722697566 18.7141971991307194 28.1128704123049964
 -1.4093273417502492 18.7141971991307194 28.1128704123049964
  1.4092424722697507 18.7141971991307194 28.1128704123049964
 67.6463519864549170  1.6273023922705114 28.1128704123049964
 64.8277821724349081  1.6273023922705114 28.1128704123049964
 25.3673819864549230  1.6273023922705114 28.1128704123049964
 38.0510728442297577 18.7141971991307194 28.1128704123049964
 53.5533338004749169  1.6273023922705114 28.1128704123049964
 50.7347639864549222  1.6273023922705114 28.1128704123049964
 -9.8651213417502497 18.7141971991307194 28.1128704123049964
 -1.4092430818044526 54.5151427464417537 28.6327538495249954
 52.1440911385716035  5.6956316022867357 28.6327538495249954
  7.0465509181955595 54.5151427464417537 28.6327538495249954
 18.3209147322155452 54.5151427464417537 28.6327538495249954
 21.1394845462355612 54.5151427464417537 28.6327538495249954
  4.2278965462355513 54.5151427464417537 28.6327538495249954
 -4.2278974537644496 54.5151427464417537 28.6327538495249954
 -35.2324192037113804 69.1610107355562462 28.6327538495249954
 -15.5022612677844460 54.5151427464417537 28.6327538495249954
 -18.3208310818044460 54.5151427464417537 28.6327538495249954
 -16.9115885959896168 71.6020375533019688 28.6327538495249954
 -21.1394854537644470 54.5151427464417537 28.6327538495249954
 53.5533756595431782 52.0741891580359919 28.6327538495249954
 54.9626609525916123  5.6956316022867357 28.6327538495249954
 50.7348058455231694 52.0741891580359919 28.6327538495249954
 47.9161514735631755 52.0741891580359919 28.6327538495249954
 -12.6836914537644478 54.5151427464417537 28.6327538495249954
 -19.7301584100096186 71.6020375533019688 28.6327538495249954
 23.9581389181955480 54.5151427464417537 28.6327538495249954
 26.7767087322155568 54.5151427464417537 28.6327538495249954
 38.0510724243286234 69.1610107355562462 28.6327538495249954
 -2.8185702881026811 56.9561695641874692 28.6327538495249954
 26.7767091385716043  5.6956316022867357 28.6327538495249954
 -5.6372246600626781 56.9561695641874692 28.6327538495249954
 -19.7301582881026789 56.9561695641874692 28.6327538495249954
 -22.5488126600626764 56.9561695641874692 28.6327538495249954
 35.2325031385716159  5.6956316022867357 28.6327538495249954
 -25.3673824740826745 56.9561695641874692 28.6327538495249954
 -33.8231765959896151 71.6020375533019688 28.6327538495249954
 -31.0046067819696169 71.6020375533019688 28.6327538495249954
 -31.0046066600626737 56.9561695641874692 28.6327538495249954
 52.1440907322155596 54.5151427464417537 28.6327538495249954
 49.3255209181955507 54.5151427464417537 28.6327538495249954
 46.5068665462355568 54.5151427464417537 28.6327538495249954
 43.6882971385716132  5.6956316022867357 28.6327538495249954
 46.5068669525916008  5.6956316022867357 28.6327538495249954
 35.2325027322155506 54.5151427464417537 28.6327538495249954
 -28.1859524100096195 71.6020375533019688 28.6327538495249954
 29.5952785462355585 54.5151427464417537 28.6327538495249954
 -14.0930187819696204 71.6020375533019688 28.6327538495249954
 45.0975816595431809 52.0741891580359919 28.6327538495249954
 31.0045634735631737 52.0741891580359919 28.6327538495249954
 33.8232178455231747 52.0741891580359919 28.6327538495249954
 26.7767087728507853 49.6332355696302230 28.6327538495249954
 25.3673814040103807 71.6020375533019688 28.6327538495249954
 18.3209147728507951 49.6332355696302230 28.6327538495249954
 11.2744060252639908  8.1365851906925037 28.6327538495249954
 28.1859512180303895 71.6020375533019688 28.6327538495249954
 15.5022604008907816 49.6332355696302230 28.6327538495249954
 16.9116302112439918  8.1365851906925037 28.6327538495249954
 12.6836905868707941 49.6332355696302230 28.6327538495249954
 26.7766669002374584  0.8136511961352557 28.6327538495249954
 19.7302000252639935  8.1365851906925037 28.6327538495249954
 33.8231754040103922 71.6020375533019688 28.6327538495249954
 -4.2278974131292042 49.6332355696302230 28.6327538495249954
 -9.8651215991092069 49.6332355696302230 28.6327538495249954
 33.8232182112439972  8.1365851906925037 28.6327538495249954
 -12.6836914131292051 49.6332355696302230 28.6327538495249954
 36.6417880252639918  8.1365851906925037 28.6327538495249954
 -21.1394854131292078 49.6332355696302230 28.6327538495249954
 45.0975820252639821  8.1365851906925037 28.6327538495249954
 -23.9580552271492060 49.6332355696302230 28.6327538495249954
  8.4558362112439873  8.1365851906925037 28.6327538495249954
 39.4603574735631781 52.0741891580359919 28.6327538495249954
 29.5952785868707942 49.6332355696302230 28.6327538495249954
 38.0511152721974639  0.8136511961352557 28.6327538495249954
 40.8696850862174585  0.8136511961352557 28.6327538495249954
 23.9580547666116068  5.6956316022867357 28.6327538495249954
 57.7812307666116141  5.6956316022867357 28.6327538495249954
 22.5487694735631763 52.0741891580359919 28.6327538495249954
 19.7301996595431604 52.0741891580359919 28.6327538495249954
 16.9116298455231728 52.0741891580359919 28.6327538495249954
 60.5998851385716151  5.6956316022867357 28.6327538495249954
  5.6371814735631682 52.0741891580359919 28.6327538495249954
  2.8186116595431669 52.0741891580359919 28.6327538495249954
 -0.0000005959896168 71.6020375533019688 28.6327538495249954
 -11.2744065264368292 52.0741891580359919 28.6327538495249954
  2.8186120252639890  8.1365851906925037 28.6327538495249954
 -14.0929763404568273 52.0741891580359919 28.6327538495249954
 -16.9115461544768308 52.0741891580359919 28.6327538495249954
 -22.5487703404568300 52.0741891580359919 28.6327538495249954
 49.3254364008908013 49.6332355696302230 28.6327538495249954
 46.5068665868708067 49.6332355696302230 28.6327538495249954
  2.8185692180303707 71.6020375533019688 28.6327538495249954
 40.8696424008908039 49.6332355696302230 28.6327538495249954
  5.6371818392839907  8.1365851906925037 28.6327538495249954
 11.2743633399373131 56.9561695641874692 28.6327538495249954
 33.8231755259173212 56.9561695641874692 28.6327538495249954
 22.5488117118973186 56.9561695641874692 28.6327538495249954
 -21.1394855756713831 69.1610107355562462 28.6327538495249954
 46.5068664649638706 64.2791035587447084 28.6327538495249954
 43.6882966509438617 64.2791035587447084 28.6327538495249954
 38.0510724649638732 64.2791035587447084 28.6327538495249954
 25.3673819729098362  3.2546047845410229 28.6327538495249954
 35.2325026509438644 64.2791035587447084 28.6327538495249954
 26.7767086509438528 64.2791035587447084 28.6327538495249954
 18.3209146509438554 64.2791035587447084 28.6327538495249954
 -18.3208312037113821 69.1610107355562462 28.6327538495249954
 15.5022602789838597 64.2791035587447084 28.6327538495249954
 66.2370670862174649  0.8136511961352557 28.6327538495249954
 28.1860363448698337  3.2546047845410229 28.6327538495249954
 12.6836904649638509 64.2791035587447084 28.6327538495249954
 -9.8650372037113900 69.1610107355562462 28.6327538495249954
  4.2278964649638544 64.2791035587447084 28.6327538495249954
 -1.4093277210161486 64.2791035587447084 28.6327538495249954
 -9.8651217210161430 64.2791035587447084 28.6327538495249954
 -12.6836915350361448 64.2791035587447084 28.6327538495249954
 -26.7767097210161431 64.2791035587447084 28.6327538495249954
 -36.6417886483437698 66.7200571471504844 28.6327538495249954
 33.8231759729098371  3.2546047845410229 28.6327538495249954
  2.8186543448698407  3.2546047845410229 28.6327538495249954
 -25.3673402763837679 66.7200571471504844 28.6327538495249954
 36.6417875376362474 66.7200571471504844 28.6327538495249954
 77.5114309002374711  0.8136511961352557 28.6327538495249954
 33.8232177236162386 66.7200571471504844 28.6327538495249954
 69.0556369002374737  0.8136511961352557 28.6327538495249954
 25.3674237236162377 66.7200571471504844 28.6327538495249954
 14.0929753516562410 66.7200571471504844 28.6327538495249954
 -32.4138493896913857 69.1610107355562462 28.6327538495249954
 11.2744055376362251 66.7200571471504844 28.6327538495249954
  8.4558357236162376 66.7200571471504844 28.6327538495249954
  5.6371813516562215 66.7200571471504844 28.6327538495249954
 -29.5952795756713840 69.1610107355562462 28.6327538495249954
 -5.6371824623637705 66.7200571471504844 28.6327538495249954
 -8.4557522763837714 66.7200571471504844 28.6327538495249954
 80.3300852721974650  0.8136511961352557 28.6327538495249954
 -11.2744066483437688 66.7200571471504844 28.6327538495249954
 -19.7302006483437680 66.7200571471504844 28.6327538495249954
 -23.9580553896913813 69.1610107355562462 28.6327538495249954
 -0.0000000270901599  3.2546047845410229 28.6327538495249954
 -22.5487704623637697 66.7200571471504844 28.6327538495249954
 -33.8231342763837688 66.7200571471504844 28.6327538495249954
 43.6882549002374461  0.8136511961352557 28.6327538495249954
 47.9161936712620928 61.8380767409990000 28.6327538495249954
 36.6418298572420866 61.8380767409990000 28.6327538495249954
 26.7766664126097069 59.3971231525932382 28.6327538495249954
  9.8651206103086064 69.1610107355562462 28.6327538495249954
 12.6836904243286224 69.1610107355562462 28.6327538495249954
 23.9580965985897052 59.3971231525932382 28.6327538495249954
 21.1395267845696964 59.3971231525932382 28.6327538495249954
 12.6836909525916113  5.6956316022867357 28.6327538495249954
  9.8650784126096909 59.3971231525932382 28.6327538495249954
 -1.4092854014103018 59.3971231525932382 28.6327538495249954
 -4.2278552154303037 59.3971231525932382 28.6327538495249954
 52.1440489002374647  0.8136511961352557 28.6327538495249954
 -18.3208734014102959 59.3971231525932382 28.6327538495249954
 -23.9580975873902986 59.3971231525932382 28.6327538495249954
 -26.7766674014102968 59.3971231525932382 28.6327538495249954
 47.9161937118973214 56.9561695641874692 28.6327538495249954
 45.0975393399373274 56.9561695641874692 28.6327538495249954
 35.2325026103086287 69.1610107355562462 28.6327538495249954
 36.6417453399373301 56.9561695641874692 28.6327538495249954
 -38.0510735756713814 69.1610107355562462 28.6327538495249954
 15.5022607666116095  5.6956316022867357 28.6327538495249954
 35.2324604126097114 59.3971231525932382 28.6327538495249954
 45.0976238572420840 61.8380767409990000 28.6327538495249954
  9.8651211385716078  5.6956316022867357 28.6327538495249954
  1.4093271385716108  5.6956316022867357 28.6327538495249954
 63.4184972721974631  0.8136511961352557 28.6327538495249954
 33.8231754852820927 61.8380767409990000 28.6327538495249954
 22.5488116712620865 61.8380767409990000 28.6327538495249954
 36.6418303448698452  3.2546047845410229 28.6327538495249954
 19.7302418572420777 61.8380767409990000 28.6327538495249954
 39.4604001588898399  3.2546047845410229 28.6327538495249954
 16.9115874852820909 61.8380767409990000 28.6327538495249954
  5.6372236712620847 61.8380767409990000 28.6327538495249954
  4.2278964243286037 69.1610107355562462 28.6327538495249954
 53.5534183448698329  3.2546047845410229 28.6327538495249954
 -2.8185703287379194 61.8380767409990000 28.6327538495249954
 -11.2743643287379136 61.8380767409990000 28.6327538495249954
  7.0465507962886189 69.1610107355562462 28.6327538495249954
 -22.5487281427579163 61.8380767409990000 28.6327538495249954
 -25.3673825147179137 61.8380767409990000 28.6327538495249954
 56.3719881588898417  3.2546047845410229 28.6327538495249954
 67.6463519729098550  3.2546047845410229 28.6327538495249954
 46.5069087845697027 59.3971231525932382 28.6327538495249954
 70.4650063448698489  3.2546047845410229 28.6327538495249954
 -26.7767095991092070 49.6332355696302230 28.6327538495249954
 38.0511147845697053 59.3971231525932382 28.6327538495249954
 56.3719880369828985 17.9004727736555189 28.6327538495249954
 45.0976239791490272 47.1922087518845075 28.6327538495249954
 18.3208727783305179 15.4595191852497500 28.6327538495249954
 -7.0465093435764183 30.1053871743642461 28.6327538495249954
 23.9580969643105171 15.4595191852497500 28.6327538495249954
 -15.5023033435764184 30.1053871743642461 28.6327538495249954
 67.6463517697312113 27.6644335859584807 28.6327538495249954
 64.8277819557112025 27.6644335859584807 28.6327538495249954
 26.7766667783305188 15.4595191852497500 28.6327538495249954
 62.0091275837512086 27.6644335859584807 28.6327538495249954
 53.5533335837512112 27.6644335859584807 28.6327538495249954
 50.7347637697312024 27.6644335859584807 28.6327538495249954
 -4.2278549716164209 30.1053871743642461 28.6327538495249954
 47.9161939557112078 27.6644335859584807 28.6327538495249954
 39.4603999557111962 27.6644335859584807 28.6327538495249954
 36.6417455837512094 27.6644335859584807 28.6327538495249954
 38.0511151502905278 15.4595191852497500 28.6327538495249954
 25.3673817697312032 27.6644335859584807 28.6327538495249954
 40.8696849643105153 15.4595191852497500 28.6327538495249954
 22.5488119557112086 27.6644335859584807 28.6327538495249954
 19.7301575837512004 27.6644335859584807 28.6327538495249954
 16.9115877697311987 27.6644335859584807 28.6327538495249954
  5.6372239557112023 27.6644335859584807 28.6327538495249954
  2.8185695837512008 27.6644335859584807 28.6327538495249954
 45.0975395837512067 27.6644335859584807 28.6327538495249954
 -5.6372244162487979 27.6644335859584807 28.6327538495249954
  4.2279390283835818 30.1053871743642461 28.6327538495249954
  9.8650786564235791 30.1053871743642461 28.6327538495249954
 73.2835760776181360 13.0185655968439828 28.6327538495249954
 16.9115877290959595 32.5463407627700150 28.6327538495249954
  5.6372239150759640 32.5463407627700150 28.6327538495249954
  2.8186541010559618 32.5463407627700150 28.6327538495249954
 -5.6371398989440404 32.5463407627700150 28.6327538495249954
 -4.2278548497094786 15.4595191852497500 28.6327538495249954
 -8.4557942709040379 32.5463407627700150 28.6327538495249954
 -16.9115882709040370 32.5463407627700150 28.6327538495249954
 66.2370668424035927 30.1053871743642461 28.6327538495249954
 57.7812728424035953 30.1053871743642461 28.6327538495249954
  7.0465088424035836 30.1053871743642461 28.6327538495249954
 -1.4092850356894804 15.4595191852497500 28.6327538495249954
 52.1440486564235925 30.1053871743642461 28.6327538495249954
 40.8696848424035863 30.1053871743642461 28.6327538495249954
 38.0511150283835775 30.1053871743642461 28.6327538495249954
 35.2324606564235907 30.1053871743642461 28.6327538495249954
 32.4138908424035748 30.1053871743642461 28.6327538495249954
  1.4092847783305213 15.4595191852497500 28.6327538495249954
 29.5953210283835837 30.1053871743642461 28.6327538495249954
 26.7766666564235685 30.1053871743642461 28.6327538495249954
  9.8650787783305205 15.4595191852497500 28.6327538495249954
 23.9580968424035810 30.1053871743642461 28.6327538495249954
 54.9627030283835865 30.1053871743642461 28.6327538495249954
 28.1860361010559650 32.5463407627700150 28.6327538495249954
 -8.4557942302688005 27.6644335859584807 28.6327538495249954
 49.3254789643105269 15.4595191852497500 28.6327538495249954
 -8.4557519106629488 22.7824531798069998 28.6327538495249954
 -11.2744062826229499 22.7824531798069998 28.6327538495249954
 25.3673818510029001 17.9004727736555189 28.6327538495249954
 60.5998850166646719 20.3414995914012344 28.6327538495249954
 57.7812306447046780 20.3414995914012344 28.6327538495249954
 54.9626608306846691 20.3414995914012344 28.6327538495249954
 33.8231758510028868 17.9004727736555189 28.6327538495249954
 38.0510728306846602 20.3414995914012344 28.6327538495249954
 35.2325030166646727 20.3414995914012344 28.6327538495249954
 32.4138486447046574 20.3414995914012344 28.6327538495249954
 22.5488120369828984 17.9004727736555189 28.6327538495249954
 29.5952788306846699 20.3414995914012344 28.6327538495249954
 36.6418302229629020 17.9004727736555189 28.6327538495249954
 23.9580546447046672 20.3414995914012344 28.6327538495249954
  9.8651210166646699 20.3414995914012344 28.6327538495249954
 39.4604000369828896 17.9004727736555189 28.6327538495249954
  1.4093270166646681 20.3414995914012344 28.6327538495249954
 -7.0464669833353293 20.3414995914012344 28.6327538495249954
 -9.8651213552953294 20.3414995914012344 28.6327538495249954
 64.8277820369829101 17.9004727736555189 28.6327538495249954
 59.1905578510029073 17.9004727736555189 28.6327538495249954
 47.9161940369829011 17.9004727736555189 28.6327538495249954
 26.7767090166646753 20.3414995914012344 28.6327538495249954
 69.0556789760294407 25.2234067682127652 28.6327538495249954
 -5.6371820966429516 22.7824531798069998 28.6327538495249954
  0.0000420893370479 22.7824531798069998 28.6327538495249954
 66.2371091620094319 25.2234067682127652 28.6327538495249954
 57.7813151620094345 25.2234067682127652 28.6327538495249954
 49.3255211620094371 25.2234067682127652 28.6327538495249954
 52.1440487783305286 15.4595191852497500 28.6327538495249954
 46.5068667900494361 25.2234067682127652 28.6327538495249954
 43.6882969760294344 25.2234067682127652 28.6327538495249954
 23.9581391620094379 25.2234067682127652 28.6327538495249954
 12.6836907900494289 25.2234067682127652 28.6327538495249954
 63.4184971502905270 15.4595191852497500 28.6327538495249954
  9.8651209760294343 25.2234067682127652 28.6327538495249954
 11.2744482229629011 17.9004727736555189 28.6327538495249954
 66.2370669643105288 15.4595191852497500 28.6327538495249954
 -7.0464670239705693 25.2234067682127652 28.6327538495249954
 70.4649639033570594 22.7824531798069998 28.6327538495249954
 69.0556367783305234 15.4595191852497500 28.6327538495249954
 47.9161517173770548 22.7824531798069998 28.6327538495249954
 33.8232180893370540 22.7824531798069998 28.6327538495249954
 25.3674240893370566 22.7824531798069998 28.6327538495249954
 16.9116300893370450 22.7824531798069998 28.6327538495249954
 14.0929757173770476 22.7824531798069998 28.6327538495249954
 -0.0000001489970986 17.9004727736555189 28.6327538495249954
 11.2744059033570529 22.7824531798069998 28.6327538495249954
  1.4093269760294336 25.2234067682127652 28.6327538495249954
 31.0046059150759525 32.5463407627700150 28.6327538495249954
 33.8231757290959649 32.5463407627700150 28.6327538495249954
 36.6418301010559517 32.5463407627700150 28.6327538495249954
 50.7347636478242734 42.3103015750729767 28.6327538495249954
  4.2278969119563712 10.5775387790982709 28.6327538495249954
 33.8231756478242644 42.3103015750729767 28.6327538495249954
 31.0046058338042556 42.3103015750729767 28.6327538495249954
 28.1859514618442688 42.3103015750729767 28.6327538495249954
 25.3673816478242529 42.3103015750729767 28.6327538495249954
 22.5488118338042653 42.3103015750729767 28.6327538495249954
  8.4557936478242581 42.3103015750729767 28.6327538495249954
  9.8651210979363722 10.5775387790982709 28.6327538495249954
  5.6372238338042564 42.3103015750729767 28.6327538495249954
 56.3719878338042619 42.3103015750729767 28.6327538495249954
 18.3209150979363713 10.5775387790982709 28.6327538495249954
 -11.2743641661957401 42.3103015750729767 28.6327538495249954
 -14.0930185381557376 42.3103015750729767 28.6327538495249954
 -16.9115883521757375 42.3103015750729767 28.6327538495249954
 60.5998848541225001 39.8692747573272612 28.6327538495249954
 57.7813150401024913 39.8692747573272612 28.6327538495249954
 54.9626606681424974 39.8692747573272612 28.6327538495249954
 52.1440908541225028 39.8692747573272612 28.6327538495249954
 49.3255210401024939 39.8692747573272612 28.6327538495249954
 46.5068666681425000 39.8692747573272612 28.6327538495249954
 35.2325030979363731 10.5775387790982709 28.6327538495249954
  2.8185694618442589 42.3103015750729767 28.6327538495249954
 38.0510726681424956 39.8692747573272612 28.6327538495249954
 59.1905576478242708 42.3103015750729767 28.6327538495249954
  1.4093270979363695 10.5775387790982709 28.6327538495249954
 42.2789696071890333 47.1922087518845075 28.6327538495249954
 56.3719458392839954  8.1365851906925037 28.6327538495249954
 39.4603997931690245 47.1922087518845075 28.6327538495249954
 59.1906002112439964  8.1365851906925037 28.6327538495249954
 36.6418299791490298 47.1922087518845075 28.6327538495249954
 16.9115876071890092 47.1922087518845075 28.6327538495249954
 14.0930177931690217 47.1922087518845075 28.6327538495249954
 62.0091700252639910  8.1365851906925037 28.6327538495249954
 -11.2743642068309775 47.1922087518845075 28.6327538495249954
 -22.5487280208509766 47.1922087518845075 28.6327538495249954
 -12.6836490935233588 44.7512551634787386 28.6327538495249954
 53.5534182229629039 17.9004727736555189 28.6327538495249954
 76.1021882112439840  8.1365851906925037 28.6327538495249954
 54.9627029064766432 44.7512551634787386 28.6327538495249954
 32.4138907204966458 44.7512551634787386 28.6327538495249954
 29.5953209064766369 44.7512551634787386 28.6327538495249954
 26.7766665345166501 44.7512551634787386 28.6327538495249954
 78.9207580252639929  8.1365851906925037 28.6327538495249954
  4.2279389064766386 44.7512551634787386 28.6327538495249954
 -1.4092427160836287 10.5775387790982709 28.6327538495249954
  1.4092845345166412 44.7512551634787386 28.6327538495249954
 -1.4092852795033535 44.7512551634787386 28.6327538495249954
 -25.3673823928109776 47.1922087518845075 28.6327538495249954
 35.2325028541224938 39.8692747573272612 28.6327538495249954
 29.5952786681424982 39.8692747573272612 28.6327538495249954
 46.5068669119563793 10.5775387790982709 28.6327538495249954
 14.0929755954701115 37.4283211689214923 28.6327538495249954
 11.2744057814501097 37.4283211689214923 28.6327538495249954
 28.1859517056581375 13.0185655968439828 28.6327538495249954
 -5.6371822185498859 37.4283211689214923 28.6327538495249954
 36.6417457056581313 13.0185655968439828 28.6327538495249954
 45.0975397056581500 13.0185655968439828 28.6327538495249954
 -16.9115460325698876 37.4283211689214923 28.6327538495249954
 -19.7302004045298887 37.4283211689214923 28.6327538495249954
 47.9161940776181368 13.0185655968439828 28.6327538495249954
 57.7812305227977419 34.9873675805157234 28.6327538495249954
 36.6417452180303869 71.6020375533019688 28.6327538495249954
 43.6882968947577410 34.9873675805157234 28.6327538495249954
 38.0510727087777383 34.9873675805157234 28.6327538495249954
 18.3209148947577418 34.9873675805157234 28.6327538495249954
 64.8277820776181386 13.0185655968439828 28.6327538495249954
 15.5022605227977337 34.9873675805157234 28.6327538495249954
 67.6463518916381474 13.0185655968439828 28.6327538495249954
  4.2278967087777302 34.9873675805157234 28.6327538495249954
 -4.2278972912222672 34.9873675805157234 28.6327538495249954
 -7.0464671052422672 34.9873675805157234 28.6327538495249954
 70.4649217056581421 13.0185655968439828 28.6327538495249954
 56.3719879150759695 32.5463407627700150 28.6327538495249954
 40.8696425227977400 34.9873675805157234 28.6327538495249954
 16.9116299674301196 37.4283211689214923 28.6327538495249954
 25.3673818916381357 13.0185655968439828 28.6327538495249954
 16.9115878916381419 13.0185655968439828 28.6327538495249954
 26.7767088541224823 39.8692747573272612 28.6327538495249954
 23.9581390401024947 39.8692747573272612 28.6327538495249954
 49.3255212839163661 10.5775387790982709 28.6327538495249954
 12.6836906681424875 39.8692747573272612 28.6327538495249954
  9.8651208541224857 39.8692747573272612 28.6327538495249954
 57.7813152839163777 10.5775387790982709 28.6327538495249954
  7.0465510401024849 39.8692747573272612 28.6327538495249954
 69.0556790979363768 10.5775387790982709 28.6327538495249954
 -4.2278973318575099 39.8692747573272612 28.6327538495249954
 -12.6836913318575100 39.8692747573272612 28.6327538495249954
 71.8742489119563714 10.5775387790982709 28.6327538495249954
 -15.5022611458775117 39.8692747573272612 28.6327538495249954
 -18.3208309598975099 39.8692747573272612 28.6327538495249954
 62.0091697814501188 37.4283211689214923 28.6327538495249954
 74.6929032839163654 10.5775387790982709 28.6327538495249954
 53.5533757814501215 37.4283211689214923 28.6327538495249954
 50.7348059674301126 37.4283211689214923 28.6327538495249954
 -0.0000001083618602 13.0185655968439828 28.6327538495249954
 47.9161515954701187 37.4283211689214923 28.6327538495249954
 45.0975817814501099 37.4283211689214923 28.6327538495249954
 42.2790119674301152 37.4283211689214923 28.6327538495249954
 11.2743637056581409 13.0185655968439828 28.6327538495249954
 39.4603575954701142 37.4283211689214923 28.6327538495249954
 47.9161518392839980  8.1365851906925037 28.6327538495249954
 23.9580970862174638  0.8136511961352557 28.6327538495249954
