 H  O 
 1.0000000000000000
    84.5579400000000021    0.0000000000000000    0.0000000000000000
   -42.2789706095346958   73.2293399455724767    0.0000000000000000
     0.0000000000000000    0.0000000000000000   46.9039550000000034
 H   O  
 273 320
Cartesian
 32.4138486176145122 23.5961043759422537 28.1128704123049964
 50.7347635394624064 55.3288671719169614 28.1128704123049964
  8.4557937426410454 30.9190383704995000 28.1128704123049964
  2.8185695566610427 30.9190383704995000 28.1128704123049964
 -0.0000002573589589 30.9190383704995000 28.1128704123049964
 -18.3208733878652161 57.7698207603227232 28.1128704123049964
 54.9626184839886562 28.4780847820937346 28.1128704123049964
 49.3254788559486528 28.4780847820937346 28.1128704123049964
 46.5068244839886518 28.4780847820937346 28.1128704123049964
 32.4138908559486651 28.4780847820937346 28.1128704123049964
  4.2278542401747847 57.7698207603227232 28.1128704123049964
 -7.0465093300313377 28.4780847820937346 28.1128704123049964
  7.0465086121347857 57.7698207603227232 28.1128704123049964
 -12.6837335160113369 28.4780847820937346 28.1128704123049964
 -15.5023033300313369 28.4780847820937346 28.1128704123049964
 64.8276974113162794 26.0371311936879657 28.1128704123049964
 19.7301575566610410 30.9190383704995000 28.1128704123049964
 28.1859515566610455 30.9190383704995000 28.1128704123049964
 36.6417455566610357 30.9190383704995000 28.1128704123049964
 14.0929331675024070 55.3288671719169614 28.1128704123049964
 -8.4558365769648098 35.8010187766509844 28.1128704123049964
 54.9626607223228163 33.3600651882452155 28.1128704123049964
 46.5068667223228047 33.3600651882452155 28.1128704123049964
 40.8696425363428091 33.3600651882452155 28.1128704123049964
 38.0510727223228145 33.3600651882452155 28.1128704123049964
 -8.4557944605375948 55.3288671719169614 28.1128704123049964
 15.5022605363428152 33.3600651882452155 28.1128704123049964
 59.1905577832762830 26.0371311936879657 28.1128704123049964
 12.6836907223228135 33.3600651882452155 28.1128704123049964
 -5.6372246465175939 55.3288671719169614 28.1128704123049964
 -15.5023456496371885 33.3600651882452155 28.1128704123049964
 -18.3209154636571903 33.3600651882452155 28.1128704123049964
  5.6371391675024016 55.3288671719169614 28.1128704123049964
 62.0091275566610349 30.9190383704995000 28.1128704123049964
 50.7347637426410429 30.9190383704995000 28.1128704123049964
 45.0975395566610331 30.9190383704995000 28.1128704123049964
 -4.2278972776771910 33.3600651882452155 28.1128704123049964
 45.0975395972962758 26.0371311936879657 28.1128704123049964
 29.5952362401747777 57.7698207603227232 28.1128704123049964
 36.6417455972962784 26.0371311936879657 28.1128704123049964
 -7.0464670104254905 23.5961043759422537 28.1128704123049964
 -29.5952795214910651 62.6518011664742076 28.1128704123049964
 67.6463095449421274 21.1551507875364884 28.1128704123049964
 59.1905155449421230 21.1551507875364884 28.1128704123049964
 56.3719457309221283 21.1551507875364884 28.1128704123049964
 45.0975819169021293 21.1551507875364884 28.1128704123049964
 -15.5023458934510643 62.6518011664742076 28.1128704123049964
 47.9161936848071619 60.2107743487284921 28.1128704123049964
 -9.8651217074710615 62.6518011664742076 28.1128704123049964
 25.3673395449421299 21.1551507875364884 28.1128704123049964
 14.0929757309221344 21.1551507875364884 28.1128704123049964
 11.2744059169021327 21.1551507875364884 28.1128704123049964
  5.6371817309221299 21.1551507875364884 28.1128704123049964
  1.4092421065489333 62.6518011664742076 28.1128704123049964
  9.8650361065489385 62.6518011664742076 28.1128704123049964
 66.2370246582497515 18.7141971991307194 28.1128704123049964
 39.4603577309221265 21.1551507875364884 28.1128704123049964
 -5.6371822050048115 35.8010187766509844 28.1128704123049964
 45.0975393128471538 60.2107743487284921 28.1128704123049964
 22.5488116848071662 60.2107743487284921 28.1128704123049964
 32.4138906121347787 57.7698207603227232 28.1128704123049964
 25.3673817832762829 26.0371311936879657 28.1128704123049964
 22.5487274113162819 26.0371311936879657 28.1128704123049964
 19.7301575972962873 26.0371311936879657 28.1128704123049964
 16.9115877832762855 26.0371311936879657 28.1128704123049964
 14.0929334113162810 26.0371311936879657 28.1128704123049964
  8.4557937832762846 26.0371311936879657 28.1128704123049964
 25.3673814988271609 60.2107743487284921 28.1128704123049964
  5.6371394113162827 26.0371311936879657 28.1128704123049964
 -2.8186545886837178 26.0371311936879657 28.1128704123049964
 40.8696846121347903 57.7698207603227232 28.1128704123049964
 69.0556789895745169 23.5961043759422537 28.1128704123049964
 54.9626608035945097 23.5961043759422537 28.1128704123049964
 -2.8185703151928343 60.2107743487284921 28.1128704123049964
 38.0510728035945078 23.5961043759422537 28.1128704123049964
 16.9115874988271635 60.2107743487284921 28.1128704123049964
 -0.0000002167237204 26.0371311936879657 28.1128704123049964
 49.3254363738006276 52.8878403541712458 28.1128704123049964
 -0.0000425769648080 35.8010187766509844 28.1128704123049964
  2.8186117949951930 35.8010187766509844 28.1128704123049964
 -16.9115883792659005 45.5649063596139996 28.1128704123049964
 -25.3673823792659014 45.5649063596139996 28.1128704123049964
 54.9626183620817130 43.1239527712082307 28.1128704123049964
 46.5068243620817157 43.1239527712082307 28.1128704123049964
 38.0510303620817112 43.1239527712082307 28.1128704123049964
 32.4138907340417219 43.1239527712082307 28.1128704123049964
 23.9580967340417281 43.1239527712082307 28.1128704123049964
 -5.6372245652458988 45.5649063596139996 28.1128704123049964
 21.1394423620817271 43.1239527712082307 28.1128704123049964
 -7.0465094519382783 43.1239527712082307 28.1128704123049964
 -15.5023034519382783 43.1239527712082307 28.1128704123049964
 -23.9580974519382757 43.1239527712082307 28.1128704123049964
 59.1905576613693398 40.6829991828024689 28.1128704123049964
 50.7347636613693425 40.6829991828024689 28.1128704123049964
 45.0975394753893397 40.6829991828024689 28.1128704123049964
 36.6417454753893352 40.6829991828024689 28.1128704123049964
 -1.4092852659582757 43.1239527712082307 28.1128704123049964
 33.8231756613693406 40.6829991828024689 28.1128704123049964
 22.5487694871082525 50.4468867657654769 28.1128704123049964
 16.9115876207341032 45.5649063596139996 28.1128704123049964
 26.7766242284558658 48.0059331773597151 28.1128704123049964
 18.3208302284558755 48.0059331773597151 28.1128704123049964
 15.5022604144358738 48.0059331773597151 28.1128704123049964
  9.8650362284558710 48.0059331773597151 28.1128704123049964
  1.4092422284558699 48.0059331773597151 28.1128704123049964
 -4.2278973995841262 48.0059331773597151 28.1128704123049964
 -9.8651215855641290 48.0059331773597151 28.1128704123049964
  2.8185694347540982 45.5649063596139996 28.1128704123049964
 -12.6836913995841307 48.0059331773597151 28.1128704123049964
 -22.5487703269117468 50.4468867657654769 28.1128704123049964
 -14.0929763269117494 50.4468867657654769 28.1128704123049964
 47.9161938067141051 45.5649063596139996 28.1128704123049964
 45.0975394347540970 45.5649063596139996 28.1128704123049964
 -11.2744065128917477 50.4468867657654769 28.1128704123049964
 33.8231756207340979 45.5649063596139996 28.1128704123049964
 25.3673816207341005 45.5649063596139996 28.1128704123049964
 -28.1859945128917460 50.4468867657654769 28.1128704123049964
 63.4184548442297569 18.7141971991307194 28.1128704123049964
 28.1859514753893379 40.6829991828024689 28.1128704123049964
 -26.7767096261993700 52.8878403541712458 28.1128704123049964
 -12.6836913183124267 38.2419723650567462 28.1128704123049964
 -15.5022611323324266 38.2419723650567462 28.1128704123049964
 21.1394845597806302 52.8878403541712458 28.1128704123049964
 59.1905154230351869 35.8010187766509844 28.1128704123049964
 53.5533757949951976 35.8010187766509844 28.1128704123049964
 45.0975817949951860 35.8010187766509844 28.1128704123049964
 42.2789274230351850 35.8010187766509844 28.1128704123049964
 -7.0464671323324293 38.2419723650567462 28.1128704123049964
 36.6417877949951958 35.8010187766509844 28.1128704123049964
 26.7767087457606330 52.8878403541712458 28.1128704123049964
 32.4138483738006258 52.8878403541712458 28.1128704123049964
 25.3673394230351938 35.8010187766509844 28.1128704123049964
 16.9115454230351894 35.8010187766509844 28.1128704123049964
 11.2744057949951930 35.8010187766509844 28.1128704123049964
 38.0510725597806356 52.8878403541712458 28.1128704123049964
 43.6882967457606384 52.8878403541712458 28.1128704123049964
 31.0045636090151895 35.8010187766509844 28.1128704123049964
 47.9161514871082517 50.4468867657654769 28.1128704123049964
  4.2278966816875769 38.2419723650567462 28.1128704123049964
  9.8651208676675761 38.2419723650567462 28.1128704123049964
 16.9115876613693388 40.6829991828024689 28.1128704123049964
 14.0929332894093395 40.6829991828024689 28.1128704123049964
 11.2743634753893449 40.6829991828024689 28.1128704123049964
  2.8185694753893440 40.6829991828024689 28.1128704123049964
 -21.1394854402193673 52.8878403541712458 28.1128704123049964
 -8.4557943386306622 40.6829991828024689 28.1128704123049964
 -11.2744487105906597 40.6829991828024689 28.1128704123049964
  7.0464664957075716 38.2419723650567462 28.1128704123049964
 -19.7302427105906588 40.6829991828024689 28.1128704123049964
 49.3254364957075708 38.2419723650567462 28.1128704123049964
 46.5068666816875762 38.2419723650567462 28.1128704123049964
 38.0510726816875717 38.2419723650567462 28.1128704123049964
 32.4138484957075690 38.2419723650567462 28.1128704123049964
 29.5952786816875744 38.2419723650567462 28.1128704123049964
 23.9580544957075787 38.2419723650567462 28.1128704123049964
 12.6836906816875779 38.2419723650567462 28.1128704123049964
 54.9626606816875736 38.2419723650567462 28.1128704123049964
 57.7812306582497541 18.7141971991307194 28.1128704123049964
 35.2324182284558631 48.0059331773597151 28.1128704123049964
 54.9626608442297453 18.7141971991307194 28.1128704123049964
 31.0045215332232189 11.3912632045734714 28.1128704123049964
 33.8231759051832199 11.3912632045734714 28.1128704123049964
 36.6417457192032217 11.3912632045734714 28.1128704123049964
 39.4603155332232234 11.3912632045734714 28.1128704123049964
 45.0975397192032190 11.3912632045734714 28.1128704123049964
  2.8186120388090696  6.5092827984219914 28.1128704123049964
 53.5533337192032164 11.3912632045734714 28.1128704123049964
 71.8742489661366903  4.0683292100162243 28.1128704123049964
 59.1905579051832120 11.3912632045734714 28.1128704123049964
 66.2370247801566876  4.0683292100162243 28.1128704123049964
 67.6463519051832236 11.3912632045734714 28.1128704123049964
 63.4184549661366859  4.0683292100162243 28.1128704123049964
 76.1021459051832210 11.3912632045734714 28.1128704123049964
 54.9626609661366956  4.0683292100162243 28.1128704123049964
 -7.0464673761463033 67.5337083432857384 28.1128704123049964
 -35.2324615097721576 72.4156887494372228 28.1128704123049964
 -12.6836915621263024 67.5337083432857384 28.1128704123049964
 46.5068669661366982  4.0683292100162243 28.1128704123049964
 35.2324185941766927  4.0683292100162243 28.1128704123049964
 15.5023029778556030 13.8322167929792403 28.1128704123049964
 21.1394426058955993 13.8322167929792403 28.1128704123049964
 32.4138487801566981  4.0683292100162243 28.1128704123049964
 29.5952789661366928  4.0683292100162243 28.1128704123049964
 -26.7767097481063061 67.5337083432857384 28.1128704123049964
 11.2743632315754621 69.9747351610314468 28.1128704123049964
 52.1440487918755977 13.8322167929792403 28.1128704123049964
 -38.0510735621263052 67.5337083432857384 28.1128704123049964
 15.5022607801566892  4.0683292100162243 28.1128704123049964
  7.0464667801566900  4.0683292100162243 28.1128704123049964
 42.2789694175554729 69.9747351610314468 28.1128704123049964
 19.7301577192032234 11.3912632045734714 28.1128704123049964
 16.9115456668490722  6.5092827984219914 28.1128704123049964
 19.7302000388090732  6.5092827984219914 28.1128704123049964
  4.2278969255014500  8.9502363868277595 28.1128704123049964
 14.0929330455954638 69.9747351610314468 28.1128704123049964
  5.6371390455954664 69.9747351610314468 28.1128704123049964
 18.3209151114814510  8.9502363868277595 28.1128704123049964
 70.4649640388090717  6.5092827984219914 28.1128704123049964
 23.9580547395214474  8.9502363868277595 28.1128704123049964
 -0.0000005824445366 69.9747351610314468 28.1128704123049964
 32.4138487395214483  8.9502363868277595 28.1128704123049964
 19.7301572315754683 69.9747351610314468 28.1128704123049964
 56.3719458528290644  6.5092827984219914 28.1128704123049964
 -5.6372247684245327 69.9747351610314468 28.1128704123049964
 -14.0930187684245301 69.9747351610314468 28.1128704123049964
 22.5487270455954629 69.9747351610314468 28.1128704123049964
 -16.9115885824445336 69.9747351610314468 28.1128704123049964
 28.1859935511813049 65.0927547548799765 28.1128704123049964
 49.3254367395214430  8.9502363868277595 28.1128704123049964
 -19.7302429544045346 69.9747351610314468 28.1128704123049964
 57.7812307395214404  8.9502363868277595 28.1128704123049964
 -22.5488127684245363 69.9747351610314468 28.1128704123049964
 -33.8231765824445318 69.9747351610314468 28.1128704123049964
 45.0975820388090725  6.5092827984219914 28.1128704123049964
 28.1859512315754728 69.9747351610314468 28.1128704123049964
 36.6417880388090680  6.5092827984219914 28.1128704123049964
 21.1394844785089369 62.6518011664742076 28.1128704123049964
 28.1859940388090742  6.5092827984219914 28.1128704123049964
 25.3673396668490696  6.5092827984219914 28.1128704123049964
 -2.8186544667767790 11.3912632045734714 28.1128704123049964
 29.5952784378736951 67.5337083432857384 28.1128704123049964
 21.1394844378736906 67.5337083432857384 28.1128704123049964
 36.6417452315754701 69.9747351610314468 28.1128704123049964
 52.1440911114814512  8.9502363868277595 28.1128704123049964
  1.4092425941766900  4.0683292100162243 28.1128704123049964
 -32.4138493761463025 67.5337083432857384 28.1128704123049964
 39.4604001724349231  1.6273023922705114 28.1128704123049964
 -15.5023036957521541 72.4156887494372228 28.1128704123049964
 -12.6837338817321594 72.4156887494372228 28.1128704123049964
 47.9161941724349276  1.6273023922705114 28.1128704123049964
 -28.1859946347986892 65.0927547548799765 28.1128704123049964
 -1.4092855097721566 72.4156887494372228 28.1128704123049964
 33.8231759864549275  1.6273023922705114 28.1128704123049964
 46.5068664785089325 62.6518011664742076 28.1128704123049964
 -7.0465515277302488 18.7141971991307194 28.1128704123049964
 -4.2278971557702505 18.7141971991307194 28.1128704123049964
  1.4092843042478451 72.4156887494372228 28.1128704123049964
 28.1859518004749177  1.6273023922705114 28.1128704123049964
 25.3673819864549230  1.6273023922705114 28.1128704123049964
 40.8696422925289298 62.6518011664742076 28.1128704123049964
 19.7301578004749203  1.6273023922705114 28.1128704123049964
 12.6836908442297531 18.7141971991307194 28.1128704123049964
 32.4138482925289324 62.6518011664742076 28.1128704123049964
 21.1394848442297523 18.7141971991307194 28.1128704123049964
 23.9580546582497540 18.7141971991307194 28.1128704123049964
 29.5952788442297496 18.7141971991307194 28.1128704123049964
 32.4138486582497549 18.7141971991307194 28.1128704123049964
 35.2324184722697566 18.7141971991307194 28.1128704123049964
 11.2743638004749194  1.6273023922705114 28.1128704123049964
 26.7766241065489261 62.6518011664742076 28.1128704123049964
 46.5068668442297550 18.7141971991307194 28.1128704123049964
 52.1440064722697443 18.7141971991307194 28.1128704123049964
 53.5533338004749169  1.6273023922705114 28.1128704123049964
 64.8277820505279863 16.2731703813850075 28.1128704123049964
 78.9207580388090690  6.5092827984219914 28.1128704123049964
 -14.0929764488186855 65.0927547548799765 28.1128704123049964
 -5.6371824488186855 65.0927547548799765 28.1128704123049964
 -2.8186126347986837 65.0927547548799765 28.1128704123049964
 76.1021459864549144  1.6273023922705114 28.1128704123049964
 -21.1395278817321568 72.4156887494372228 28.1128704123049964
 47.9161940505279844 16.2731703813850075 28.1128704123049964
 16.9115878645479825 16.2731703813850075 28.1128704123049964
 14.0930180505279825 16.2731703813850075 28.1128704123049964
 33.8231758645479843 16.2731703813850075 28.1128704123049964
 67.6463519864549170  1.6273023922705114 28.1128704123049964
 19.7301995511813146 65.0927547548799765 28.1128704123049964
 -26.7766675097721567 72.4156887494372228 28.1128704123049964
 59.1905578645479835 16.2731703813850075 28.1128704123049964
 62.0091278004749142  1.6273023922705114 28.1128704123049964
 81.7393701724349171  1.6273023922705114 28.1128704123049964
 -18.3208735097721558 72.4156887494372228 28.1128704123049964
 -22.5487704488186900 65.0927547548799765 28.1128704123049964
 25.3673391792213039 65.0927547548799765 28.1128704123049964
  8.4558358455231772 52.0741891580359919 28.6327538495249954
 -5.6371823404568273 52.0741891580359919 28.6327538495249954
 28.1859512180303895 71.6020375533019688 28.6327538495249954
 32.4138484008907994 49.6332355696302230 28.6327538495249954
 40.8696424008908039 49.6332355696302230 28.6327538495249954
 25.3673814040103807 71.6020375533019688 28.6327538495249954
 50.7347636071890307 47.1922087518845075 28.6327538495249954
 22.5488115899903860 71.6020375533019688 28.6327538495249954
 47.9161937931690360 47.1922087518845075 28.6327538495249954
  2.8186116595431669 52.0741891580359919 28.6327538495249954
 -2.8186125264368322 52.0741891580359919 28.6327538495249954
 35.2325027728508005 49.6332355696302230 28.6327538495249954
  9.8651207728507995 49.6332355696302230 28.6327538495249954
 23.9581387962886225 69.1610107355562462 28.6327538495249954
  7.0464664008907913 49.6332355696302230 28.6327538495249954
 18.3209147728507951 49.6332355696302230 28.6327538495249954
 52.1440907728507952 49.6332355696302230 28.6327538495249954
 46.5068665868708067 49.6332355696302230 28.6327538495249954
  4.2278965868707896 49.6332355696302230 28.6327538495249954
 -7.0464672271492059 49.6332355696302230 28.6327538495249954
 -5.6372247819696195 71.6020375533019688 28.6327538495249954
 38.0510725868707951 49.6332355696302230 28.6327538495249954
 -25.3673401544768282 52.0741891580359919 28.6327538495249954
  2.8185692180303707 71.6020375533019688 28.6327538495249954
 23.9580544008907985 49.6332355696302230 28.6327538495249954
 -23.9580552271492060 49.6332355696302230 28.6327538495249954
 -16.9115461544768308 52.0741891580359919 28.6327538495249954
 32.4139327962886199 69.1610107355562462 28.6327538495249954
 -11.2744065264368292 52.0741891580359919 28.6327538495249954
 43.6882967728507978 49.6332355696302230 28.6327538495249954
 29.5952785868707942 49.6332355696302230 28.6327538495249954
 -8.4557521544768282 52.0741891580359919 28.6327538495249954
 -39.4604007819696179 71.6020375533019688 28.6327538495249954
 53.5534179791490246 47.1922087518845075 28.6327538495249954
 26.7767087728507853 49.6332355696302230 28.6327538495249954
 -31.0046067819696169 71.6020375533019688 28.6327538495249954
 -21.1394854537644470 54.5151427464417537 28.6327538495249954
 14.0929754735631594 52.0741891580359919 28.6327538495249954
 39.4603997931690245 47.1922087518845075 28.6327538495249954
  1.4092844126096999 59.3971231525932382 28.6327538495249954
 -26.7767097210161431 64.2791035587447084 28.6327538495249954
 -7.0465095873903012 59.3971231525932382 28.6327538495249954
 -12.6836492154302967 59.3971231525932382 28.6327538495249954
 -15.5023035873902977 59.3971231525932382 28.6327538495249954
 -26.7766674014102968 59.3971231525932382 28.6327538495249954
 50.7347635259173302 56.9561695641874692 28.6327538495249954
 47.9161937118973214 56.9561695641874692 28.6327538495249954
 45.0975393399373274 56.9561695641874692 28.6327538495249954
 36.6417453399373301 56.9561695641874692 28.6327538495249954
 -18.3209157210161457 64.2791035587447084 28.6327538495249954
 33.8231755259173212 56.9561695641874692 28.6327538495249954
 -1.4093277210161486 64.2791035587447084 28.6327538495249954
 12.6836904649638509 64.2791035587447084 28.6327538495249954
 15.5022602789838597 64.2791035587447084 28.6327538495249954
 23.9580542789838589 64.2791035587447084 28.6327538495249954
  4.2279387845697078 59.3971231525932382 28.6327538495249954
 28.1859513399373292 56.9561695641874692 28.6327538495249954
  7.0465085985897025 59.3971231525932382 28.6327538495249954
 12.6837327845697061 59.3971231525932382 28.6327538495249954
 11.2744478572420874 61.8380767409990000 28.6327538495249954
 25.3673814852820882 61.8380767409990000 28.6327538495249954
 28.1860358572420893 61.8380767409990000 28.6327538495249954
 -0.0000005147179177 61.8380767409990000 28.6327538495249954
 -2.8185703287379194 61.8380767409990000 28.6327538495249954
 -5.6371401427579215 61.8380767409990000 28.6327538495249954
 36.6418298572420866 61.8380767409990000 28.6327538495249954
 -16.9115885147179164 61.8380767409990000 28.6327538495249954
 -19.7301583287379145 61.8380767409990000 28.6327538495249954
 42.2789694852820901 61.8380767409990000 28.6327538495249954
 45.0976238572420840 61.8380767409990000 28.6327538495249954
 -33.8231765147179146 61.8380767409990000 28.6327538495249954
 49.3254785985897115 59.3971231525932382 28.6327538495249954
 43.6882544126097088 59.3971231525932382 28.6327538495249954
 26.7766664126097069 59.3971231525932382 28.6327538495249954
 -35.2325037210161440 64.2791035587447084 28.6327538495249954
 -32.4138493490561430 64.2791035587447084 28.6327538495249954
  9.8650784126096909 59.3971231525932382 28.6327538495249954
  9.8651206103086064 69.1610107355562462 28.6327538495249954
 25.3673815259173274 56.9561695641874692 28.6327538495249954
 43.6882966509438617 64.2791035587447084 28.6327538495249954
 31.0045633516562411 66.7200571471504844 28.6327538495249954
 -15.5022612677844460 54.5151427464417537 28.6327538495249954
 -18.3208310818044460 54.5151427464417537 28.6327538495249954
 -23.9580552677844487 54.5151427464417537 28.6327538495249954
 -29.5952794537644479 54.5151427464417537 28.6327538495249954
 33.8232177236162386 66.7200571471504844 28.6327538495249954
 39.4603573516562420 66.7200571471504844 28.6327538495249954
 -35.2324192037113804 69.1610107355562462 28.6327538495249954
 45.0975816595431809 52.0741891580359919 28.6327538495249954
 -23.9580553896913813 69.1610107355562462 28.6327538495249954
 33.8232178455231747 52.0741891580359919 28.6327538495249954
 -15.5022613896913821 69.1610107355562462 28.6327538495249954
 -9.8650372037113900 69.1610107355562462 28.6327538495249954
 -1.4092432037113782 69.1610107355562462 28.6327538495249954
 25.3674238455231631 52.0741891580359919 28.6327538495249954
 16.9116298455231728 52.0741891580359919 28.6327538495249954
  1.4093266103086164 69.1610107355562462 28.6327538495249954
 22.5487693516562366 66.7200571471504844 28.6327538495249954
 19.7301573399373318 56.9561695641874692 28.6327538495249954
 16.9116297236162261 66.7200571471504844 28.6327538495249954
 11.2744055376362251 66.7200571471504844 28.6327538495249954
  8.4557935259173256 56.9561695641874692 28.6327538495249954
 -31.0045644623637671 66.7200571471504844 28.6327538495249954
  2.8185693399373224 56.9561695641874692 28.6327538495249954
 -19.7302006483437680 66.7200571471504844 28.6327538495249954
 -0.0000004740826793 56.9561695641874692 28.6327538495249954
 -16.9115462763837670 66.7200571471504844 28.6327538495249954
 -14.0930186600626755 56.9561695641874692 28.6327538495249954
 -8.4557522763837714 66.7200571471504844 28.6327538495249954
 -22.5488126600626764 56.9561695641874692 28.6327538495249954
 -28.1859522881026763 56.9561695641874692 28.6327538495249954
  0.0000417236162395 66.7200571471504844 28.6327538495249954
 46.5068665462355568 54.5151427464417537 28.6327538495249954
  2.8186115376362340 66.7200571471504844 28.6327538495249954
 23.9581389181955480 54.5151427464417537 28.6327538495249954
  8.4558357236162376 66.7200571471504844 28.6327538495249954
  9.8651207322155532 54.5151427464417537 28.6327538495249954
 -4.2278974537644496 54.5151427464417537 28.6327538495249954
 14.0929753516562410 66.7200571471504844 28.6327538495249954
  1.4092849002374601  0.8136511961352557 28.6327538495249954
 52.1440908947577384 34.9873675805157234 28.6327538495249954
 22.5488117931690120 47.1922087518845075 28.6327538495249954
 38.0511151502905278 15.4595191852497500 28.6327538495249954
 32.4138909643105251 15.4595191852497500 28.6327538495249954
 26.7766667783305188 15.4595191852497500 28.6327538495249954
 21.1395271502905153 15.4595191852497500 28.6327538495249954
 18.3208727783305179 15.4595191852497500 28.6327538495249954
 12.6837331502905215 15.4595191852497500 28.6327538495249954
 -1.4092850356894804 15.4595191852497500 28.6327538495249954
 -4.2278548497094786 15.4595191852497500 28.6327538495249954
 -7.0465092216694787 15.4595191852497500 28.6327538495249954
 64.8277820776181386 13.0185655968439828 28.6327538495249954
 62.0091277056581518 13.0185655968439828 28.6327538495249954
 56.3719880776181483 13.0185655968439828 28.6327538495249954
 47.9161940776181368 13.0185655968439828 28.6327538495249954
 45.0975397056581500 13.0185655968439828 28.6327538495249954
 33.8231758916381438 13.0185655968439828 28.6327538495249954
 25.3673818916381357 13.0185655968439828 28.6327538495249954
 11.2743637056581409 13.0185655968439828 28.6327538495249954
  2.8185697056581414 13.0185655968439828 28.6327538495249954
 -5.6372242943418591 13.0185655968439828 28.6327538495249954
 77.5114730979363742 10.5775387790982709 28.6327538495249954
 63.4184549119563812 10.5775387790982709 28.6327538495249954
 46.5069091502905181 15.4595191852497500 28.6327538495249954
 54.9626609119563767 10.5775387790982709 28.6327538495249954
 52.1440487783305286 15.4595191852497500 28.6327538495249954
 66.2370669643105288 15.4595191852497500 28.6327538495249954
 60.5998850166646719 20.3414995914012344 28.6327538495249954
 43.6882970166646629 20.3414995914012344 28.6327538495249954
 40.8696426447046761 20.3414995914012344 28.6327538495249954
 21.1394848306846654 20.3414995914012344 28.6327538495249954
 18.3209150166646637 20.3414995914012344 28.6327538495249954
  9.8651210166646699 20.3414995914012344 28.6327538495249954
 -1.4093273552953294 20.3414995914012344 28.6327538495249954
 67.6463518510029047 17.9004727736555189 28.6327538495249954
 62.0092122229629013 17.9004727736555189 28.6327538495249954
 56.3719880369828985 17.9004727736555189 28.6327538495249954
 47.9161940369829011 17.9004727736555189 28.6327538495249954
 45.0976242229628923 17.9004727736555189 28.6327538495249954
 36.6418302229629020 17.9004727736555189 28.6327538495249954
 19.7302422229628966 17.9004727736555189 28.6327538495249954
 11.2744482229629011 17.9004727736555189 28.6327538495249954
  8.4557938510029000 17.9004727736555189 28.6327538495249954
 -0.0000001489970986 17.9004727736555189 28.6327538495249954
 -2.8185699630171004 17.9004727736555189 28.6327538495249954
 -8.4557941489970982 17.9004727736555189 28.6327538495249954
 74.6928609643105261 15.4595191852497500 28.6327538495249954
 69.0556367783305234 15.4595191852497500 28.6327538495249954
 63.4184971502905270 15.4595191852497500 28.6327538495249954
 63.4184548306846807 20.3414995914012344 28.6327538495249954
 46.5068669119563793 10.5775387790982709 28.6327538495249954
 12.6836909119563703 10.5775387790982709 28.6327538495249954
 52.1440911385716035  5.6956316022867357 28.6327538495249954
 49.3254367666116167  5.6956316022867357 28.6327538495249954
 40.8696427666115980  5.6956316022867357 28.6327538495249954
 32.4138487666116077  5.6956316022867357 28.6327538495249954
 21.1394849525916122  5.6956316022867357 28.6327538495249954
 12.6836909525916113  5.6956316022867357 28.6327538495249954
 -1.4093272333883895  5.6956316022867357 28.6327538495249954
 50.7347639729098461  3.2546047845410229 28.6327538495249954
 -0.0000000270901599  3.2546047845410229 28.6327538495249954
 71.8742912721974676  0.8136511961352557 28.6327538495249954
 69.0556369002374737  0.8136511961352557 28.6327538495249954
 57.7812730862174604  0.8136511961352557 28.6327538495249954
 52.1440489002374647  0.8136511961352557 28.6327538495249954
 49.3254790862174488  0.8136511961352557 28.6327538495249954
 43.6882549002374461  0.8136511961352557 28.6327538495249954
 35.2324609002374558  0.8136511961352557 28.6327538495249954
 29.5953212721974559  0.8136511961352557 28.6327538495249954
 23.9580970862174638  0.8136511961352557 28.6327538495249954
 15.5023030862174611  0.8136511961352557 28.6327538495249954
  7.0465090862174584  0.8136511961352557 28.6327538495249954
  4.2279392721974602  0.8136511961352557 28.6327538495249954
 60.5998851385716151  5.6956316022867357 28.6327538495249954
 15.5023452839163713 10.5775387790982709 28.6327538495249954
 74.6928187666116230  5.6956316022867357 28.6327538495249954
  0.0000422112439907  8.1365851906925037 28.6327538495249954
  9.8651210979363722 10.5775387790982709 28.6327538495249954
  7.0465512839163686 10.5775387790982709 28.6327538495249954
  4.2278969119563712 10.5775387790982709 28.6327538495249954
  1.4093270979363695 10.5775387790982709 28.6327538495249954
 -4.2278970880436288 10.5775387790982709 28.6327538495249954
 78.9207580252639929  8.1365851906925037 28.6327538495249954
 76.1021882112439840  8.1365851906925037 28.6327538495249954
 73.2835338392839901  8.1365851906925037 28.6327538495249954
 70.4649640252639955  8.1365851906925037 28.6327538495249954
 64.8277398392839928  8.1365851906925037 28.6327538495249954
 62.0091700252639910  8.1365851906925037 28.6327538495249954
 53.5533760252639937  8.1365851906925037 28.6327538495249954
 47.9161518392839980  8.1365851906925037 28.6327538495249954
 45.0975820252639821  8.1365851906925037 28.6327538495249954
 42.2790122112439946  8.1365851906925037 28.6327538495249954
 39.4603578392839793  8.1365851906925037 28.6327538495249954
 36.6417880252639918  8.1365851906925037 28.6327538495249954
 33.8232182112439972  8.1365851906925037 28.6327538495249954
 28.1859940252639873  8.1365851906925037 28.6327538495249954
 14.0929758392839890  8.1365851906925037 28.6327538495249954
  8.4558362112439873  8.1365851906925037 28.6327538495249954
 -2.8186121607160102  8.1365851906925037 28.6327538495249954
 31.0046057931690235 47.1922087518845075 28.6327538495249954
 71.8742488306846781 20.3414995914012344 28.6327538495249954
 -2.8186122826229494 22.7824531798069998 28.6327538495249954
  7.0465510401024849 39.8692747573272612 28.6327538495249954
 -1.4092429598975091 39.8692747573272612 28.6327538495249954
 -4.2278973318575099 39.8692747573272612 28.6327538495249954
 -9.8650369598975125 39.8692747573272612 28.6327538495249954
 56.3719455954701161 37.4283211689214923 28.6327538495249954
 47.9161515954701187 37.4283211689214923 28.6327538495249954
 42.2790119674301152 37.4283211689214923 28.6327538495249954
 28.1859937814501045 37.4283211689214923 28.6327538495249954
 14.0929755954701115 37.4283211689214923 28.6327538495249954
 -2.8186124045298877 37.4283211689214923 28.6327538495249954
 -16.9115460325698876 37.4283211689214923 28.6327538495249954
 63.4184547087777446 34.9873675805157234 28.6327538495249954
 36.6417452180303869 71.6020375533019688 28.6327538495249954
 29.5952787087777267 34.9873675805157234 28.6327538495249954
 26.7767088947577392 34.9873675805157234 28.6327538495249954
 21.1394847087777364 34.9873675805157234 28.6327538495249954
  9.8651208947577302 34.9873675805157234 28.6327538495249954
  7.0464665227977319 34.9873675805157234 28.6327538495249954
 -1.4093274772022688 34.9873675805157234 28.6327538495249954
 -4.2278972912222672 34.9873675805157234 28.6327538495249954
 -12.6836912912222672 34.9873675805157234 28.6327538495249954
 18.3209148541224920 39.8692747573272612 28.6327538495249954
 -18.3209154772022664 34.9873675805157234 28.6327538495249954
 23.9581390401024947 39.8692747573272612 28.6327538495249954
 35.2325028541224938 39.8692747573272612 28.6327538495249954
  5.6372237931690181 47.1922087518845075 28.6327538495249954
 -8.4557943928109793 47.1922087518845075 28.6327538495249954
 -16.9115883928109767 47.1922087518845075 28.6327538495249954
 -19.7301582068309784 47.1922087518845075 28.6327538495249954
 -22.5487280208509766 47.1922087518845075 28.6327538495249954
 49.3254787204966547 44.7512551634787386 28.6327538495249954
 43.6882545345166520 44.7512551634787386 28.6327538495249954
 35.2324605345166475 44.7512551634787386 28.6327538495249954
 26.7766665345166501 44.7512551634787386 28.6327538495249954
 15.5023027204966439 44.7512551634787386 28.6327538495249954
 12.6837329064766493 44.7512551634787386 28.6327538495249954
  9.8650785345166412 44.7512551634787386 28.6327538495249954
 -1.4092852795033535 44.7512551634787386 28.6327538495249954
 -9.8650792795033553 44.7512551634787386 28.6327538495249954
 -12.6836490935233588 44.7512551634787386 28.6327538495249954
 -21.1394430935233544 44.7512551634787386 28.6327538495249954
 56.3719878338042619 42.3103015750729767 28.6327538495249954
 47.9161938338042646 42.3103015750729767 28.6327538495249954
 42.2789696478242618 42.3103015750729767 28.6327538495249954
  2.8185694618442589 42.3103015750729767 28.6327538495249954
 60.5998848541225001 39.8692747573272612 28.6327538495249954
 26.7767088541224823 39.8692747573272612 28.6327538495249954
 -11.2744062826229499 22.7824531798069998 28.6327538495249954
 64.8277819150759740 32.5463407627700150 28.6327538495249954
 56.3719879150759695 32.5463407627700150 28.6327538495249954
 -7.0464670239705693 25.2234067682127652 28.6327538495249954
 -9.8650368379905675 25.2234067682127652 28.6327538495249954
 -12.6836912099505668 25.2234067682127652 28.6327538495249954
 70.4649639033570594 22.7824531798069998 28.6327538495249954
 62.0091699033570620 22.7824531798069998 28.6327538495249954
 59.1906000893370532 22.7824531798069998 28.6327538495249954
 53.5533759033570504 22.7824531798069998 28.6327538495249954
 50.7348060893370558 22.7824531798069998 28.6327538495249954
 47.9161517173770548 22.7824531798069998 28.6327538495249954
 36.6417879033570415 22.7824531798069998 28.6327538495249954
 28.1859939033570512 22.7824531798069998 28.6327538495249954
 25.3674240893370566 22.7824531798069998 28.6327538495249954
 22.5487697173770485 22.7824531798069998 28.6327538495249954
 19.7301999033570468 22.7824531798069998 28.6327538495249954
 16.9116300893370450 22.7824531798069998 28.6327538495249954
 14.0929757173770476 22.7824531798069998 28.6327538495249954
 11.2744059033570529 22.7824531798069998 28.6327538495249954
  8.4558360893370512 22.7824531798069998 28.6327538495249954
  5.6371817173770493 22.7824531798069998 28.6327538495249954
  2.8186119033570516 22.7824531798069998 28.6327538495249954
  0.0000420893370479 22.7824531798069998 28.6327538495249954
 -4.2278972099505676 25.2234067682127652 28.6327538495249954
 62.0092121010559580 32.5463407627700150 28.6327538495249954
  4.2278967900494315 25.2234067682127652 28.6327538495249954
 40.8697271620094256 25.2234067682127652 28.6327538495249954
 33.8231757290959649 32.5463407627700150 28.6327538495249954
 -8.4557942709040379 32.5463407627700150 28.6327538495249954
 -11.2743640849240396 32.5463407627700150 28.6327538495249954
 66.2370668424035927 30.1053871743642461 28.6327538495249954
 57.7812728424035953 30.1053871743642461 28.6327538495249954
 43.6882546564235881 30.1053871743642461 28.6327538495249954
 38.0511150283835775 30.1053871743642461 28.6327538495249954
 23.9580968424035810 30.1053871743642461 28.6327538495249954
 15.5023028424035783 30.1053871743642461 28.6327538495249954
 12.6837330283835765 30.1053871743642461 28.6327538495249954
  4.2279390283835818 30.1053871743642461 28.6327538495249954
 -1.4092851575964171 30.1053871743642461 28.6327538495249954
 67.6463517697312113 27.6644335859584807 28.6327538495249954
 53.5533335837512112 27.6644335859584807 28.6327538495249954
 31.0046059557112059 27.6644335859584807 28.6327538495249954
 -2.8185700442888009 27.6644335859584807 28.6327538495249954
 -11.2743640442888005 27.6644335859584807 28.6327538495249954
 66.2371091620094319 25.2234067682127652 28.6327538495249954
 57.7813151620094345 25.2234067682127652 28.6327538495249954
 52.1440909760294318 25.2234067682127652 28.6327538495249954
 46.5068667900494361 25.2234067682127652 28.6327538495249954
 32.4139331620094353 25.2234067682127652 28.6327538495249954
 39.4603995899903808 71.6020375533019688 28.6327538495249954
