 H  O 
 1.0000000000000000
    84.5579400000000021    0.0000000000000000    0.0000000000000000
   -42.2789706095346958   73.2293399455724767    0.0000000000000000
     0.0000000000000000    0.0000000000000000   46.9039550000000034
 H   O  
 210 453
Cartesian
 -0.0000000135450799  1.6273023922705114 28.1128704123049964
 40.8696847340417122 43.1239527712082307 28.1128704123049964
 56.3719457309221283 21.1551507875364884 28.1128704123049964
 49.3254786121347877 57.7698207603227232 28.1128704123049964
 -12.6836911964054888 23.5961043759422537 28.1128704123049964
 -1.4093273823854895 23.5961043759422537 28.1128704123049964
 32.4138906121347787 57.7698207603227232 28.1128704123049964
  7.0464666176145112 23.5961043759422537 28.1128704123049964
  9.8650784261547866 57.7698207603227232 28.1128704123049964
 40.8696426176145025 23.5961043759422537 28.1128704123049964
 43.6882969895745106 23.5961043759422537 28.1128704123049964
 49.3254366176144998 23.5961043759422537 28.1128704123049964
 47.9161091675023982 55.3288671719169614 28.1128704123049964
 45.0975393534824036 55.3288671719169614 28.1128704123049964
 -2.8186545886837178 26.0371311936879657 28.1128704123049964
 36.6417879169021319 21.1551507875364884 28.1128704123049964
 42.2789695394624090 55.3288671719169614 28.1128704123049964
 36.6417453534824062 55.3288671719169614 28.1128704123049964
 25.3673817832762829 26.0371311936879657 28.1128704123049964
 22.5487271675023955 55.3288671719169614 28.1128704123049964
 45.0975395972962758 26.0371311936879657 28.1128704123049964
 56.3719034113162749 26.0371311936879657 28.1128704123049964
  8.4557935394624035 55.3288671719169614 28.1128704123049964
 64.8276974113162794 26.0371311936879657 28.1128704123049964
 -0.0000004605375943 55.3288671719169614 28.1128704123049964
 -2.8186548324975988 55.3288671719169614 28.1128704123049964
 -7.0465093300313377 28.4780847820937346 28.1128704123049964
 -8.4557944605375948 55.3288671719169614 28.1128704123049964
 -22.5488126465175966 55.3288671719169614 28.1128704123049964
 21.1394424839886597 28.4780847820937346 28.1128704123049964
 -28.1860368324975958 55.3288671719169614 28.1128704123049964
 22.5487274113162819 26.0371311936879657 28.1128704123049964
 46.5068665597806330 52.8878403541712458 28.1128704123049964
 33.8231335449421309 21.1551507875364884 28.1128704123049964
 31.0045637309221327 21.1551507875364884 28.1128704123049964
 16.9115878645479825 16.2731703813850075 28.1128704123049964
 19.7301576785679771 16.2731703813850075 28.1128704123049964
 21.1394844785089369 62.6518011664742076 28.1128704123049964
 45.0975396785679763 16.2731703813850075 28.1128704123049964
 12.6836904785089395 62.6518011664742076 28.1128704123049964
 64.8277820505279863 16.2731703813850075 28.1128704123049964
 67.6463518645479809 16.2731703813850075 28.1128704123049964
 -7.0465518934510678 62.6518011664742076 28.1128704123049964
 -7.0465515277302488 18.7141971991307194 28.1128704123049964
 -18.3209157074710660 62.6518011664742076 28.1128704123049964
  7.0464666582497495 18.7141971991307194 28.1128704123049964
 -21.1394855214910677 62.6518011664742076 28.1128704123049964
  9.8650364722697521 18.7141971991307194 28.1128704123049964
 15.5022606582497549 18.7141971991307194 28.1128704123049964
 -22.5488126871528358 60.2107743487284921 28.1128704123049964
 18.3208304722697477 18.7141971991307194 28.1128704123049964
 42.2789694988271592 60.2107743487284921 28.1128704123049964
 32.4138486582497549 18.7141971991307194 28.1128704123049964
 33.8231754988271618 60.2107743487284921 28.1128704123049964
 52.1440064722697443 18.7141971991307194 28.1128704123049964
 31.0046056848071565 60.2107743487284921 28.1128704123049964
 25.3673814988271609 60.2107743487284921 28.1128704123049964
  8.4557934988271644 60.2107743487284921 28.1128704123049964
 71.8742488442297542 18.7141971991307194 28.1128704123049964
  5.6372236848071626 60.2107743487284921 28.1128704123049964
 -2.8186122690778692 21.1551507875364884 28.1128704123049964
 -5.6372246871528393 60.2107743487284921 28.1128704123049964
 14.0929757309221344 21.1551507875364884 28.1128704123049964
 -8.4557945011728339 60.2107743487284921 28.1128704123049964
 -19.7301583151928384 60.2107743487284921 28.1128704123049964
 23.9580546582497540 18.7141971991307194 28.1128704123049964
 32.4138482925289324 62.6518011664742076 28.1128704123049964
 43.6882967457606384 52.8878403541712458 28.1128704123049964
 40.8696423738006303 52.8878403541712458 28.1128704123049964
 50.7347214230351895 35.8010187766509844 28.1128704123049964
 26.7766242284558658 48.0059331773597151 28.1128704123049964
 38.0510301182678390 72.4156887494372228 28.1128704123049964
 -18.3209155042924259 38.2419723650567462 28.1128704123049964
 -9.8651215042924267 38.2419723650567462 28.1128704123049964
  9.8650362284558710 48.0059331773597151 28.1128704123049964
 -4.2278973183124275 38.2419723650567462 28.1128704123049964
  1.4093268676675752 38.2419723650567462 28.1128704123049964
 15.5022604957075725 38.2419723650567462 28.1128704123049964
 21.1394846816875770 38.2419723650567462 28.1128704123049964
 -9.8651215855641290 48.0059331773597151 28.1128704123049964
 32.4138484957075690 38.2419723650567462 28.1128704123049964
 -15.5023457715441282 48.0059331773597151 28.1128704123049964
 57.7812304957075682 38.2419723650567462 28.1128704123049964
 40.8696424144358730 48.0059331773597151 28.1128704123049964
 -22.5488125246106605 40.6829991828024689 28.1128704123049964
 11.2743634753893449 40.6829991828024689 28.1128704123049964
 28.1859514753893379 40.6829991828024689 28.1128704123049964
 42.2789696613693309 40.6829991828024689 28.1128704123049964
 53.5533334753893371 40.6829991828024689 28.1128704123049964
 -12.6837336379182783 43.1239527712082307 28.1128704123049964
 -22.5488125652458997 45.5649063596139996 28.1128704123049964
 -7.0465094519382783 43.1239527712082307 28.1128704123049964
 -1.4092852659582757 43.1239527712082307 28.1128704123049964
  4.2278543620817208 43.1239527712082307 28.1128704123049964
  9.8650785480617262 43.1239527712082307 28.1128704123049964
 12.6836483620817209 43.1239527712082307 28.1128704123049964
 49.3254787340417238 43.1239527712082307 28.1128704123049964
 18.3208725480617254 43.1239527712082307 28.1128704123049964
 43.6882545480617210 43.1239527712082307 28.1128704123049964
 56.3719878067141025 45.5649063596139996 28.1128704123049964
 60.5998426699686590 28.4780847820937346 28.1128704123049964
 31.0045636090151895 35.8010187766509844 28.1128704123049964
 -16.9116306988717469 50.4468867657654769 28.1128704123049964
 -11.2743640713789581 30.9190383704995000 28.1128704123049964
 32.4138483738006258 52.8878403541712458 28.1128704123049964
 -8.4557942573589582 30.9190383704995000 28.1128704123049964
 -5.6372244433389582 30.9190383704995000 28.1128704123049964
  5.6372239286210437 30.9190383704995000 28.1128704123049964
 21.1394845597806302 52.8878403541712458 28.1128704123049964
 11.2743635566610401 30.9190383704995000 28.1128704123049964
 18.3209147457606356 52.8878403541712458 28.1128704123049964
 12.6836905597806329 52.8878403541712458 28.1128704123049964
 28.1859515566610455 30.9190383704995000 28.1128704123049964
 36.6417455566610357 30.9190383704995000 28.1128704123049964
 47.9161939286210341 30.9190383704995000 28.1128704123049964
  4.2278965597806355 52.8878403541712458 28.1128704123049964
 -1.4093276261993704 52.8878403541712458 28.1128704123049964
  8.4557514230351885 35.8010187766509844 28.1128704123049964
 -15.5023456496371885 33.3600651882452155 28.1128704123049964
  1.4092423503628120 33.3600651882452155 28.1128704123049964
 53.5533756730882544 50.4468867657654769 28.1128704123049964
 18.3208303503628116 33.3600651882452155 28.1128704123049964
 28.1859936730882552 50.4468867657654769 28.1128704123049964
 32.4138485363428117 33.3600651882452155 28.1128704123049964
 25.3673393011282471 50.4468867657654769 28.1128704123049964
 35.2324183503628063 33.3600651882452155 28.1128704123049964
 22.5487694871082525 50.4468867657654769 28.1128704123049964
 40.8696425363428091 33.3600651882452155 28.1128704123049964
 -0.0000426988717480 50.4468867657654769 28.1128704123049964
 54.9626607223228163 33.3600651882452155 28.1128704123049964
 -2.8186125128917427 50.4468867657654769 28.1128704123049964
 60.5998003503628055 33.3600651882452155 28.1128704123049964
 -14.0929763269117494 50.4468867657654769 28.1128704123049964
 -12.6836914402193699 52.8878403541712458 28.1128704123049964
  5.6372240505279780 16.2731703813850075 28.1128704123049964
 -31.0046066871528367 60.2107743487284921 28.1128704123049964
  2.8185696785679806 16.2731703813850075 28.1128704123049964
 71.8742489661366903  4.0683292100162243 28.1128704123049964
 -0.0000423331509293  6.5092827984219914 28.1128704123049964
  5.6371818528290705  6.5092827984219914 28.1128704123049964
 43.6882966238536952 67.5337083432857384 28.1128704123049964
 19.7302000388090732  6.5092827984219914 28.1128704123049964
 25.3673396668490696  6.5092827984219914 28.1128704123049964
 35.2325026238536978 67.5337083432857384 28.1128704123049964
 59.1905156668490591  6.5092827984219914 28.1128704123049964
 -12.6836915621263024 67.5337083432857384 28.1128704123049964
 -15.5022613761463042 67.5337083432857384 28.1128704123049964
 -23.9580553761463051 67.5337083432857384 28.1128704123049964
 32.4138487395214483  8.9502363868277595 28.1128704123049964
 39.4603573652013111 65.0927547548799765 28.1128704123049964
 49.3254367395214430  8.9502363868277595 28.1128704123049964
 36.6417875511813165 65.0927547548799765 28.1128704123049964
 54.9626609255014458  8.9502363868277595 28.1128704123049964
 69.0556791114814530  8.9502363868277595 28.1128704123049964
 31.0045633652013137 65.0927547548799765 28.1128704123049964
 74.6928187395214422  8.9502363868277595 28.1128704123049964
 -5.6372242807967794 11.3912632045734714 28.1128704123049964
 22.5487693652013093 65.0927547548799765 28.1128704123049964
 19.7301995511813146 65.0927547548799765 28.1128704123049964
 16.9115879051832216 11.3912632045734714 28.1128704123049964
 -14.0930187684245301 69.9747351610314468 28.1128704123049964
 33.8231759051832199 11.3912632045734714 28.1128704123049964
 66.2370247801566876  4.0683292100162243 28.1128704123049964
 11.2743632315754621 69.9747351610314468 28.1128704123049964
  8.4557939864549194  1.6273023922705114 28.1128704123049964
 32.4138904902278497 72.4156887494372228 28.1128704123049964
 11.2743638004749194  1.6273023922705114 28.1128704123049964
 14.0930181724349168  1.6273023922705114 28.1128704123049964
 26.7766663042478434 72.4156887494372228 28.1128704123049964
 15.5023024902278443 72.4156887494372228 28.1128704123049964
 39.4604001724349231  1.6273023922705114 28.1128704123049964
  1.4092843042478451 72.4156887494372228 28.1128704123049964
 45.0975398004749266  1.6273023922705114 28.1128704123049964
 56.3719881724349250  1.6273023922705114 28.1128704123049964
 59.1905579864549196  1.6273023922705114 28.1128704123049964
 -7.0465096957521522 72.4156887494372228 28.1128704123049964
 62.0091278004749142  1.6273023922705114 28.1128704123049964
 -21.1395278817321568 72.4156887494372228 28.1128704123049964
 81.7393701724349171  1.6273023922705114 28.1128704123049964
 -26.7766675097721567 72.4156887494372228 28.1128704123049964
 -29.5953218817321577 72.4156887494372228 28.1128704123049964
 12.6836909661366875  4.0683292100162243 28.1128704123049964
 15.5022607801566892  4.0683292100162243 28.1128704123049964
 23.9580547801566937  4.0683292100162243 28.1128704123049964
 29.5952789661366928  4.0683292100162243 28.1128704123049964
 16.9115874175554666 69.9747351610314468 28.1128704123049964
 14.0929330455954638 69.9747351610314468 28.1128704123049964
 49.3254367801566929  4.0683292100162243 28.1128704123049964
  5.6371813652013136 65.0927547548799765 28.1128704123049964
 39.4603578528290697  6.5092827984219914 28.1128704123049964
 32.4138907340417219 43.1239527712082307 28.1128704123049964
 26.7766667918756056 13.8322167929792403 28.1128704123049964
 18.3208727918756047 13.8322167929792403 28.1128704123049964
 15.5023029778556030 13.8322167929792403 28.1128704123049964
 -31.0045644488186873 65.0927547548799765 28.1128704123049964
  7.0465089778555976 13.8322167929792403 28.1128704123049964
 49.3254789778556031 13.8322167929792403 28.1128704123049964
  4.2278546058956001 13.8322167929792403 28.1128704123049964
 -14.0929764488186855 65.0927547548799765 28.1128704123049964
 -36.6417886347986865 65.0927547548799765 28.1128704123049964
 62.0091277192032209 11.3912632045734714 28.1128704123049964
 63.4184126058955968 13.8322167929792403 28.1128704123049964
 38.0510724785089351 62.6518011664742076 28.1128704123049964
 -0.0000428207786890 65.0927547548799765 28.1128704123049964
 21.1394426058955993 13.8322167929792403 28.1128704123049964
 35.2324181065489270 62.6518011664742076 28.1128704123049964
 71.8742066058955942 13.8322167929792403 28.1128704123049964
 45.0975397192032190 11.3912632045734714 28.1128704123049964
 66.2370669778556049 13.8322167929792403 28.1128704123049964
 39.4603155332232234 11.3912632045734714 28.1128704123049964
 -18.3209155991092061 49.6332355696302230 28.6327538495249954
 47.9161938338042646 42.3103015750729767 28.6327538495249954
 56.3719877931690334 47.1922087518845075 28.6327538495249954
 53.5534179791490246 47.1922087518845075 28.6327538495249954
 50.7347636071890307 47.1922087518845075 28.6327538495249954
 29.5952784243286260 69.1610107355562462 28.6327538495249954
 47.9161937931690360 47.1922087518845075 28.6327538495249954
 -23.9580974654833554 44.7512551634787386 28.6327538495249954
 -16.9115885147179164 61.8380767409990000 28.6327538495249954
 39.4603997931690245 47.1922087518845075 28.6327538495249954
 36.6418299791490298 47.1922087518845075 28.6327538495249954
 40.8697267962886173 69.1610107355562462 28.6327538495249954
 -32.4138493490561430 64.2791035587447084 28.6327538495249954
 25.3673816071890279 47.1922087518845075 28.6327538495249954
 43.6882966103086261 69.1610107355562462 28.6327538495249954
 36.6418298572420866 61.8380767409990000 28.6327538495249954
 26.7767086103086172 69.1610107355562462 28.6327538495249954
 42.2789696071890333 47.1922087518845075 28.6327538495249954
 23.9581387962886225 69.1610107355562462 28.6327538495249954
 11.2744479791490271 47.1922087518845075 28.6327538495249954
 -28.1859523287379155 61.8380767409990000 28.6327538495249954
 -12.6836915756713875 69.1610107355562462 28.6327538495249954
 26.7767087728507853 49.6332355696302230 28.6327538495249954
  1.4093266103086164 69.1610107355562462 28.6327538495249954
  4.2278964243286037 69.1610107355562462 28.6327538495249954
 -22.5487281427579163 61.8380767409990000 28.6327538495249954
 23.9580544008907985 49.6332355696302230 28.6327538495249954
 12.6836904243286224 69.1610107355562462 28.6327538495249954
 -15.5022612271492086 49.6332355696302230 28.6327538495249954
 42.2789696478242618 42.3103015750729767 28.6327538495249954
  9.8651207728507995 49.6332355696302230 28.6327538495249954
  1.4093267728507877 49.6332355696302230 28.6327538495249954
 -23.9580553490561456 64.2791035587447084 28.6327538495249954
 15.5023447962886092 69.1610107355562462 28.6327538495249954
 -1.4093275991092098 49.6332355696302230 28.6327538495249954
 -26.7767097210161431 64.2791035587447084 28.6327538495249954
 -19.7301583287379145 61.8380767409990000 28.6327538495249954
 -12.6836914131292051 49.6332355696302230 28.6327538495249954
 21.1394845868707826 49.6332355696302230 28.6327538495249954
 -28.1859524100096195 71.6020375533019688 28.6327538495249954
  8.4557936071890190 47.1922087518845075 28.6327538495249954
 16.9115874852820909 61.8380767409990000 28.6327538495249954
 40.8696847204966431 44.7512551634787386 28.6327538495249954
 11.2744478572420874 61.8380767409990000 28.6327538495249954
 38.0511149064766485 44.7512551634787386 28.6327538495249954
 32.4138907204966458 44.7512551634787386 28.6327538495249954
 29.5953209064766369 44.7512551634787386 28.6327538495249954
 -2.8185704100096114 71.6020375533019688 28.6327538495249954
 21.1395269064766467 44.7512551634787386 28.6327538495249954
 12.6837329064766493 44.7512551634787386 28.6327538495249954
 43.6882545345166520 44.7512551634787386 28.6327538495249954
 53.5533334618442680 42.3103015750729767 28.6327538495249954
  7.0465087204966403 44.7512551634787386 28.6327538495249954
  1.4092845345166412 44.7512551634787386 28.6327538495249954
 -1.4092852795033535 44.7512551634787386 28.6327538495249954
 59.1905576478242708 42.3103015750729767 28.6327538495249954
 -12.6836490935233588 44.7512551634787386 28.6327538495249954
 11.2743632180303894 71.6020375533019688 28.6327538495249954
 14.0930176712620749 61.8380767409990000 28.6327538495249954
 14.0930175899903762 71.6020375533019688 28.6327538495249954
  9.8650785345166412 44.7512551634787386 28.6327538495249954
 46.5069089064766459 44.7512551634787386 28.6327538495249954
 49.3254787204966547 44.7512551634787386 28.6327538495249954
 52.1440485345166493 44.7512551634787386 28.6327538495249954
 -22.5488127819696196 71.6020375533019688 28.6327538495249954
  5.6372237931690181 47.1922087518845075 28.6327538495249954
 -2.8185703287379194 61.8380767409990000 28.6327538495249954
 -0.0000003928109814 47.1922087518845075 28.6327538495249954
 -35.2325037210161440 64.2791035587447084 28.6327538495249954
 -2.8185702068309761 47.1922087518845075 28.6327538495249954
 29.5952785868707942 49.6332355696302230 28.6327538495249954
 25.3673814852820882 61.8380767409990000 28.6327538495249954
 -11.2743644100096230 71.6020375533019688 28.6327538495249954
 -11.2743642068309775 47.1922087518845075 28.6327538495249954
 -8.4557945959896212 71.6020375533019688 28.6327538495249954
 28.1859512180303895 71.6020375533019688 28.6327538495249954
  2.8186538572420905 61.8380767409990000 28.6327538495249954
 50.7347636478242734 42.3103015750729767 28.6327538495249954
 -16.9115883928109767 47.1922087518845075 28.6327538495249954
 -22.5487280208509766 47.1922087518845075 28.6327538495249954
  8.4557934852820722 61.8380767409990000 28.6327538495249954
 57.7812727204966521 44.7512551634787386 28.6327538495249954
 -5.6372247819696195 71.6020375533019688 28.6327538495249954
 -5.6371401427579215 61.8380767409990000 28.6327538495249954
 -19.7301584100096186 71.6020375533019688 28.6327538495249954
  4.2278964649638544 64.2791035587447084 28.6327538495249954
 -22.5487703404568300 52.0741891580359919 28.6327538495249954
 -31.0046066600626737 56.9561695641874692 28.6327538495249954
 32.4138482789838704 64.2791035587447084 28.6327538495249954
 49.3255209181955507 54.5151427464417537 28.6327538495249954
 -1.4093277210161486 64.2791035587447084 28.6327538495249954
 35.2325026509438644 64.2791035587447084 28.6327538495249954
 46.5068665462355568 54.5151427464417537 28.6327538495249954
  7.0465085985897025 59.3971231525932382 28.6327538495249954
 43.6882967322155622 54.5151427464417537 28.6327538495249954
 -7.0464673490561447 64.2791035587447084 28.6327538495249954
  4.2279387845697078 59.3971231525932382 28.6327538495249954
  9.8650784126096909 59.3971231525932382 28.6327538495249954
 40.8696422789838678 64.2791035587447084 28.6327538495249954
 35.2325027322155506 54.5151427464417537 28.6327538495249954
 32.4139329181955560 54.5151427464417537 28.6327538495249954
 -36.6417886483437698 66.7200571471504844 28.6327538495249954
 -28.1859946483437653 66.7200571471504844 28.6327538495249954
 21.1394845462355612 54.5151427464417537 28.6327538495249954
 18.3209147322155452 54.5151427464417537 28.6327538495249954
  9.8651207322155532 54.5151427464417537 28.6327538495249954
 32.4138905985897026 59.3971231525932382 28.6327538495249954
 -12.6836915350361448 64.2791035587447084 28.6327538495249954
 -14.0929764623637634 66.7200571471504844 28.6327538495249954
 -22.5488126600626764 56.9561695641874692 28.6327538495249954
 -8.4557944740826727 56.9561695641874692 28.6327538495249954
 15.5022602789838597 64.2791035587447084 28.6327538495249954
 -23.9580975873902986 59.3971231525932382 28.6327538495249954
 18.3209146509438554 64.2791035587447084 28.6327538495249954
 -32.4138915873902960 59.3971231525932382 28.6327538495249954
 50.7347635259173302 56.9561695641874692 28.6327538495249954
 -7.0465095873903012 59.3971231525932382 28.6327538495249954
 21.1394844649638500 64.2791035587447084 28.6327538495249954
 47.9161937118973214 56.9561695641874692 28.6327538495249954
 39.4603997118973240 56.9561695641874692 28.6327538495249954
 -19.7301582881026789 56.9561695641874692 28.6327538495249954
  1.4093266509438596 64.2791035587447084 28.6327538495249954
 33.8231755259173212 56.9561695641874692 28.6327538495249954
 23.9580542789838589 64.2791035587447084 28.6327538495249954
 -1.4092854014103018 59.3971231525932382 28.6327538495249954
 26.7767086509438528 64.2791035587447084 28.6327538495249954
 22.5488117118973186 56.9561695641874692 28.6327538495249954
 11.2743633399373131 56.9561695641874692 28.6327538495249954
  8.4557935259173256 56.9561695641874692 28.6327538495249954
  5.6372237118973310 56.9561695641874692 28.6327538495249954
 -5.6372246600626781 56.9561695641874692 28.6327538495249954
 36.6417453399373301 56.9561695641874692 28.6327538495249954
 54.9626605868708040 49.6332355696302230 28.6327538495249954
 -1.4092430818044526 54.5151427464417537 28.6327538495249954
  0.0000417236162395 66.7200571471504844 28.6327538495249954
 42.2790117236162359 66.7200571471504844 28.6327538495249954
 19.7301996595431604 52.0741891580359919 28.6327538495249954
 -21.1394855350361439 64.2791035587447084 28.6327538495249954
 16.9116298455231728 52.0741891580359919 28.6327538495249954
 45.0975815376362448 66.7200571471504844 28.6327538495249954
 -38.0510735756713814 69.1610107355562462 28.6327538495249954
 11.2744056595431719 52.0741891580359919 28.6327538495249954
 49.3254785985897115 59.3971231525932382 28.6327538495249954
  8.4558358455231772 52.0741891580359919 28.6327538495249954
 39.4603573516562420 66.7200571471504844 28.6327538495249954
 -29.5952795756713840 69.1610107355562462 28.6327538495249954
  0.0000418455231652 52.0741891580359919 28.6327538495249954
 -2.8186125264368322 52.0741891580359919 28.6327538495249954
 -23.9580553896913813 69.1610107355562462 28.6327538495249954
 -8.4557521544768282 52.0741891580359919 28.6327538495249954
 -11.2744065264368292 52.0741891580359919 28.6327538495249954
 -31.0045221427579136 61.8380767409990000 28.6327538495249954
 -14.0929763404568273 52.0741891580359919 28.6327538495249954
 -21.1394432154303011 59.3971231525932382 28.6327538495249954
 -16.9115461544768308 52.0741891580359919 28.6327538495249954
 -26.7766252037113830 69.1610107355562462 28.6327538495249954
 -11.2744066483437688 66.7200571471504844 28.6327538495249954
 22.5487694735631763 52.0741891580359919 28.6327538495249954
 31.0045634735631737 52.0741891580359919 28.6327538495249954
 -4.2278974537644496 54.5151427464417537 28.6327538495249954
 -7.0464672677844442 54.5151427464417537 28.6327538495249954
  2.8186115376362340 66.7200571471504844 28.6327538495249954
 -9.8650370818044468 54.5151427464417537 28.6327538495249954
 -12.6836914537644478 54.5151427464417537 28.6327538495249954
 -21.1394854537644470 54.5151427464417537 28.6327538495249954
 11.2744055376362251 66.7200571471504844 28.6327538495249954
 -15.5022613490561429 64.2791035587447084 28.6327538495249954
 -23.9580552677844487 54.5151427464417537 28.6327538495249954
 25.3674238455231631 52.0741891580359919 28.6327538495249954
 14.0929753516562410 66.7200571471504844 28.6327538495249954
 16.9116297236162261 66.7200571471504844 28.6327538495249954
 19.7301995376362349 66.7200571471504844 28.6327538495249954
 42.2790118455231720 52.0741891580359919 28.6327538495249954
 25.3674237236162377 66.7200571471504844 28.6327538495249954
 28.1859935376362323 66.7200571471504844 28.6327538495249954
 33.8232178455231747 52.0741891580359919 28.6327538495249954
 35.2324604126097114 59.3971231525932382 28.6327538495249954
 33.8231754852820927 61.8380767409990000 28.6327538495249954
 36.6417875376362474 66.7200571471504844 28.6327538495249954
 53.5533756595431782 52.0741891580359919 28.6327538495249954
 -15.5022613896913821 69.1610107355562462 28.6327538495249954
 -19.7302004045298887 37.4283211689214923 28.6327538495249954
 28.1859514618442688 42.3103015750729767 28.6327538495249954
 49.3254789643105269 15.4595191852497500 28.6327538495249954
 46.5069091502905181 15.4595191852497500 28.6327538495249954
 43.6882547783305313 15.4595191852497500 28.6327538495249954
 40.8696849643105153 15.4595191852497500 28.6327538495249954
 21.1395271502905153 15.4595191852497500 28.6327538495249954
 18.3208727783305179 15.4595191852497500 28.6327538495249954
  7.0465089643105223 15.4595191852497500 28.6327538495249954
  4.2279391502905188 15.4595191852497500 28.6327538495249954
  1.4092847783305213 15.4595191852497500 28.6327538495249954
 76.1021458916381448 13.0185655968439828 28.6327538495249954
 64.8277820776181386 13.0185655968439828 28.6327538495249954
 62.0091277056581518 13.0185655968439828 28.6327538495249954
 50.7347638916381456 13.0185655968439828 28.6327538495249954
 47.9161940776181368 13.0185655968439828 28.6327538495249954
 63.4184971502905270 15.4595191852497500 28.6327538495249954
 45.0975397056581500 13.0185655968439828 28.6327538495249954
 31.0046060776181456 13.0185655968439828 28.6327538495249954
 16.9115878916381419 13.0185655968439828 28.6327538495249954
  5.6372240776181393 13.0185655968439828 28.6327538495249954
 -5.6372242943418591 13.0185655968439828 28.6327538495249954
 77.5114730979363742 10.5775387790982709 28.6327538495249954
 74.6929032839163654 10.5775387790982709 28.6327538495249954
 54.9626609119563767 10.5775387790982709 28.6327538495249954
 52.1440910979363750 10.5775387790982709 28.6327538495249954
 49.3255212839163661 10.5775387790982709 28.6327538495249954
 38.0510729119563607 10.5775387790982709 28.6327538495249954
 35.2325030979363731 10.5775387790982709 28.6327538495249954
 32.4139332839163785 10.5775387790982709 28.6327538495249954
 29.5952789119563668 10.5775387790982709 28.6327538495249954
 12.6836909119563703 10.5775387790982709 28.6327538495249954
 33.8231758916381438 13.0185655968439828 28.6327538495249954
  7.0465512839163686 10.5775387790982709 28.6327538495249954
 66.2370669643105288 15.4595191852497500 28.6327538495249954
 71.8742911502905173 15.4595191852497500 28.6327538495249954
 52.1440910166646745 20.3414995914012344 28.6327538495249954
 38.0510728306846602 20.3414995914012344 28.6327538495249954
 35.2325030166646727 20.3414995914012344 28.6327538495249954
 32.4138486447046574 20.3414995914012344 28.6327538495249954
 29.5952788306846699 20.3414995914012344 28.6327538495249954
 26.7767090166646753 20.3414995914012344 28.6327538495249954
 15.5022606447046662 20.3414995914012344 28.6327538495249954
 12.6836908306846716 20.3414995914012344 28.6327538495249954
  9.8651210166646699 20.3414995914012344 28.6327538495249954
 -1.4093273552953294 20.3414995914012344 28.6327538495249954
 -4.2278971693153311 20.3414995914012344 28.6327538495249954
 -7.0464669833353293 20.3414995914012344 28.6327538495249954
 73.2835760369829075 17.9004727736555189 28.6327538495249954
 70.4650062229628986 17.9004727736555189 28.6327538495249954
 69.0556367783305234 15.4595191852497500 28.6327538495249954
 67.6463518510029047 17.9004727736555189 28.6327538495249954
 56.3719880369828985 17.9004727736555189 28.6327538495249954
 53.5534182229629039 17.9004727736555189 28.6327538495249954
 50.7347638510029029 17.9004727736555189 28.6327538495249954
 33.8231758510028868 17.9004727736555189 28.6327538495249954
 28.1860362229629082 17.9004727736555189 28.6327538495249954
 22.5488120369828984 17.9004727736555189 28.6327538495249954
 16.9115878510028992 17.9004727736555189 28.6327538495249954
 14.0930180369829028 17.9004727736555189 28.6327538495249954
 11.2744482229629011 17.9004727736555189 28.6327538495249954
  8.4557938510029000 17.9004727736555189 28.6327538495249954
  5.6372240369829028 17.9004727736555189 28.6327538495249954
 -0.0000001489970986 17.9004727736555189 28.6327538495249954
 -2.8185699630171004 17.9004727736555189 28.6327538495249954
 -8.4557941489970982 17.9004727736555189 28.6327538495249954
 59.1905578510029073 17.9004727736555189 28.6327538495249954
 54.9626608306846691 20.3414995914012344 28.6327538495249954
 -1.4092427160836287 10.5775387790982709 28.6327538495249954
 76.1021882112439840  8.1365851906925037 28.6327538495249954
 62.0092123448698445  3.2546047845410229 28.6327538495249954
 50.7347639729098461  3.2546047845410229 28.6327538495249954
 47.9161941588898301  3.2546047845410229 28.6327538495249954
 45.0976243448698426  3.2546047845410229 28.6327538495249954
 42.2789699729098274  3.2546047845410229 28.6327538495249954
 39.4604001588898399  3.2546047845410229 28.6327538495249954
 36.6418303448698452  3.2546047845410229 28.6327538495249954
 28.1860363448698337  3.2546047845410229 28.6327538495249954
 25.3673819729098362  3.2546047845410229 28.6327538495249954
 22.5488121588898416  3.2546047845410229 28.6327538495249954
 14.0930181588898407  3.2546047845410229 28.6327538495249954
 11.2744483448698372  3.2546047845410229 28.6327538495249954
  5.6372241588898389  3.2546047845410229 28.6327538495249954
  2.8186543448698407  3.2546047845410229 28.6327538495249954
 64.8277821588898462  3.2546047845410229 28.6327538495249954
 -0.0000000270901599  3.2546047845410229 28.6327538495249954
 80.3300852721974650  0.8136511961352557 28.6327538495249954
 74.6928610862174764  0.8136511961352557 28.6327538495249954
 71.8742912721974676  0.8136511961352557 28.6327538495249954
 69.0556369002374737  0.8136511961352557 28.6327538495249954
 60.5998429002374621  0.8136511961352557 28.6327538495249954
 57.7812730862174604  0.8136511961352557 28.6327538495249954
 46.5069092721974613  0.8136511961352557 28.6327538495249954
 43.6882549002374461  0.8136511961352557 28.6327538495249954
 40.8696850862174585  0.8136511961352557 28.6327538495249954
 38.0511152721974639  0.8136511961352557 28.6327538495249954
 35.2324609002374558  0.8136511961352557 28.6327538495249954
 15.5023030862174611  0.8136511961352557 28.6327538495249954
 12.6837332721974576  0.8136511961352557 28.6327538495249954
  9.8650789002374601  0.8136511961352557 28.6327538495249954
 83.1486550862174738  0.8136511961352557 28.6327538495249954
 -4.2278970880436288 10.5775387790982709 28.6327538495249954
 67.6463519729098550  3.2546047845410229 28.6327538495249954
 81.7393701588898551  3.2546047845410229 28.6327538495249954
 73.2835338392839901  8.1365851906925037 28.6327538495249954
 70.4649640252639955  8.1365851906925037 28.6327538495249954
 59.1906002112439964  8.1365851906925037 28.6327538495249954
 50.7348062112439848  8.1365851906925037 28.6327538495249954
 33.8232182112439972  8.1365851906925037 28.6327538495249954
 31.0045638392839891  8.1365851906925037 28.6327538495249954
 28.1859940252639873  8.1365851906925037 28.6327538495249954
 22.5487698392839881  8.1365851906925037 28.6327538495249954
 19.7302000252639935  8.1365851906925037 28.6327538495249954
 16.9116302112439918  8.1365851906925037 28.6327538495249954
  5.6371818392839907  8.1365851906925037 28.6327538495249954
  2.8186120252639890  8.1365851906925037 28.6327538495249954
 71.8742489525916284  5.6956316022867357 28.6327538495249954
 69.0556791385716195  5.6956316022867357 28.6327538495249954
 70.4650063448698489  3.2546047845410229 28.6327538495249954
 66.2370247666116256  5.6956316022867357 28.6327538495249954
 57.7812307666116141  5.6956316022867357 28.6327538495249954
 54.9626609525916123  5.6956316022867357 28.6327538495249954
 52.1440911385716035  5.6956316022867357 28.6327538495249954
 49.3254367666116167  5.6956316022867357 28.6327538495249954
 46.5068669525916008  5.6956316022867357 28.6327538495249954
 40.8696427666115980  5.6956316022867357 28.6327538495249954
 29.5952789525916060  5.6956316022867357 28.6327538495249954
 23.9580547666116068  5.6956316022867357 28.6327538495249954
 21.1394849525916122  5.6956316022867357 28.6327538495249954
 18.3209151385716105  5.6956316022867357 28.6327538495249954
 15.5022607666116095  5.6956316022867357 28.6327538495249954
  7.0464667666116103  5.6956316022867357 28.6327538495249954
  4.2278969525916086  5.6956316022867357 28.6327538495249954
  1.4093271385716108  5.6956316022867357 28.6327538495249954
 63.4184549525916097  5.6956316022867357 28.6327538495249954
 31.0046058338042556 42.3103015750729767 28.6327538495249954
 57.7812306447046780 20.3414995914012344 28.6327538495249954
 71.8742488306846781 20.3414995914012344 28.6327538495249954
 -5.6371822185498859 37.4283211689214923 28.6327538495249954
 -8.4557520325698885 37.4283211689214923 28.6327538495249954
 -16.9115460325698876 37.4283211689214923 28.6327538495249954
 63.4184547087777446 34.9873675805157234 28.6327538495249954
 52.1440908947577384 34.9873675805157234 28.6327538495249954
 49.3254365227977445 34.9873675805157234 28.6327538495249954
 43.6882968947577410 34.9873675805157234 28.6327538495249954
 40.8696425227977400 34.9873675805157234 28.6327538495249954
 35.2325028947577295 34.9873675805157234 28.6327538495249954
 32.4138485227977426 34.9873675805157234 28.6327538495249954
 21.1394847087777364 34.9873675805157234 28.6327538495249954
 12.6836907087777320 34.9873675805157234 28.6327538495249954
  9.8651208947577302 34.9873675805157234 28.6327538495249954
  1.4093268947577322 34.9873675805157234 28.6327538495249954
  0.0000419674301133 37.4283211689214923 28.6327538495249954
 -1.4093274772022688 34.9873675805157234 28.6327538495249954
 -15.5022611052422672 34.9873675805157234 28.6327538495249954
 -18.3209154772022664 34.9873675805157234 28.6327538495249954
 59.1905577290959641 32.5463407627700150 28.6327538495249954
 56.3719879150759695 32.5463407627700150 28.6327538495249954
 53.5534181010559607 32.5463407627700150 28.6327538495249954
 50.7347637290959668 32.5463407627700150 28.6327538495249954
 45.0976241010559633 32.5463407627700150 28.6327538495249954
 42.2789697290959623 32.5463407627700150 28.6327538495249954
 39.4603999150759606 32.5463407627700150 28.6327538495249954
 36.6418301010559517 32.5463407627700150 28.6327538495249954
 33.8231757290959649 32.5463407627700150 28.6327538495249954
 31.0046059150759525 32.5463407627700150 28.6327538495249954
 28.1860361010559650 32.5463407627700150 28.6327538495249954
 16.9115877290959595 32.5463407627700150 28.6327538495249954
 -12.6836912912222672 34.9873675805157234 28.6327538495249954
 14.0930179150759578 32.5463407627700150 28.6327538495249954
 11.2744057814501097 37.4283211689214923 28.6327538495249954
 25.3674239674301170 37.4283211689214923 28.6327538495249954
 25.3673816478242529 42.3103015750729767 28.6327538495249954
 22.5488118338042653 42.3103015750729767 28.6327538495249954
 19.7301574618442501 42.3103015750729767 28.6327538495249954
 16.9115876478242626 42.3103015750729767 28.6327538495249954
 11.2743634618442599 42.3103015750729767 28.6327538495249954
  5.6372238338042564 42.3103015750729767 28.6327538495249954
 -0.0000003521757358 42.3103015750729767 28.6327538495249954
 -2.8185701661957374 42.3103015750729767 28.6327538495249954
 -11.2743641661957401 42.3103015750729767 28.6327538495249954
 -19.7301581661957393 42.3103015750729767 28.6327538495249954
 -22.5488125381557367 42.3103015750729767 28.6327538495249954
 60.5998848541225001 39.8692747573272612 28.6327538495249954
 52.1440908541225028 39.8692747573272612 28.6327538495249954
 43.6882968541224912 39.8692747573272612 28.6327538495249954
 19.7301997814501142 37.4283211689214923 28.6327538495249954
 40.8697270401024966 39.8692747573272612 28.6327538495249954
 26.7767088541224823 39.8692747573272612 28.6327538495249954
 23.9581390401024947 39.8692747573272612 28.6327538495249954
 21.1394846681424795 39.8692747573272612 28.6327538495249954
  9.8651208541224857 39.8692747573272612 28.6327538495249954
  1.4093268541224926 39.8692747573272612 28.6327538495249954
 -4.2278973318575099 39.8692747573272612 28.6327538495249954
 -9.8650369598975125 39.8692747573272612 28.6327538495249954
 -12.6836913318575100 39.8692747573272612 28.6327538495249954
 -15.5022611458775117 39.8692747573272612 28.6327538495249954
 -21.1394853318575109 39.8692747573272612 28.6327538495249954
 62.0091697814501188 37.4283211689214923 28.6327538495249954
 59.1905999674301100 37.4283211689214923 28.6327538495249954
 42.2790119674301152 37.4283211689214923 28.6327538495249954
 31.0045635954701204 37.4283211689214923 28.6327538495249954
 38.0510726681424956 39.8692747573272612 28.6327538495249954
 60.5998850166646719 20.3414995914012344 28.6327538495249954
 11.2744481010559561 32.5463407627700150 28.6327538495249954
  2.8186541010559618 32.5463407627700150 28.6327538495249954
 -8.4557942302688005 27.6644335859584807 28.6327538495249954
 -14.0930184162487979 27.6644335859584807 28.6327538495249954
 66.2371091620094319 25.2234067682127652 28.6327538495249954
 63.4184547900494380 25.2234067682127652 28.6327538495249954
 60.5998849760294434 25.2234067682127652 28.6327538495249954
 49.3255211620094371 25.2234067682127652 28.6327538495249954
 46.5068667900494361 25.2234067682127652 28.6327538495249954
 43.6882969760294344 25.2234067682127652 28.6327538495249954
 29.5952787900494201 25.2234067682127652 28.6327538495249954
 26.7767089760294326 25.2234067682127652 28.6327538495249954
 23.9581391620094379 25.2234067682127652 28.6327538495249954
  4.2278967900494315 25.2234067682127652 28.6327538495249954
 -1.4092428379905699 25.2234067682127652 28.6327538495249954
 70.4649639033570594 22.7824531798069998 28.6327538495249954
 -5.6372244162487979 27.6644335859584807 28.6327538495249954
 59.1906000893370532 22.7824531798069998 28.6327538495249954
 45.0975819033570531 22.7824531798069998 28.6327538495249954
 42.2790120893370442 22.7824531798069998 28.6327538495249954
 39.4603577173770574 22.7824531798069998 28.6327538495249954
 33.8232180893370540 22.7824531798069998 28.6327538495249954
 31.0045637173770388 22.7824531798069998 28.6327538495249954
 28.1859939033570512 22.7824531798069998 28.6327538495249954
 25.3674240893370566 22.7824531798069998 28.6327538495249954
 22.5487697173770485 22.7824531798069998 28.6327538495249954
 14.0929757173770476 22.7824531798069998 28.6327538495249954
 11.2744059033570529 22.7824531798069998 28.6327538495249954
  8.4558360893370512 22.7824531798069998 28.6327538495249954
  0.0000420893370479 22.7824531798069998 28.6327538495249954
 -2.8186122826229494 22.7824531798069998 28.6327538495249954
 -5.6371820966429516 22.7824531798069998 28.6327538495249954
 56.3719457173770593 22.7824531798069998 28.6327538495249954
  5.6372239150759640 32.5463407627700150 28.6327538495249954
 -2.8185700442888009 27.6644335859584807 28.6327538495249954
  5.6372239557112023 27.6644335859584807 28.6327538495249954
 -0.0000002709040391 32.5463407627700150 28.6327538495249954
 -8.4557942709040379 32.5463407627700150 28.6327538495249954
 -11.2743640849240396 32.5463407627700150 28.6327538495249954
 -14.0929338989440378 32.5463407627700150 28.6327538495249954
 60.5998426564235899 30.1053871743642461 28.6327538495249954
 57.7812728424035953 30.1053871743642461 28.6327538495249954
 52.1440486564235925 30.1053871743642461 28.6327538495249954
 49.3254788424035837 30.1053871743642461 28.6327538495249954
 38.0511150283835775 30.1053871743642461 28.6327538495249954
 32.4138908424035748 30.1053871743642461 28.6327538495249954
 21.1395270283835863 30.1053871743642461 28.6327538495249954
 18.3208726564235782 30.1053871743642461 28.6327538495249954
 15.5023028424035783 30.1053871743642461 28.6327538495249954
 12.6837330283835765 30.1053871743642461 28.6327538495249954
  2.8185695837512008 27.6644335859584807 28.6327538495249954
  9.8650786564235791 30.1053871743642461 28.6327538495249954
  1.4092846564235810 30.1053871743642461 28.6327538495249954
 -7.0465093435764183 30.1053871743642461 28.6327538495249954
 -9.8650791575964192 30.1053871743642461 28.6327538495249954
 -12.6836489716164174 30.1053871743642461 28.6327538495249954
 62.0091275837512086 27.6644335859584807 28.6327538495249954
 59.1905577697312140 27.6644335859584807 28.6327538495249954
 47.9161939557112078 27.6644335859584807 28.6327538495249954
 45.0975395837512067 27.6644335859584807 28.6327538495249954
 42.2789697697312050 27.6644335859584807 28.6327538495249954
 25.3673817697312032 27.6644335859584807 28.6327538495249954
 22.5488119557112086 27.6644335859584807 28.6327538495249954
 19.7301575837512004 27.6644335859584807 28.6327538495249954
 14.0930179557111952 27.6644335859584807 28.6327538495249954
  8.4557937697312031 27.6644335859584807 28.6327538495249954
  4.2279390283835818 30.1053871743642461 28.6327538495249954
 42.2789694040103896 71.6020375533019688 28.6327538495249954
