 H  O 
 1.0000000000000000
    84.5579400000000021    0.0000000000000000    0.0000000000000000
   -42.2789706095346958   73.2293399455724767    0.0000000000000000
     0.0000000000000000    0.0000000000000000   46.9039550000000034
 H   O  
 205 458
Cartesian
  2.8185698004749202  1.6273023922705114 28.1128704123049964
 46.5068668035945052 23.5961043759422537 28.1128704123049964
 49.3254366176144998 23.5961043759422537 28.1128704123049964
 54.9626608035945097 23.5961043759422537 28.1128704123049964
 -18.3208733878652161 57.7698207603227232 28.1128704123049964
 60.5998849895745124 23.5961043759422537 28.1128704123049964
 66.2370246176145088 23.5961043759422537 28.1128704123049964
 -14.0930184027037182 26.0371311936879657 28.1128704123049964
 -2.8186545886837178 26.0371311936879657 28.1128704123049964
 47.9161091675023982 55.3288671719169614 28.1128704123049964
 -0.0000002167237204 26.0371311936879657 28.1128704123049964
  8.4557937832762846 26.0371311936879657 28.1128704123049964
 11.2743635972962863 26.0371311936879657 28.1128704123049964
 16.9115877832762855 26.0371311936879657 28.1128704123049964
 31.0045211675023928 55.3288671719169614 28.1128704123049964
 26.7767089895745123 23.5961043759422537 28.1128704123049964
 33.8231757832762838 26.0371311936879657 28.1128704123049964
 39.4603154113162731 26.0371311936879657 28.1128704123049964
 14.0929331675024070 55.3288671719169614 28.1128704123049964
  8.4557935394624035 55.3288671719169614 28.1128704123049964
 -15.5023033300313369 28.4780847820937346 28.1128704123049964
 -12.6837335160113369 28.4780847820937346 28.1128704123049964
 -2.8186548324975988 55.3288671719169614 28.1128704123049964
 -9.8650791440513395 28.4780847820937346 28.1128704123049964
 -11.2744488324975958 55.3288671719169614 28.1128704123049964
  9.8650786699686659 28.4780847820937346 28.1128704123049964
 -14.0930186465175975 55.3288671719169614 28.1128704123049964
 -22.5488126465175966 55.3288671719169614 28.1128704123049964
 23.9580968559486607 28.4780847820937346 28.1128704123049964
 -25.3673824605375984 55.3288671719169614 28.1128704123049964
 46.5068244839886518 28.4780847820937346 28.1128704123049964
 22.5487271675023955 55.3288671719169614 28.1128704123049964
 21.1394848035945166 23.5961043759422537 28.1128704123049964
  4.2278968035945095 23.5961043759422537 28.1128704123049964
 -1.4093273823854895 23.5961043759422537 28.1128704123049964
 31.0046060505279790 16.2731703813850075 28.1128704123049964
 36.6417456785679860 16.2731703813850075 28.1128704123049964
 39.4604000505279870 16.2731703813850075 28.1128704123049964
 -9.8651217074710615 62.6518011664742076 28.1128704123049964
 45.0975396785679763 16.2731703813850075 28.1128704123049964
 47.9161940505279844 16.2731703813850075 28.1128704123049964
 56.3719880505279747 16.2731703813850075 28.1128704123049964
 67.6463518645479809 16.2731703813850075 28.1128704123049964
 73.2835760505279836 16.2731703813850075 28.1128704123049964
 -21.1394855214910677 62.6518011664742076 28.1128704123049964
 -1.4093273417502492 18.7141971991307194 28.1128704123049964
 -26.7767097074710669 62.6518011664742076 28.1128704123049964
 -32.4139338934510661 62.6518011664742076 28.1128704123049964
 18.3208304722697477 18.7141971991307194 28.1128704123049964
 23.9580546582497540 18.7141971991307194 28.1128704123049964
 31.0046056848071565 60.2107743487284921 28.1128704123049964
 25.3673814988271609 60.2107743487284921 28.1128704123049964
 43.6882544261547849 57.7698207603227232 28.1128704123049964
 62.0091699169021311 21.1551507875364884 28.1128704123049964
 59.1905155449421230 21.1551507875364884 28.1128704123049964
 47.9161517309221239 21.1551507875364884 28.1128704123049964
 42.2789275449421211 21.1551507875364884 28.1128704123049964
 36.6417879169021319 21.1551507875364884 28.1128704123049964
 52.1440486699686616 28.4780847820937346 28.1128704123049964
 -14.0930186871528367 60.2107743487284921 28.1128704123049964
 -5.6372246871528393 60.2107743487284921 28.1128704123049964
 -11.2744062690778684 21.1551507875364884 28.1128704123049964
 71.8742488442297542 18.7141971991307194 28.1128704123049964
 11.2743633128471661 60.2107743487284921 28.1128704123049964
 60.5998004722697488 18.7141971991307194 28.1128704123049964
 49.3254366582497497 18.7141971991307194 28.1128704123049964
 11.2744059169021327 21.1551507875364884 28.1128704123049964
  1.4092421065489333 62.6518011664742076 28.1128704123049964
 52.1440907457606357 52.8878403541712458 28.1128704123049964
 66.2370668559486688 28.4780847820937346 28.1128704123049964
 -1.4093275855641247 48.0059331773597151 28.1128704123049964
 -12.6836913183124267 38.2419723650567462 28.1128704123049964
 -7.0464671323324293 38.2419723650567462 28.1128704123049964
  4.2278966816875769 38.2419723650567462 28.1128704123049964
  9.8651208676675761 38.2419723650567462 28.1128704123049964
 38.0510726816875717 38.2419723650567462 28.1128704123049964
 43.6882968676675674 38.2419723650567462 28.1128704123049964
 53.5533334347540944 45.5649063596139996 28.1128704123049964
 50.7347636207340997 45.5649063596139996 28.1128704123049964
 -16.9115883386306614 40.6829991828024689 28.1128704123049964
 -2.8186547105906588 40.6829991828024689 28.1128704123049964
  5.6371392894093386 40.6829991828024689 28.1128704123049964
 25.3673816613693432 40.6829991828024689 28.1128704123049964
 28.1859514753893379 40.6829991828024689 28.1128704123049964
 -21.1394853183124276 38.2419723650567462 28.1128704123049964
 14.0930178067140996 45.5649063596139996 28.1128704123049964
 53.5533334753893371 40.6829991828024689 28.1128704123049964
 -2.8185701932858982 45.5649063596139996 28.1128704123049964
 59.1905576613693398 40.6829991828024689 28.1128704123049964
 -5.6372245652458988 45.5649063596139996 28.1128704123049964
 -7.0465094519382783 43.1239527712082307 28.1128704123049964
 -8.4557943792659014 45.5649063596139996 28.1128704123049964
 -1.4092852659582757 43.1239527712082307 28.1128704123049964
 -16.9115883792659005 45.5649063596139996 28.1128704123049964
  1.4092845480617260 43.1239527712082307 28.1128704123049964
  9.8650785480617262 43.1239527712082307 28.1128704123049964
 -22.5488125652458997 45.5649063596139996 28.1128704123049964
 18.3208725480617254 43.1239527712082307 28.1128704123049964
 29.5952363620817174 43.1239527712082307 28.1128704123049964
 40.8696847340417122 43.1239527712082307 28.1128704123049964
 47.9161092894093343 40.6829991828024689 28.1128704123049964
 62.0091697949951950 35.8010187766509844 28.1128704123049964
 59.1905154230351869 35.8010187766509844 28.1128704123049964
 50.7347214230351895 35.8010187766509844 28.1128704123049964
 43.6882967457606384 52.8878403541712458 28.1128704123049964
 -16.9115882573589573 30.9190383704995000 28.1128704123049964
 -2.8185700713789608 30.9190383704995000 28.1128704123049964
  2.8185695566610427 30.9190383704995000 28.1128704123049964
 26.7767087457606330 52.8878403541712458 28.1128704123049964
 19.7301575566610410 30.9190383704995000 28.1128704123049964
 22.5488119286210420 30.9190383704995000 28.1128704123049964
  1.4093267457606342 52.8878403541712458 28.1128704123049964
 42.2789697426410385 30.9190383704995000 28.1128704123049964
 47.9161514871082517 50.4468867657654769 28.1128704123049964
 -7.0465516496371885 33.3600651882452155 28.1128704123049964
 39.4603574871082543 50.4468867657654769 28.1128704123049964
  7.0464665363428152 33.3600651882452155 28.1128704123049964
  9.8650363503628089 33.3600651882452155 28.1128704123049964
 36.6417876730882455 50.4468867657654769 28.1128704123049964
 18.3208303503628116 33.3600651882452155 28.1128704123049964
 21.1394847223228126 33.3600651882452155 28.1128704123049964
  1.4092422284558699 48.0059331773597151 28.1128704123049964
  9.8650362284558710 48.0059331773597151 28.1128704123049964
 18.3208302284558755 48.0059331773597151 28.1128704123049964
 19.7301997949951904 35.8010187766509844 28.1128704123049964
 29.5952786004158739 48.0059331773597151 28.1128704123049964
 38.0510726004158641 48.0059331773597151 28.1128704123049964
 57.7812728559486644 28.4780847820937346 28.1128704123049964
 -0.0000425769648080 35.8010187766509844 28.1128704123049964
 -11.2744065128917477 50.4468867657654769 28.1128704123049964
 46.5068667223228047 33.3600651882452155 28.1128704123049964
 38.0510727223228145 33.3600651882452155 28.1128704123049964
 35.2324183503628063 33.3600651882452155 28.1128704123049964
 29.5952787223228171 33.3600651882452155 28.1128704123049964
 22.5487694871082525 50.4468867657654769 28.1128704123049964
 -28.1859945128917460 50.4468867657654769 28.1128704123049964
 28.1859516785679780 16.2731703813850075 28.1128704123049964
 -7.0464670104254905 23.5961043759422537 28.1128704123049964
 15.5022602925289341 62.6518011664742076 28.1128704123049964
 -28.1860369544045355 69.9747351610314468 28.1128704123049964
 -36.6418309544045329 69.9747351610314468 28.1128704123049964
 73.2835338528290663  6.5092827984219914 28.1128704123049964
 35.2325026238536978 67.5337083432857384 28.1128704123049964
 21.1394844378736906 67.5337083432857384 28.1128704123049964
 21.1394849255014528  8.9502363868277595 28.1128704123049964
 12.6836904378736932 67.5337083432857384 28.1128704123049964
 26.7767091114814519  8.9502363868277595 28.1128704123049964
 32.4138487395214483  8.9502363868277595 28.1128704123049964
  9.8651206238536986 67.5337083432857384 28.1128704123049964
 38.0510729255014510  8.9502363868277595 28.1128704123049964
  4.2278964378736958 67.5337083432857384 28.1128704123049964
 49.3254367395214430  8.9502363868277595 28.1128704123049964
  1.4093266238536943 67.5337083432857384 28.1128704123049964
 60.5998851114814414  8.9502363868277595 28.1128704123049964
 -9.8651217481063078 67.5337083432857384 28.1128704123049964
 66.2370247395214449  8.9502363868277595 28.1128704123049964
 -15.5022613761463042 67.5337083432857384 28.1128704123049964
 77.5114731114814504  8.9502363868277595 28.1128704123049964
 -26.7767097481063061 67.5337083432857384 28.1128704123049964
 -2.8186544667767790 11.3912632045734714 28.1128704123049964
 16.9115879051832216 11.3912632045734714 28.1128704123049964
 19.7301577192032234 11.3912632045734714 28.1128704123049964
 53.5533760388090698  6.5092827984219914 28.1128704123049964
 45.0975820388090725  6.5092827984219914 28.1128704123049964
 -25.3673825824445345 69.9747351610314468 28.1128704123049964
 42.2789276668490714  6.5092827984219914 28.1128704123049964
 11.2743638004749194  1.6273023922705114 28.1128704123049964
 16.9115879864549186  1.6273023922705114 28.1128704123049964
 26.7766663042478434 72.4156887494372228 28.1128704123049964
 21.1394421182678336 72.4156887494372228 28.1128704123049964
 39.4604001724349231  1.6273023922705114 28.1128704123049964
 42.2789699864549249  1.6273023922705114 28.1128704123049964
 50.7347639864549222  1.6273023922705114 28.1128704123049964
 76.1021459864549144  1.6273023922705114 28.1128704123049964
 -12.6837338817321594 72.4156887494372228 28.1128704123049964
 -18.3208735097721558 72.4156887494372228 28.1128704123049964
 18.3208305941766909  4.0683292100162243 28.1128704123049964
 28.1859935511813049 65.0927547548799765 28.1128704123049964
 23.9580547801566937  4.0683292100162243 28.1128704123049964
 29.5952789661366928  4.0683292100162243 28.1128704123049964
 40.8696427801566955  4.0683292100162243 28.1128704123049964
 57.7812307801566902  4.0683292100162243 28.1128704123049964
 39.4603150455954648 69.9747351610314468 28.1128704123049964
 71.8742489661366903  4.0683292100162243 28.1128704123049964
 80.3300429661366877  4.0683292100162243 28.1128704123049964
 -0.0000423331509293  6.5092827984219914 28.1128704123049964
  5.6371818528290705  6.5092827984219914 28.1128704123049964
 11.2744060388090670  6.5092827984219914 28.1128704123049964
 36.6417880388090680  6.5092827984219914 28.1128704123049964
 39.4603578528290697  6.5092827984219914 28.1128704123049964
 -21.1395278817321568 72.4156887494372228 28.1128704123049964
 56.3719035332232110 11.3912632045734714 28.1128704123049964
 35.2324605480617166 43.1239527712082307 28.1128704123049964
 -8.4558368207786891 65.0927547548799765 28.1128704123049964
 -36.6417886347986865 65.0927547548799765 28.1128704123049964
 29.5952366058956002 13.8322167929792403 28.1128704123049964
 38.0510724785089351 62.6518011664742076 28.1128704123049964
 21.1394844785089369 62.6518011664742076 28.1128704123049964
 49.3254789778556031 13.8322167929792403 28.1128704123049964
 63.4184126058955968 13.8322167929792403 28.1128704123049964
  8.4557938645479798 16.2731703813850075 28.1128704123049964
 15.5023029778556030 13.8322167929792403 28.1128704123049964
  1.4092847918756004 13.8322167929792403 28.1128704123049964
 46.5068664785089325 62.6518011664742076 28.1128704123049964
 43.6882121065489244 62.6518011664742076 28.1128704123049964
 -25.3673825147179137 61.8380767409990000 28.6327538495249954
 32.4139327962886199 69.1610107355562462 28.6327538495249954
 38.0511147845697053 59.3971231525932382 28.6327538495249954
 19.7302419791490244 47.1922087518845075 28.6327538495249954
 47.9161936712620928 61.8380767409990000 28.6327538495249954
 16.9115876071890092 47.1922087518845075 28.6327538495249954
 14.0930177931690217 47.1922087518845075 28.6327538495249954
 11.2744479791490271 47.1922087518845075 28.6327538495249954
 35.2325026103086287 69.1610107355562462 28.6327538495249954
 38.0510724243286234 69.1610107355562462 28.6327538495249954
 -25.3673825959896213 71.6020375533019688 28.6327538495249954
 33.8231756071890288 47.1922087518845075 28.6327538495249954
 -36.6417464100096169 71.6020375533019688 28.6327538495249954
 40.8697267962886173 69.1610107355562462 28.6327538495249954
 -0.0000003928109814 47.1922087518845075 28.6327538495249954
 21.1394844649638500 64.2791035587447084 28.6327538495249954
 29.5952784243286260 69.1610107355562462 28.6327538495249954
 -2.8185702068309761 47.1922087518845075 28.6327538495249954
 32.4138905985897026 59.3971231525932382 28.6327538495249954
 23.9580544008907985 49.6332355696302230 28.6327538495249954
 -1.4092432037113782 69.1610107355562462 28.6327538495249954
  1.4093266103086164 69.1610107355562462 28.6327538495249954
 21.1394845868707826 49.6332355696302230 28.6327538495249954
  7.0465507962886189 69.1610107355562462 28.6327538495249954
 18.3209147728507951 49.6332355696302230 28.6327538495249954
  9.8651207728507995 49.6332355696302230 28.6327538495249954
 35.2324604126097114 59.3971231525932382 28.6327538495249954
  7.0464664008907913 49.6332355696302230 28.6327538495249954
  9.8651206103086064 69.1610107355562462 28.6327538495249954
  4.2278965868707896 49.6332355696302230 28.6327538495249954
 15.5023447962886092 69.1610107355562462 28.6327538495249954
 -9.8651215991092069 49.6332355696302230 28.6327538495249954
 -12.6836914131292051 49.6332355696302230 28.6327538495249954
 -15.5022612271492086 49.6332355696302230 28.6327538495249954
 -23.9580552271492060 49.6332355696302230 28.6327538495249954
 -26.7767095991092070 49.6332355696302230 28.6327538495249954
 18.3209146103086198 69.1610107355562462 28.6327538495249954
 53.5534179791490246 47.1922087518845075 28.6327538495249954
 39.4603997931690245 47.1922087518845075 28.6327538495249954
 36.6418299791490298 47.1922087518845075 28.6327538495249954
 -8.4557943928109793 47.1922087518845075 28.6327538495249954
 -11.2743642068309775 47.1922087518845075 28.6327538495249954
 -22.5488127819696196 71.6020375533019688 28.6327538495249954
 -1.4092852795033535 44.7512551634787386 28.6327538495249954
  5.6372235899903860 71.6020375533019688 28.6327538495249954
  8.4557934040103735 71.6020375533019688 28.6327538495249954
 -11.2743643287379136 61.8380767409990000 28.6327538495249954
 -4.2278550935233552 44.7512551634787386 28.6327538495249954
 11.2743632180303894 71.6020375533019688 28.6327538495249954
 -7.0465094654833562 44.7512551634787386 28.6327538495249954
 25.3673814852820882 61.8380767409990000 28.6327538495249954
 22.5488116712620865 61.8380767409990000 28.6327538495249954
  2.8185692180303707 71.6020375533019688 28.6327538495249954
 19.7301572180303850 71.6020375533019688 28.6327538495249954
 -18.3208732795033562 44.7512551634787386 28.6327538495249954
 -21.1394430935233544 44.7512551634787386 28.6327538495249954
 -8.4557945147179190 61.8380767409990000 28.6327538495249954
 28.1859512180303895 71.6020375533019688 28.6327538495249954
 53.5533334618442680 42.3103015750729767 28.6327538495249954
 50.7347636478242734 42.3103015750729767 28.6327538495249954
 42.2789696478242618 42.3103015750729767 28.6327538495249954
 19.7302418572420777 61.8380767409990000 28.6327538495249954
 36.6417452180303869 71.6020375533019688 28.6327538495249954
 25.3673814040103807 71.6020375533019688 28.6327538495249954
  9.8650785345166412 44.7512551634787386 28.6327538495249954
 12.6837329064766493 44.7512551634787386 28.6327538495249954
 -0.0000005959896168 71.6020375533019688 28.6327538495249954
 -4.2278975756713866 69.1610107355562462 28.6327538495249954
 -14.0929340208509810 47.1922087518845075 28.6327538495249954
 -19.7301582068309784 47.1922087518845075 28.6327538495249954
 -22.5487280208509766 47.1922087518845075 28.6327538495249954
 -19.7301583287379145 61.8380767409990000 28.6327538495249954
 -25.3673823928109776 47.1922087518845075 28.6327538495249954
 54.9627029064766432 44.7512551634787386 28.6327538495249954
 -19.7301584100096186 71.6020375533019688 28.6327538495249954
 52.1440485345166493 44.7512551634787386 28.6327538495249954
 49.3254787204966547 44.7512551634787386 28.6327538495249954
 38.0511149064766485 44.7512551634787386 28.6327538495249954
 -16.9115885959896168 71.6020375533019688 28.6327538495249954
 32.4138907204966458 44.7512551634787386 28.6327538495249954
 29.5953209064766369 44.7512551634787386 28.6327538495249954
 -14.0930187819696204 71.6020375533019688 28.6327538495249954
 26.7766665345166501 44.7512551634787386 28.6327538495249954
 18.3208725345166314 44.7512551634787386 28.6327538495249954
 -16.9115885147179164 61.8380767409990000 28.6327538495249954
 -11.2743644100096230 71.6020375533019688 28.6327538495249954
 15.5023027204966439 44.7512551634787386 28.6327538495249954
 36.6418298572420866 61.8380767409990000 28.6327538495249954
 45.0976238572420840 61.8380767409990000 28.6327538495249954
 -35.2325037210161440 64.2791035587447084 28.6327538495249954
 -15.5022613896913821 69.1610107355562462 28.6327538495249954
 -29.5952372154302985 59.3971231525932382 28.6327538495249954
 -19.7301582881026789 56.9561695641874692 28.6327538495249954
 -31.0045644623637671 66.7200571471504844 28.6327538495249954
 -28.1859946483437653 66.7200571471504844 28.6327538495249954
 -22.5488126600626764 56.9561695641874692 28.6327538495249954
 52.1440907322155596 54.5151427464417537 28.6327538495249954
 49.3255209181955507 54.5151427464417537 28.6327538495249954
  7.0464662789838490 64.2791035587447084 28.6327538495249954
 -21.1394432154303011 59.3971231525932382 28.6327538495249954
 -25.3673402763837679 66.7200571471504844 28.6327538495249954
 -18.3208734014102959 59.3971231525932382 28.6327538495249954
 46.5068665462355568 54.5151427464417537 28.6327538495249954
  4.2278964649638544 64.2791035587447084 28.6327538495249954
 43.6882967322155622 54.5151427464417537 28.6327538495249954
 32.4139329181955560 54.5151427464417537 28.6327538495249954
 -11.2744066483437688 66.7200571471504844 28.6327538495249954
 -15.5023035873902977 59.3971231525932382 28.6327538495249954
 29.5952785462355585 54.5151427464417537 28.6327538495249954
 26.7767087322155568 54.5151427464417537 28.6327538495249954
  1.4093266509438596 64.2791035587447084 28.6327538495249954
 23.9581389181955480 54.5151427464417537 28.6327538495249954
 -8.4557522763837714 66.7200571471504844 28.6327538495249954
 -36.6417886483437698 66.7200571471504844 28.6327538495249954
 -12.6836492154302967 59.3971231525932382 28.6327538495249954
 -23.9580975873902986 59.3971231525932382 28.6327538495249954
 46.5068664649638706 64.2791035587447084 28.6327538495249954
 50.7347635259173302 56.9561695641874692 28.6327538495249954
 47.9161937118973214 56.9561695641874692 28.6327538495249954
 45.0975393399373274 56.9561695641874692 28.6327538495249954
 39.4603998338042672 42.3103015750729767 28.6327538495249954
 18.3209146509438554 64.2791035587447084 28.6327538495249954
 33.8231755259173212 56.9561695641874692 28.6327538495249954
 23.9580542789838589 64.2791035587447084 28.6327538495249954
 31.0046057118973302 56.9561695641874692 28.6327538495249954
 26.7767086509438528 64.2791035587447084 28.6327538495249954
 28.1859513399373292 56.9561695641874692 28.6327538495249954
 16.9115875259173158 56.9561695641874692 28.6327538495249954
 -26.7766674014102968 59.3971231525932382 28.6327538495249954
 14.0930177118973283 56.9561695641874692 28.6327538495249954
  2.8185693399373224 56.9561695641874692 28.6327538495249954
 29.5952784649638616 64.2791035587447084 28.6327538495249954
 -0.0000004740826793 56.9561695641874692 28.6327538495249954
 -2.8185702881026811 56.9561695641874692 28.6327538495249954
 38.0510724649638732 64.2791035587447084 28.6327538495249954
 -5.6372246600626781 56.9561695641874692 28.6327538495249954
 15.5022602789838597 64.2791035587447084 28.6327538495249954
 -8.4557944740826727 56.9561695641874692 28.6327538495249954
 -16.9115884740826736 56.9561695641874692 28.6327538495249954
 18.3209147322155452 54.5151427464417537 28.6327538495249954
 -2.8186126483437688 66.7200571471504844 28.6327538495249954
 12.6836905462355407 54.5151427464417537 28.6327538495249954
 31.0045634735631737 52.0741891580359919 28.6327538495249954
 45.0975815376362448 66.7200571471504844 28.6327538495249954
 28.1859936595431719 52.0741891580359919 28.6327538495249954
 -38.0510735756713814 69.1610107355562462 28.6327538495249954
 25.3674238455231631 52.0741891580359919 28.6327538495249954
 22.5487694735631763 52.0741891580359919 28.6327538495249954
 12.6837327845697061 59.3971231525932382 28.6327538495249954
  5.6371814735631682 52.0741891580359919 28.6327538495249954
 15.5023025985896936 59.3971231525932382 28.6327538495249954
  2.8186116595431669 52.0741891580359919 28.6327538495249954
 -26.7767097210161431 64.2791035587447084 28.6327538495249954
 -26.7766252037113830 69.1610107355562462 28.6327538495249954
  0.0000418455231652 52.0741891580359919 28.6327538495249954
 -28.1859945264368292 52.0741891580359919 28.6327538495249954
 54.9626605868708040 49.6332355696302230 28.6327538495249954
 52.1440907728507952 49.6332355696302230 28.6327538495249954
 18.3208724126097096 59.3971231525932382 28.6327538495249954
 43.6882967728507978 49.6332355696302230 28.6327538495249954
 21.1395267845696964 59.3971231525932382 28.6327538495249954
 40.8696424008908039 49.6332355696302230 28.6327538495249954
 -29.5952795350361448 64.2791035587447084 28.6327538495249954
 -21.1394855350361439 64.2791035587447084 28.6327538495249954
 39.4603574735631781 52.0741891580359919 28.6327538495249954
 42.2790118455231720 52.0741891580359919 28.6327538495249954
 36.6417875376362474 66.7200571471504844 28.6327538495249954
  9.8651207322155532 54.5151427464417537 28.6327538495249954
  0.0000417236162395 66.7200571471504844 28.6327538495249954
 -9.8650794014102949 59.3971231525932382 28.6327538495249954
  1.4093267322155492 54.5151427464417537 28.6327538495249954
  2.8186115376362340 66.7200571471504844 28.6327538495249954
 -7.0465095873903012 59.3971231525932382 28.6327538495249954
 -4.2278974537644496 54.5151427464417537 28.6327538495249954
 -7.0464673490561447 64.2791035587447084 28.6327538495249954
 -12.6836914537644478 54.5151427464417537 28.6327538495249954
 -4.2278552154303037 59.3971231525932382 28.6327538495249954
 38.0510725868707951 49.6332355696302230 28.6327538495249954
 11.2744055376362251 66.7200571471504844 28.6327538495249954
  1.4092844126096999 59.3971231525932382 28.6327538495249954
 -9.8651217210161430 64.2791035587447084 28.6327538495249954
 14.0929753516562410 66.7200571471504844 28.6327538495249954
 -29.5952794537644479 54.5151427464417537 28.6327538495249954
  4.2279387845697078 59.3971231525932382 28.6327538495249954
 19.7301995376362349 66.7200571471504844 28.6327538495249954
  7.0465085985897025 59.3971231525932382 28.6327538495249954
 47.9161514735631755 52.0741891580359919 28.6327538495249954
  2.8186538572420905 61.8380767409990000 28.6327538495249954
 33.8232177236162386 66.7200571471504844 28.6327538495249954
 -23.9580552677844487 54.5151427464417537 28.6327538495249954
 45.0975816595431809 52.0741891580359919 28.6327538495249954
 46.5068667087777357 34.9873675805157234 28.6327538495249954
 33.8231756478242644 42.3103015750729767 28.6327538495249954
 15.5023029643105232 15.4595191852497500 28.6327538495249954
 12.6837331502905215 15.4595191852497500 28.6327538495249954
  9.8650787783305205 15.4595191852497500 28.6327538495249954
  7.0465089643105223 15.4595191852497500 28.6327538495249954
  4.2279391502905188 15.4595191852497500 28.6327538495249954
  1.4092847783305213 15.4595191852497500 28.6327538495249954
 -1.4092850356894804 15.4595191852497500 28.6327538495249954
 73.2835760776181360 13.0185655968439828 28.6327538495249954
 62.0091277056581518 13.0185655968439828 28.6327538495249954
 59.1905578916381430 13.0185655968439828 28.6327538495249954
 50.7347638916381456 13.0185655968439828 28.6327538495249954
 47.9161940776181368 13.0185655968439828 28.6327538495249954
 31.0046060776181456 13.0185655968439828 28.6327538495249954
 28.1859517056581375 13.0185655968439828 28.6327538495249954
 25.3673818916381357 13.0185655968439828 28.6327538495249954
 19.7301577056581365 13.0185655968439828 28.6327538495249954
 16.9115878916381419 13.0185655968439828 28.6327538495249954
 11.2743637056581409 13.0185655968439828 28.6327538495249954
  5.6372240776181393 13.0185655968439828 28.6327538495249954
  2.8185697056581414 13.0185655968439828 28.6327538495249954
 -0.0000001083618602 13.0185655968439828 28.6327538495249954
 -2.8185699223818586 13.0185655968439828 28.6327538495249954
 77.5114730979363742 10.5775387790982709 28.6327538495249954
 66.2371092839163680 10.5775387790982709 28.6327538495249954
 60.5998850979363723 10.5775387790982709 28.6327538495249954
 57.7813152839163777 10.5775387790982709 28.6327538495249954
 49.3255212839163661 10.5775387790982709 28.6327538495249954
 46.5068669119563793 10.5775387790982709 28.6327538495249954
 35.2325030979363731 10.5775387790982709 28.6327538495249954
 29.5953211502905269 15.4595191852497500 28.6327538495249954
 29.5952789119563668 10.5775387790982709 28.6327538495249954
 35.2324607783305126 15.4595191852497500 28.6327538495249954
 46.5069091502905181 15.4595191852497500 28.6327538495249954
 46.5068668306846718 20.3414995914012344 28.6327538495249954
 40.8696426447046761 20.3414995914012344 28.6327538495249954
 38.0510728306846602 20.3414995914012344 28.6327538495249954
 35.2325030166646727 20.3414995914012344 28.6327538495249954
 29.5952788306846699 20.3414995914012344 28.6327538495249954
 23.9580546447046672 20.3414995914012344 28.6327538495249954
 21.1394848306846654 20.3414995914012344 28.6327538495249954
  9.8651210166646699 20.3414995914012344 28.6327538495249954
 -1.4093273552953294 20.3414995914012344 28.6327538495249954
 -9.8651213552953294 20.3414995914012344 28.6327538495249954
 73.2835760369829075 17.9004727736555189 28.6327538495249954
 70.4650062229628986 17.9004727736555189 28.6327538495249954
 67.6463518510029047 17.9004727736555189 28.6327538495249954
 62.0092122229629013 17.9004727736555189 28.6327538495249954
 59.1905578510029073 17.9004727736555189 28.6327538495249954
 50.7347638510029029 17.9004727736555189 28.6327538495249954
 47.9161940369829011 17.9004727736555189 28.6327538495249954
 39.4604000369828896 17.9004727736555189 28.6327538495249954
 36.6418302229629020 17.9004727736555189 28.6327538495249954
 33.8231758510028868 17.9004727736555189 28.6327538495249954
 28.1860362229629082 17.9004727736555189 28.6327538495249954
 25.3673818510029001 17.9004727736555189 28.6327538495249954
 14.0930180369829028 17.9004727736555189 28.6327538495249954
 11.2744482229629011 17.9004727736555189 28.6327538495249954
  8.4557938510029000 17.9004727736555189 28.6327538495249954
  5.6372240369829028 17.9004727736555189 28.6327538495249954
 74.6928609643105261 15.4595191852497500 28.6327538495249954
 71.8742911502905173 15.4595191852497500 28.6327538495249954
 49.3254789643105269 15.4595191852497500 28.6327538495249954
 40.8696849643105153 15.4595191852497500 28.6327538495249954
 21.1394849119563659 10.5775387790982709 28.6327538495249954
 18.3209150979363713 10.5775387790982709 28.6327538495249954
 15.5023452839163713 10.5775387790982709 28.6327538495249954
  7.0464667666116103  5.6956316022867357 28.6327538495249954
  4.2278969525916086  5.6956316022867357 28.6327538495249954
 -1.4093272333883895  5.6956316022867357 28.6327538495249954
 81.7393701588898551  3.2546047845410229 28.6327538495249954
 70.4650063448698489  3.2546047845410229 28.6327538495249954
 67.6463519729098550  3.2546047845410229 28.6327538495249954
 59.1905579729098434  3.2546047845410229 28.6327538495249954
 56.3719881588898417  3.2546047845410229 28.6327538495249954
 42.2789699729098274  3.2546047845410229 28.6327538495249954
 39.4604001588898399  3.2546047845410229 28.6327538495249954
 28.1860363448698337  3.2546047845410229 28.6327538495249954
 25.3673819729098362  3.2546047845410229 28.6327538495249954
 14.0930181588898407  3.2546047845410229 28.6327538495249954
 11.2744483448698372  3.2546047845410229 28.6327538495249954
  8.4557939729098397  3.2546047845410229 28.6327538495249954
 -0.0000000270901599  3.2546047845410229 28.6327538495249954
 83.1486550862174738  0.8136511961352557 28.6327538495249954
 77.5114309002374711  0.8136511961352557 28.6327538495249954
 71.8742912721974676  0.8136511961352557 28.6327538495249954
 69.0556369002374737  0.8136511961352557 28.6327538495249954
 63.4184972721974631  0.8136511961352557 28.6327538495249954
 52.1440489002374647  0.8136511961352557 28.6327538495249954
 43.6882549002374461  0.8136511961352557 28.6327538495249954
 32.4138910862174541  0.8136511961352557 28.6327538495249954
 26.7766669002374584  0.8136511961352557 28.6327538495249954
 23.9580970862174638  0.8136511961352557 28.6327538495249954
 21.1395272721974621  0.8136511961352557 28.6327538495249954
 15.5023030862174611  0.8136511961352557 28.6327538495249954
  4.2279392721974602  0.8136511961352557 28.6327538495249954
  9.8651211385716078  5.6956316022867357 28.6327538495249954
 12.6836909525916113  5.6956316022867357 28.6327538495249954
 23.9580547666116068  5.6956316022867357 28.6327538495249954
 35.2325031385716159  5.6956316022867357 28.6327538495249954
  7.0465512839163686 10.5775387790982709 28.6327538495249954
 -1.4092427160836287 10.5775387790982709 28.6327538495249954
 -4.2278970880436288 10.5775387790982709 28.6327538495249954
 78.9207580252639929  8.1365851906925037 28.6327538495249954
 70.4649640252639955  8.1365851906925037 28.6327538495249954
 67.6463942112439867  8.1365851906925037 28.6327538495249954
 64.8277398392839928  8.1365851906925037 28.6327538495249954
 62.0091700252639910  8.1365851906925037 28.6327538495249954
 59.1906002112439964  8.1365851906925037 28.6327538495249954
 56.3719458392839954  8.1365851906925037 28.6327538495249954
 50.7348062112439848  8.1365851906925037 28.6327538495249954
 47.9161518392839980  8.1365851906925037 28.6327538495249954
 39.4603578392839793  8.1365851906925037 28.6327538495249954
 36.6417880252639918  8.1365851906925037 28.6327538495249954
 49.3254366447046735 20.3414995914012344 28.6327538495249954
 33.8232182112439972  8.1365851906925037 28.6327538495249954
 22.5487698392839881  8.1365851906925037 28.6327538495249954
 19.7302000252639935  8.1365851906925037 28.6327538495249954
 11.2744060252639908  8.1365851906925037 28.6327538495249954
  8.4558362112439873  8.1365851906925037 28.6327538495249954
 -2.8186121607160102  8.1365851906925037 28.6327538495249954
 74.6928187666116230  5.6956316022867357 28.6327538495249954
 71.8742489525916284  5.6956316022867357 28.6327538495249954
 69.0556791385716195  5.6956316022867357 28.6327538495249954
 57.7812307666116141  5.6956316022867357 28.6327538495249954
 54.9626609525916123  5.6956316022867357 28.6327538495249954
 52.1440911385716035  5.6956316022867357 28.6327538495249954
 43.6882971385716132  5.6956316022867357 28.6327538495249954
 40.8696427666115980  5.6956316022867357 28.6327538495249954
 38.0510729525916105  5.6956316022867357 28.6327538495249954
 25.3674242112439856  8.1365851906925037 28.6327538495249954
 60.5998850166646719 20.3414995914012344 28.6327538495249954
 63.4184548306846807 20.3414995914012344 28.6327538495249954
 71.8742488306846781 20.3414995914012344 28.6327538495249954
 -11.2744064045298860 37.4283211689214923 28.6327538495249954
 -14.0929762185498877 37.4283211689214923 28.6327538495249954
 60.5998848947577358 34.9873675805157234 28.6327538495249954
 49.3254365227977445 34.9873675805157234 28.6327538495249954
 39.4603995899903808 71.6020375533019688 28.6327538495249954
 40.8696425227977400 34.9873675805157234 28.6327538495249954
 38.0510727087777383 34.9873675805157234 28.6327538495249954
 35.2325028947577295 34.9873675805157234 28.6327538495249954
 29.5952787087777267 34.9873675805157234 28.6327538495249954
 26.7767088947577392 34.9873675805157234 28.6327538495249954
 18.3209148947577418 34.9873675805157234 28.6327538495249954
 15.5022605227977337 34.9873675805157234 28.6327538495249954
 12.6836907087777320 34.9873675805157234 28.6327538495249954
  9.8651208947577302 34.9873675805157234 28.6327538495249954
 -1.4093274772022688 34.9873675805157234 28.6327538495249954
 -4.2278972912222672 34.9873675805157234 28.6327538495249954
 -9.8651214772022673 34.9873675805157234 28.6327538495249954
 64.8277819150759740 32.5463407627700150 28.6327538495249954
 62.0092121010559580 32.5463407627700150 28.6327538495249954
 59.1905577290959641 32.5463407627700150 28.6327538495249954
 53.5534181010559607 32.5463407627700150 28.6327538495249954
 50.7347637290959668 32.5463407627700150 28.6327538495249954
 47.9161939150759579 32.5463407627700150 28.6327538495249954
 39.4603999150759606 32.5463407627700150 28.6327538495249954
 36.6418301010559517 32.5463407627700150 28.6327538495249954
 33.8231757290959649 32.5463407627700150 28.6327538495249954
 31.0046059150759525 32.5463407627700150 28.6327538495249954
 28.1860361010559650 32.5463407627700150 28.6327538495249954
 22.5488119150759623 32.5463407627700150 28.6327538495249954
 -8.4557520325698885 37.4283211689214923 28.6327538495249954
  8.4558359674301080 37.4283211689214923 28.6327538495249954
 11.2744057814501097 37.4283211689214923 28.6327538495249954
 25.3674239674301170 37.4283211689214923 28.6327538495249954
 31.0046058338042556 42.3103015750729767 28.6327538495249954
 28.1859514618442688 42.3103015750729767 28.6327538495249954
 25.3673816478242529 42.3103015750729767 28.6327538495249954
 19.7301574618442501 42.3103015750729767 28.6327538495249954
 16.9115876478242626 42.3103015750729767 28.6327538495249954
  8.4557936478242581 42.3103015750729767 28.6327538495249954
  2.8185694618442589 42.3103015750729767 28.6327538495249954
 -0.0000003521757358 42.3103015750729767 28.6327538495249954
 -2.8185701661957374 42.3103015750729767 28.6327538495249954
 -11.2743641661957401 42.3103015750729767 28.6327538495249954
 -14.0930185381557376 42.3103015750729767 28.6327538495249954
 -16.9115883521757375 42.3103015750729767 28.6327538495249954
 54.9626606681424974 39.8692747573272612 28.6327538495249954
 52.1440908541225028 39.8692747573272612 28.6327538495249954
 19.7302421010559677 32.5463407627700150 28.6327538495249954
 46.5068666681425000 39.8692747573272612 28.6327538495249954
 29.5952786681424982 39.8692747573272612 28.6327538495249954
 26.7767088541224823 39.8692747573272612 28.6327538495249954
  4.2278966681424874 39.8692747573272612 28.6327538495249954
  1.4093268541224926 39.8692747573272612 28.6327538495249954
 -12.6836913318575100 39.8692747573272612 28.6327538495249954
 -15.5022611458775117 39.8692747573272612 28.6327538495249954
 -18.3208309598975099 39.8692747573272612 28.6327538495249954
 62.0091697814501188 37.4283211689214923 28.6327538495249954
 59.1905999674301100 37.4283211689214923 28.6327538495249954
 53.5533757814501215 37.4283211689214923 28.6327538495249954
 50.7348059674301126 37.4283211689214923 28.6327538495249954
 42.2790119674301152 37.4283211689214923 28.6327538495249954
 39.4603575954701142 37.4283211689214923 28.6327538495249954
 28.1859937814501045 37.4283211689214923 28.6327538495249954
 43.6882968541224912 39.8692747573272612 28.6327538495249954
 36.6417454618442662 42.3103015750729767 28.6327538495249954
 11.2744481010559561 32.5463407627700150 28.6327538495249954
 -2.8185700849240374 32.5463407627700150 28.6327538495249954
 49.3255211620094371 25.2234067682127652 28.6327538495249954
 40.8697271620094256 25.2234067682127652 28.6327538495249954
 38.0510727900494388 25.2234067682127652 28.6327538495249954
 35.2325029760294228 25.2234067682127652 28.6327538495249954
 32.4139331620094353 25.2234067682127652 28.6327538495249954
 26.7767089760294326 25.2234067682127652 28.6327538495249954
 21.1394847900494298 25.2234067682127652 28.6327538495249954
 15.5023451620094264 25.2234067682127652 28.6327538495249954
 12.6836907900494289 25.2234067682127652 28.6327538495249954
  9.8651209760294343 25.2234067682127652 28.6327538495249954
 -1.4092428379905699 25.2234067682127652 28.6327538495249954
 -4.2278972099505676 25.2234067682127652 28.6327538495249954
 -7.0464670239705693 25.2234067682127652 28.6327538495249954
 -12.6836912099505668 25.2234067682127652 28.6327538495249954
 62.0091699033570620 22.7824531798069998 28.6327538495249954
 59.1906000893370532 22.7824531798069998 28.6327538495249954
 56.3719457173770593 22.7824531798069998 28.6327538495249954
 50.7348060893370558 22.7824531798069998 28.6327538495249954
 47.9161517173770548 22.7824531798069998 28.6327538495249954
 36.6417879033570415 22.7824531798069998 28.6327538495249954
 31.0045637173770388 22.7824531798069998 28.6327538495249954
 25.3674240893370566 22.7824531798069998 28.6327538495249954
 22.5487697173770485 22.7824531798069998 28.6327538495249954
 19.7301999033570468 22.7824531798069998 28.6327538495249954
  8.4558360893370512 22.7824531798069998 28.6327538495249954
  0.0000420893370479 22.7824531798069998 28.6327538495249954
 -2.8186122826229494 22.7824531798069998 28.6327538495249954
 -5.6371820966429516 22.7824531798069998 28.6327538495249954
 -11.2744062826229499 22.7824531798069998 28.6327538495249954
 52.1440909760294318 25.2234067682127652 28.6327538495249954
 54.9626607900494406 25.2234067682127652 28.6327538495249954
 57.7813151620094345 25.2234067682127652 28.6327538495249954
 -14.0930184162487979 27.6644335859584807 28.6327538495249954
 -5.6371398989440404 32.5463407627700150 28.6327538495249954
 -8.4557942709040379 32.5463407627700150 28.6327538495249954
 -11.2743640849240396 32.5463407627700150 28.6327538495249954
 66.2370668424035927 30.1053871743642461 28.6327538495249954
 63.4184970283835838 30.1053871743642461 28.6327538495249954
 60.5998426564235899 30.1053871743642461 28.6327538495249954
 52.1440486564235925 30.1053871743642461 28.6327538495249954
 40.8696848424035863 30.1053871743642461 28.6327538495249954
 38.0511150283835775 30.1053871743642461 28.6327538495249954
 21.1395270283835863 30.1053871743642461 28.6327538495249954
 18.3208726564235782 30.1053871743642461 28.6327538495249954
  9.8650786564235791 30.1053871743642461 28.6327538495249954
  7.0465088424035836 30.1053871743642461 28.6327538495249954
  4.2279390283835818 30.1053871743642461 28.6327538495249954
  8.4557937290959586 32.5463407627700150 28.6327538495249954
 -1.4092851575964171 30.1053871743642461 28.6327538495249954
 -15.5023033435764184 30.1053871743642461 28.6327538495249954
 67.6463517697312113 27.6644335859584807 28.6327538495249954
 62.0091275837512086 27.6644335859584807 28.6327538495249954
 59.1905577697312140 27.6644335859584807 28.6327538495249954
 53.5533335837512112 27.6644335859584807 28.6327538495249954
 47.9161939557112078 27.6644335859584807 28.6327538495249954
 36.6417455837512094 27.6644335859584807 28.6327538495249954
 22.5488119557112086 27.6644335859584807 28.6327538495249954
 19.7301575837512004 27.6644335859584807 28.6327538495249954
 11.2743635837511977 27.6644335859584807 28.6327538495249954
  8.4557937697312031 27.6644335859584807 28.6327538495249954
 -0.0000002302687971 27.6644335859584807 28.6327538495249954
 -2.8185700442888009 27.6644335859584807 28.6327538495249954
 -11.2743640442888005 27.6644335859584807 28.6327538495249954
 -12.6836489716164174 30.1053871743642461 28.6327538495249954
 42.2789694040103896 71.6020375533019688 28.6327538495249954
