 H  O 
 1.0000000000000000
    84.5579400000000021    0.0000000000000000    0.0000000000000000
   -42.2789706095346958   73.2293399455724767    0.0000000000000000
     0.0000000000000000    0.0000000000000000   46.9039550000000034
 H   O  
 236 228
Cartesian
 -21.1394853183124276 38.2419723650567462 28.1128704123049964
 18.3208726699686650 28.4780847820937346 28.1128704123049964
 26.7766666699686624 28.4780847820937346 28.1128704123049964
 38.0510304839886544 28.4780847820937346 28.1128704123049964
 46.5068244839886518 28.4780847820937346 28.1128704123049964
 49.3254788559486528 28.4780847820937346 28.1128704123049964
 -32.4139338934510661 62.6518011664742076 28.1128704123049964
 45.0975393128471538 60.2107743487284921 28.1128704123049964
 39.4603996848071645 60.2107743487284921 28.1128704123049964
 28.1859513128471555 60.2107743487284921 28.1128704123049964
 25.3673814988271609 60.2107743487284921 28.1128704123049964
 22.5488116848071662 60.2107743487284921 28.1128704123049964
 -5.6372244433389582 30.9190383704995000 28.1128704123049964
 19.7301573128471581 60.2107743487284921 28.1128704123049964
 -0.0000005011728327 60.2107743487284921 28.1128704123049964
 12.6836484839886605 28.4780847820937346 28.1128704123049964
 -2.8185703151928343 60.2107743487284921 28.1128704123049964
 42.2789697426410385 30.9190383704995000 28.1128704123049964
 56.3719879286210457 30.9190383704995000 28.1128704123049964
 62.0091275566610349 30.9190383704995000 28.1128704123049964
 -9.8651214636571893 33.3600651882452155 28.1128704123049964
 -4.2278972776771910 33.3600651882452155 28.1128704123049964
  7.0464665363428152 33.3600651882452155 28.1128704123049964
 49.3254786121347877 57.7698207603227232 28.1128704123049964
 26.7766243503628161 33.3600651882452155 28.1128704123049964
 35.2324183503628063 33.3600651882452155 28.1128704123049964
 23.9580966121347885 57.7698207603227232 28.1128704123049964
 40.8696425363428091 33.3600651882452155 28.1128704123049964
 43.6882123503628037 33.3600651882452155 28.1128704123049964
 18.3208724261547857 57.7698207603227232 28.1128704123049964
 54.9626607223228163 33.3600651882452155 28.1128704123049964
 36.6417455566610357 30.9190383704995000 28.1128704123049964
 12.6836482401747883 57.7698207603227232 28.1128704123049964
  9.8650786699686659 28.4780847820937346 28.1128704123049964
 -7.0465093300313377 28.4780847820937346 28.1128704123049964
 46.5068664785089325 62.6518011664742076 28.1128704123049964
 42.2789275449421211 21.1551507875364884 28.1128704123049964
 40.8696422925289298 62.6518011664742076 28.1128704123049964
 47.9161517309221239 21.1551507875364884 28.1128704123049964
 50.7347215449421185 21.1551507875364884 28.1128704123049964
 -12.6836911964054888 23.5961043759422537 28.1128704123049964
 38.0510724785089351 62.6518011664742076 28.1128704123049964
 35.2324181065489270 62.6518011664742076 28.1128704123049964
  4.2278968035945095 23.5961043759422537 28.1128704123049964
 32.4138482925289324 62.6518011664742076 28.1128704123049964
 21.1394848035945166 23.5961043759422537 28.1128704123049964
 38.0510728035945078 23.5961043759422537 28.1128704123049964
 46.5068668035945052 23.5961043759422537 28.1128704123049964
 54.9626608035945097 23.5961043759422537 28.1128704123049964
  4.2278544839886631 28.4780847820937346 28.1128704123049964
 57.7812306176145043 23.5961043759422537 28.1128704123049964
 -16.9116306988717469 50.4468867657654769 28.1128704123049964
 -11.2744485886837182 26.0371311936879657 28.1128704123049964
 -8.4557942167237172 26.0371311936879657 28.1128704123049964
 23.9580542925289315 62.6518011664742076 28.1128704123049964
 11.2743635972962863 26.0371311936879657 28.1128704123049964
 14.0929334113162810 26.0371311936879657 28.1128704123049964
 22.5487274113162819 26.0371311936879657 28.1128704123049964
  1.4092421065489333 62.6518011664742076 28.1128704123049964
 -1.4093277074710613 62.6518011664742076 28.1128704123049964
 -7.0465518934510678 62.6518011664742076 28.1128704123049964
 42.2789697832762812 26.0371311936879657 28.1128704123049964
 -15.5023458934510643 62.6518011664742076 28.1128704123049964
 -26.7767097074710669 62.6518011664742076 28.1128704123049964
 -15.5023033300313369 28.4780847820937346 28.1128704123049964
 63.4184548035945070 23.5961043759422537 28.1128704123049964
 33.8231335449421309 21.1551507875364884 28.1128704123049964
 -19.7302003909848089 35.8010187766509844 28.1128704123049964
 -5.6371822050048115 35.8010187766509844 28.1128704123049964
 -4.2279396379182765 43.1239527712082307 28.1128704123049964
  1.4092845480617260 43.1239527712082307 28.1128704123049964
  9.8650785480617262 43.1239527712082307 28.1128704123049964
 21.1394423620817271 43.1239527712082307 28.1128704123049964
 26.7766665480617228 43.1239527712082307 28.1128704123049964
 32.4138907340417219 43.1239527712082307 28.1128704123049964
 38.0510303620817112 43.1239527712082307 28.1128704123049964
 21.1394845597806302 52.8878403541712458 28.1128704123049964
 54.9626183620817130 43.1239527712082307 28.1128704123049964
 57.7812727340417212 43.1239527712082307 28.1128704123049964
 15.5022603738006346 52.8878403541712458 28.1128704123049964
 12.6836905597806329 52.8878403541712458 28.1128704123049964
 -8.4557943792659014 45.5649063596139996 28.1128704123049964
 -5.6372245652458988 45.5649063596139996 28.1128704123049964
 46.5068665597806330 52.8878403541712458 28.1128704123049964
  5.6372238067141032 45.5649063596139996 28.1128704123049964
 16.9115876207341032 45.5649063596139996 28.1128704123049964
  1.4093267457606342 52.8878403541712458 28.1128704123049964
 -7.0464672542393672 52.8878403541712458 28.1128704123049964
 50.7347636207340997 45.5649063596139996 28.1128704123049964
 -12.6836913995841307 48.0059331773597151 28.1128704123049964
 50.7347213011282463 50.4468867657654769 28.1128704123049964
 39.4603574871082543 50.4468867657654769 28.1128704123049964
 31.0045634871082498 50.4468867657654769 28.1128704123049964
 19.7301996730882578 50.4468867657654769 28.1128704123049964
 14.0929754871082551 50.4468867657654769 28.1128704123049964
 35.2324182284558631 48.0059331773597151 28.1128704123049964
  2.8186116730882564 50.4468867657654769 28.1128704123049964
 43.6882122284558676 48.0059331773597151 28.1128704123049964
 -5.6371823269117440 50.4468867657654769 28.1128704123049964
  8.4557936207341040 45.5649063596139996 28.1128704123049964
  9.8650784261547866 57.7698207603227232 28.1128704123049964
 -15.5023034519382783 43.1239527712082307 28.1128704123049964
 -23.9580974519382757 43.1239527712082307 28.1128704123049964
 -2.8186123909848098 35.8010187766509844 28.1128704123049964
  4.2278542401747847 57.7698207603227232 28.1128704123049964
  5.6371816090151947 35.8010187766509844 28.1128704123049964
 -9.8650793878652134 57.7698207603227232 28.1128704123049964
 25.3673394230351938 35.8010187766509844 28.1128704123049964
 33.8231334230351877 35.8010187766509844 28.1128704123049964
 39.4603576090151904 35.8010187766509844 28.1128704123049964
 59.1905154230351869 35.8010187766509844 28.1128704123049964
 -18.3209155042924259 38.2419723650567462 28.1128704123049964
 -9.8651215042924267 38.2419723650567462 28.1128704123049964
 -4.2278973183124275 38.2419723650567462 28.1128704123049964
  1.4093268676675752 38.2419723650567462 28.1128704123049964
  7.0464664957075716 38.2419723650567462 28.1128704123049964
 42.2789695394624090 55.3288671719169614 28.1128704123049964
 -21.1395276379182775 43.1239527712082307 28.1128704123049964
 15.5022604957075725 38.2419723650567462 28.1128704123049964
 23.9580544957075787 38.2419723650567462 28.1128704123049964
 25.3673815394624036 55.3288671719169614 28.1128704123049964
 38.0510726816875717 38.2419723650567462 28.1128704123049964
 40.8696424957075664 38.2419723650567462 28.1128704123049964
 46.5068666816875762 38.2419723650567462 28.1128704123049964
 52.1440908676675789 38.2419723650567462 28.1128704123049964
 57.7812304957075682 38.2419723650567462 28.1128704123049964
 60.5998848676675763 38.2419723650567462 28.1128704123049964
 -22.5488125246106605 40.6829991828024689 28.1128704123049964
 -2.8186548324975988 55.3288671719169614 28.1128704123049964
 -19.7302428324975985 55.3288671719169614 28.1128704123049964
 28.1859514753893379 40.6829991828024689 28.1128704123049964
 31.0045212894093325 40.6829991828024689 28.1128704123049964
 -22.5488126465175966 55.3288671719169614 28.1128704123049964
 36.6417453534824062 55.3288671719169614 28.1128704123049964
 31.0045637309221327 21.1551507875364884 28.1128704123049964
 26.7766241065489261 62.6518011664742076 28.1128704123049964
 22.5487275332232180 11.3912632045734714 28.1128704123049964
 15.5022607395214518  8.9502363868277595 28.1128704123049964
 -22.5488127684245363 69.9747351610314468 28.1128704123049964
 -28.1860369544045355 69.9747351610314468 28.1128704123049964
 38.0510729255014510  8.9502363868277595 28.1128704123049964
 49.3254367395214430  8.9502363868277595 28.1128704123049964
 -31.0046067684245337 69.9747351610314468 28.1128704123049964
 69.0556791114814530  8.9502363868277595 28.1128704123049964
 71.8742489255014476  8.9502363868277595 28.1128704123049964
 -33.8231765824445318 69.9747351610314468 28.1128704123049964
 77.5114731114814504  8.9502363868277595 28.1128704123049964
 -5.6372242807967794 11.3912632045734714 28.1128704123049964
 -36.6418309544045329 69.9747351610314468 28.1128704123049964
  8.4557939051832172 11.3912632045734714 28.1128704123049964
 14.0929335332232206 11.3912632045734714 28.1128704123049964
 16.9115879051832216 11.3912632045734714 28.1128704123049964
 25.3673395449421299 21.1551507875364884 28.1128704123049964
 43.6882966238536952 67.5337083432857384 28.1128704123049964
 40.8696422518936870 67.5337083432857384 28.1128704123049964
 35.2325026238536978 67.5337083432857384 28.1128704123049964
 45.0975397192032190 11.3912632045734714 28.1128704123049964
 56.3719035332232110 11.3912632045734714 28.1128704123049964
 21.1394844378736906 67.5337083432857384 28.1128704123049964
 73.2834915332232129 11.3912632045734714 28.1128704123049964
 -7.0465092081243990 13.8322167929792403 28.1128704123049964
 -4.2279393941043990 13.8322167929792403 28.1128704123049964
  1.4092847918756004 13.8322167929792403 28.1128704123049964
 26.7766667918756056 13.8322167929792403 28.1128704123049964
 -16.9115885824445336 69.9747351610314468 28.1128704123049964
 38.0510306058956047 13.8322167929792403 28.1128704123049964
 -1.4093272604785494  8.9502363868277595 28.1128704123049964
 78.9207580388090690  6.5092827984219914 28.1128704123049964
  5.6372241724349186  1.6273023922705114 28.1128704123049964
 32.4138904902278497 72.4156887494372228 28.1128704123049964
 19.7301578004749203  1.6273023922705114 28.1128704123049964
 25.3673819864549230  1.6273023922705114 28.1128704123049964
 28.1859518004749177  1.6273023922705114 28.1128704123049964
 31.0046061724349222  1.6273023922705114 28.1128704123049964
 36.6417458004749221  1.6273023922705114 28.1128704123049964
 39.4604001724349231  1.6273023922705114 28.1128704123049964
 45.0975398004749266  1.6273023922705114 28.1128704123049964
 18.3208723042478390 72.4156887494372228 28.1128704123049964
  9.8650783042478416 72.4156887494372228 28.1128704123049964
 78.9207158004749090  1.6273023922705114 28.1128704123049964
 -4.2279398817321576 72.4156887494372228 28.1128704123049964
 -32.4138916957521559 72.4156887494372228 28.1128704123049964
 18.3208305941766909  4.0683292100162243 28.1128704123049964
 49.3254367801566929  4.0683292100162243 28.1128704123049964
 60.5998005941766849  4.0683292100162243 28.1128704123049964
 71.8742489661366903  4.0683292100162243 28.1128704123049964
  5.6371818528290705  6.5092827984219914 28.1128704123049964
 19.7302000388090732  6.5092827984219914 28.1128704123049964
 33.8231336668490670  6.5092827984219914 28.1128704123049964
 42.2789276668490714  6.5092827984219914 28.1128704123049964
 -5.6372247684245327 69.9747351610314468 28.1128704123049964
 56.3719458528290644  6.5092827984219914 28.1128704123049964
 62.0091700388090601  6.5092827984219914 28.1128704123049964
 64.8277398528290689  6.5092827984219914 28.1128704123049964
 76.1021036668490609  6.5092827984219914 28.1128704123049964
 -11.2744489544045354 69.9747351610314468 28.1128704123049964
 43.6882547918756003 13.8322167929792403 28.1128704123049964
 -19.7302005128917450 50.4468867657654769 28.1128704123049964
 -7.0464673761463033 67.5337083432857384 28.1128704123049964
 32.4138486582497549 18.7141971991307194 28.1128704123049964
 19.7301576785679771 16.2731703813850075 28.1128704123049964
 25.3673818645479834 16.2731703813850075 28.1128704123049964
 -11.2744062690778684 21.1551507875364884 28.1128704123049964
  5.6371813652013136 65.0927547548799765 28.1128704123049964
 28.1859516785679780 16.2731703813850075 28.1128704123049964
 54.9626608442297453 18.7141971991307194 28.1128704123049964
 69.0555944722697461 18.7141971991307194 28.1128704123049964
 66.2370246582497515 18.7141971991307194 28.1128704123049964
 36.6417456785679860 16.2731703813850075 28.1128704123049964
 -18.3209157481063052 67.5337083432857384 28.1128704123049964
 47.9161940505279844 16.2731703813850075 28.1128704123049964
 -26.7767097481063061 67.5337083432857384 28.1128704123049964
 53.5533336785679737 16.2731703813850075 28.1128704123049964
 59.1905578645479835 16.2731703813850075 28.1128704123049964
 -29.5952795621263043 67.5337083432857384 28.1128704123049964
 16.9115451792213065 65.0927547548799765 28.1128704123049964
 25.3673391792213039 65.0927547548799765 28.1128704123049964
 60.5998004722697488 18.7141971991307194 28.1128704123049964
 28.1859935511813049 65.0927547548799765 28.1128704123049964
 -5.6371824488186855 65.0927547548799765 28.1128704123049964
  7.0464666582497495 18.7141971991307194 28.1128704123049964
 -1.4093277481063067 67.5337083432857384 28.1128704123049964
 52.1440487918755977 13.8322167929792403 28.1128704123049964
 52.1440064722697443 18.7141971991307194 28.1128704123049964
 54.9626186058955923 13.8322167929792403 28.1128704123049964
 57.7812729778555934 13.8322167929792403 28.1128704123049964
 14.0929757309221344 21.1551507875364884 28.1128704123049964
 -16.9116308207786865 65.0927547548799765 28.1128704123049964
  8.4557515449421317 21.1551507875364884 28.1128704123049964
 38.0510728442297577 18.7141971991307194 28.1128704123049964
  2.8185696785679806 16.2731703813850075 28.1128704123049964
 -11.2744066347986838 65.0927547548799765 28.1128704123049964
 71.8742066058955942 13.8322167929792403 28.1128704123049964
 74.6928609778556023 13.8322167929792403 28.1128704123049964
 -0.0000424550578693 21.1551507875364884 28.1128704123049964
 57.7812306582497541 18.7141971991307194 28.1128704123049964
 25.3674238455231631 52.0741891580359919 28.6327538495249954
 31.0046056712620839 61.8380767409990000 28.6327538495249954
 28.1859936595431719 52.0741891580359919 28.6327538495249954
 42.2790118455231720 52.0741891580359919 28.6327538495249954
 39.4603574735631781 52.0741891580359919 28.6327538495249954
 33.8232178455231747 52.0741891580359919 28.6327538495249954
 32.4139327962886199 69.1610107355562462 28.6327538495249954
 35.2325026103086287 69.1610107355562462 28.6327538495249954
 12.6836904649638509 64.2791035587447084 28.6327538495249954
 29.5952784243286260 69.1610107355562462 28.6327538495249954
 -21.1394432154303011 59.3971231525932382 28.6327538495249954
 -0.0000005959896168 71.6020375533019688 28.6327538495249954
  9.8651206509438563 64.2791035587447084 28.6327538495249954
 -26.7767097210161431 64.2791035587447084 28.6327538495249954
 33.8231754040103922 71.6020375533019688 28.6327538495249954
 -21.1394855350361439 64.2791035587447084 28.6327538495249954
 31.0046055899903834 71.6020375533019688 28.6327538495249954
  7.0464664008907913 49.6332355696302230 28.6327538495249954
 26.7767087728507853 49.6332355696302230 28.6327538495249954
 -12.6836915350361448 64.2791035587447084 28.6327538495249954
 -28.1859945264368292 52.0741891580359919 28.6327538495249954
 -22.5487703404568300 52.0741891580359919 28.6327538495249954
 -11.2744065264368292 52.0741891580359919 28.6327538495249954
 -8.4557521544768282 52.0741891580359919 28.6327538495249954
 25.3673814040103807 71.6020375533019688 28.6327538495249954
  8.4558358455231772 52.0741891580359919 28.6327538495249954
 -11.2743644100096230 71.6020375533019688 28.6327538495249954
 -22.5488127819696196 71.6020375533019688 28.6327538495249954
 -39.4604007819696179 71.6020375533019688 28.6327538495249954
 23.9581387962886225 69.1610107355562462 28.6327538495249954
 -12.6836914537644478 54.5151427464417537 28.6327538495249954
 47.9161514735631755 52.0741891580359919 28.6327538495249954
 -2.8185702881026811 56.9561695641874692 28.6327538495249954
 -8.4557522763837714 66.7200571471504844 28.6327538495249954
 -38.0510735756713814 69.1610107355562462 28.6327538495249954
 -2.8186126483437688 66.7200571471504844 28.6327538495249954
 31.0045633516562411 66.7200571471504844 28.6327538495249954
  0.0000417236162395 66.7200571471504844 28.6327538495249954
 19.7301995376362349 66.7200571471504844 28.6327538495249954
 14.0929753516562410 66.7200571471504844 28.6327538495249954
 -14.0930186600626755 56.9561695641874692 28.6327538495249954
  1.4092844126096999 59.3971231525932382 28.6327538495249954
 28.1859513399373292 56.9561695641874692 28.6327538495249954
 31.0046057118973302 56.9561695641874692 28.6327538495249954
 33.8231755259173212 56.9561695641874692 28.6327538495249954
 -18.3208734014102959 59.3971231525932382 28.6327538495249954
 11.2744055376362251 66.7200571471504844 28.6327538495249954
 50.7347635259173302 56.9561695641874692 28.6327538495249954
 -29.5952372154302985 59.3971231525932382 28.6327538495249954
 -26.7766674014102968 59.3971231525932382 28.6327538495249954
  2.8186115376362340 66.7200571471504844 28.6327538495249954
 21.1394844243286215 69.1610107355562462 28.6327538495249954
 -31.0045221427579136 61.8380767409990000 28.6327538495249954
 -16.9115884740826736 56.9561695641874692 28.6327538495249954
 15.5023447962886092 69.1610107355562462 28.6327538495249954
  4.2278964243286037 69.1610107355562462 28.6327538495249954
 50.7348058455231694 52.0741891580359919 28.6327538495249954
 -29.5952794537644479 54.5151427464417537 28.6327538495249954
 14.0930176712620749 61.8380767409990000 28.6327538495249954
  1.4093266103086164 69.1610107355562462 28.6327538495249954
  8.4557934852820722 61.8380767409990000 28.6327538495249954
 -18.3208310818044460 54.5151427464417537 28.6327538495249954
 -28.1859523287379155 61.8380767409990000 28.6327538495249954
 -23.9580975873902986 59.3971231525932382 28.6327538495249954
 -1.4092430818044526 54.5151427464417537 28.6327538495249954
  7.0465509181955595 54.5151427464417537 28.6327538495249954
 43.6882966509438617 64.2791035587447084 28.6327538495249954
 -12.6836915756713875 69.1610107355562462 28.6327538495249954
 -11.2743643287379136 61.8380767409990000 28.6327538495249954
 46.5068664649638706 64.2791035587447084 28.6327538495249954
 -31.0046066600626737 56.9561695641874692 28.6327538495249954
 -11.2744066483437688 66.7200571471504844 28.6327538495249954
 15.5022602789838597 64.2791035587447084 28.6327538495249954
 -35.2325037210161440 64.2791035587447084 28.6327538495249954
  4.2279392721974602  0.8136511961352557 28.6327538495249954
 56.3719877931690334 47.1922087518845075 28.6327538495249954
 19.7302422229628966 17.9004727736555189 28.6327538495249954
 16.9115878510028992 17.9004727736555189 28.6327538495249954
 14.0930180369829028 17.9004727736555189 28.6327538495249954
 -2.8185699630171004 17.9004727736555189 28.6327538495249954
 -5.6371397770370981 17.9004727736555189 28.6327538495249954
 -8.4557941489970982 17.9004727736555189 28.6327538495249954
 63.4184971502905270 15.4595191852497500 28.6327538495249954
 49.3254789643105269 15.4595191852497500 28.6327538495249954
 46.5069091502905181 15.4595191852497500 28.6327538495249954
 32.4138909643105251 15.4595191852497500 28.6327538495249954
 15.5023029643105232 15.4595191852497500 28.6327538495249954
 12.6837331502905215 15.4595191852497500 28.6327538495249954
  9.8650787783305205 15.4595191852497500 28.6327538495249954
  7.0465089643105223 15.4595191852497500 28.6327538495249954
 67.6463518916381474 13.0185655968439828 28.6327538495249954
 56.3719880369828985 17.9004727736555189 28.6327538495249954
 64.8277820776181386 13.0185655968439828 28.6327538495249954
 64.8277820369829101 17.9004727736555189 28.6327538495249954
 -4.2278971693153311 20.3414995914012344 28.6327538495249954
  1.4093269760294336 25.2234067682127652 28.6327538495249954
 -4.2278972099505676 25.2234067682127652 28.6327538495249954
 67.6463940893370506 22.7824531798069998 28.6327538495249954
 59.1906000893370532 22.7824531798069998 28.6327538495249954
 19.7301999033570468 22.7824531798069998 28.6327538495249954
 -5.6371820966429516 22.7824531798069998 28.6327538495249954
 -8.4557519106629488 22.7824531798069998 28.6327538495249954
 43.6882970166646629 20.3414995914012344 28.6327538495249954
 40.8696426447046761 20.3414995914012344 28.6327538495249954
 23.9580546447046672 20.3414995914012344 28.6327538495249954
 21.1394848306846654 20.3414995914012344 28.6327538495249954
 15.5022606447046662 20.3414995914012344 28.6327538495249954
 12.6836908306846716 20.3414995914012344 28.6327538495249954
  4.2278968306846716 20.3414995914012344 28.6327538495249954
 -1.4093273552953294 20.3414995914012344 28.6327538495249954
 73.2835760369829075 17.9004727736555189 28.6327538495249954
  5.6372240776181393 13.0185655968439828 28.6327538495249954
 66.2371092839163680 10.5775387790982709 28.6327538495249954
 63.4184549119563812 10.5775387790982709 28.6327538495249954
 76.1021459729098524  3.2546047845410229 28.6327538495249954
 67.6463519729098550  3.2546047845410229 28.6327538495249954
 50.7347639729098461  3.2546047845410229 28.6327538495249954
 47.9161941588898301  3.2546047845410229 28.6327538495249954
 14.0930181588898407  3.2546047845410229 28.6327538495249954
  8.4557939729098397  3.2546047845410229 28.6327538495249954
  2.8186543448698407  3.2546047845410229 28.6327538495249954
 -0.0000000270901599  3.2546047845410229 28.6327538495249954
 77.5114309002374711  0.8136511961352557 28.6327538495249954
 66.2370670862174649  0.8136511961352557 28.6327538495249954
 63.4184972721974631  0.8136511961352557 28.6327538495249954
 54.9627032721974516  0.8136511961352557 28.6327538495249954
 18.3208729002374611  0.8136511961352557 28.6327538495249954
 12.6837332721974576  0.8136511961352557 28.6327538495249954
  7.0465090862174584  0.8136511961352557 28.6327538495249954
 12.6836909525916113  5.6956316022867357 28.6327538495249954
 15.5022607666116095  5.6956316022867357 28.6327538495249954
 23.9580547666116068  5.6956316022867357 28.6327538495249954
 29.5952789525916060  5.6956316022867357 28.6327538495249954
 60.5998850979363723 10.5775387790982709 28.6327538495249954
 38.0510729119563607 10.5775387790982709 28.6327538495249954
 35.2325030979363731 10.5775387790982709 28.6327538495249954
 29.5952789119563668 10.5775387790982709 28.6327538495249954
 26.7767090979363651 10.5775387790982709 28.6327538495249954
 23.9581392839163634 10.5775387790982709 28.6327538495249954
  4.2278969119563712 10.5775387790982709 28.6327538495249954
  7.0465511620094325 25.2234067682127652 28.6327538495249954
 73.2835338392839901  8.1365851906925037 28.6327538495249954
 28.1859940252639873  8.1365851906925037 28.6327538495249954
 25.3674242112439856  8.1365851906925037 28.6327538495249954
 11.2744060252639908  8.1365851906925037 28.6327538495249954
  0.0000422112439907  8.1365851906925037 28.6327538495249954
 -2.8186121607160102  8.1365851906925037 28.6327538495249954
 54.9626609525916123  5.6956316022867357 28.6327538495249954
 43.6882971385716132  5.6956316022867357 28.6327538495249954
 56.3719458392839954  8.1365851906925037 28.6327538495249954
 -23.9580552271492060 49.6332355696302230 28.6327538495249954
 29.5952787900494201 25.2234067682127652 28.6327538495249954
 35.2325029760294228 25.2234067682127652 28.6327538495249954
 47.9161938338042646 42.3103015750729767 28.6327538495249954
 42.2789696478242618 42.3103015750729767 28.6327538495249954
 19.7301574618442501 42.3103015750729767 28.6327538495249954
 11.2743634618442599 42.3103015750729767 28.6327538495249954
  5.6372238338042564 42.3103015750729767 28.6327538495249954
 -11.2743641661957401 42.3103015750729767 28.6327538495249954
 -14.0930185381557376 42.3103015750729767 28.6327538495249954
 49.3255210401024939 39.8692747573272612 28.6327538495249954
 46.5068666681425000 39.8692747573272612 28.6327538495249954
 35.2325028541224938 39.8692747573272612 28.6327538495249954
  9.8651208541224857 39.8692747573272612 28.6327538495249954
  7.0465510401024849 39.8692747573272612 28.6327538495249954
  1.4093268541224926 39.8692747573272612 28.6327538495249954
 -9.8650369598975125 39.8692747573272612 28.6327538495249954
 56.3719455954701161 37.4283211689214923 28.6327538495249954
 50.7347636478242734 42.3103015750729767 28.6327538495249954
 47.9161515954701187 37.4283211689214923 28.6327538495249954
 -18.3208732795033562 44.7512551634787386 28.6327538495249954
 15.5023027204966439 44.7512551634787386 28.6327538495249954
 53.5534179791490246 47.1922087518845075 28.6327538495249954
 39.4603997931690245 47.1922087518845075 28.6327538495249954
 33.8231756071890288 47.1922087518845075 28.6327538495249954
 31.0046057931690235 47.1922087518845075 28.6327538495249954
 28.1860359791490147 47.1922087518845075 28.6327538495249954
 22.5488117931690120 47.1922087518845075 28.6327538495249954
 14.0930177931690217 47.1922087518845075 28.6327538495249954
 -0.0000003928109814 47.1922087518845075 28.6327538495249954
 -2.8185702068309761 47.1922087518845075 28.6327538495249954
 -19.7301582068309784 47.1922087518845075 28.6327538495249954
 -22.5487280208509766 47.1922087518845075 28.6327538495249954
 -25.3673823928109776 47.1922087518845075 28.6327538495249954
 46.5069089064766459 44.7512551634787386 28.6327538495249954
 29.5953209064766369 44.7512551634787386 28.6327538495249954
 18.3208725345166314 44.7512551634787386 28.6327538495249954
 -9.8650792795033553 44.7512551634787386 28.6327538495249954
 31.0045635954701204 37.4283211689214923 28.6327538495249954
 19.7301997814501142 37.4283211689214923 28.6327538495249954
 11.2744057814501097 37.4283211689214923 28.6327538495249954
 21.1395270283835863 30.1053871743642461 28.6327538495249954
 18.3208726564235782 30.1053871743642461 28.6327538495249954
  4.2279390283835818 30.1053871743642461 28.6327538495249954
 -1.4092851575964171 30.1053871743642461 28.6327538495249954
 -12.6836489716164174 30.1053871743642461 28.6327538495249954
 -15.5023033435764184 30.1053871743642461 28.6327538495249954
 67.6463517697312113 27.6644335859584807 28.6327538495249954
 62.0091275837512086 27.6644335859584807 28.6327538495249954
 59.1905577697312140 27.6644335859584807 28.6327538495249954
 56.3719879557112051 27.6644335859584807 28.6327538495249954
 42.2789697697312050 27.6644335859584807 28.6327538495249954
 31.0046059557112059 27.6644335859584807 28.6327538495249954
 54.9626607900494406 25.2234067682127652 28.6327538495249954
 52.1440909760294318 25.2234067682127652 28.6327538495249954
 49.3255211620094371 25.2234067682127652 28.6327538495249954
 32.4138908424035748 30.1053871743642461 28.6327538495249954
 46.5069090283835891 30.1053871743642461 28.6327538495249954
 52.1440486564235925 30.1053871743642461 28.6327538495249954
 66.2370668424035927 30.1053871743642461 28.6327538495249954
 -14.0929762185498877 37.4283211689214923 28.6327538495249954
 36.6417452180303869 71.6020375533019688 28.6327538495249954
 29.5952787087777267 34.9873675805157234 28.6327538495249954
 21.1394847087777364 34.9873675805157234 28.6327538495249954
 18.3209148947577418 34.9873675805157234 28.6327538495249954
  1.4093268947577322 34.9873675805157234 28.6327538495249954
 -15.5022611052422672 34.9873675805157234 28.6327538495249954
 32.4139331620094353 25.2234067682127652 28.6327538495249954
 64.8277819150759740 32.5463407627700150 28.6327538495249954
 39.4603999150759606 32.5463407627700150 28.6327538495249954
 22.5488119150759623 32.5463407627700150 28.6327538495249954
 16.9115877290959595 32.5463407627700150 28.6327538495249954
 14.0930179150759578 32.5463407627700150 28.6327538495249954
  8.4557937290959586 32.5463407627700150 28.6327538495249954
 -11.2743640849240396 32.5463407627700150 28.6327538495249954
 -16.9115882709040370 32.5463407627700150 28.6327538495249954
 50.7347637290959668 32.5463407627700150 28.6327538495249954
 39.4603995899903808 71.6020375533019688 28.6327538495249954
