 H  O 
 1.0000000000000000
    84.5579400000000021    0.0000000000000000    0.0000000000000000
   -42.2789706095346958   73.2293399455724767    0.0000000000000000
     0.0000000000000000    0.0000000000000000   46.9039550000000034
 H   O  
 189 404
Cartesian
 11.2743636785679815 16.2731703813850075 28.1128704123049964
 32.4138486582497549 18.7141971991307194 28.1128704123049964
  8.4557934988271644 60.2107743487284921 28.1128704123049964
 40.8696426582497523 18.7141971991307194 28.1128704123049964
 52.1440062284558650 48.0059331773597151 28.1128704123049964
  2.8185693128471621 60.2107743487284921 28.1128704123049964
 -5.6372246871528393 60.2107743487284921 28.1128704123049964
 -11.2743643151928357 60.2107743487284921 28.1128704123049964
 63.4184547223228137 33.3600651882452155 28.1128704123049964
 69.0555944722697461 18.7141971991307194 28.1128704123049964
 -31.0046066871528367 60.2107743487284921 28.1128704123049964
 14.0930176848071671 60.2107743487284921 28.1128704123049964
 -8.4558364550578684 21.1551507875364884 28.1128704123049964
 -33.8231765011728385 60.2107743487284921 28.1128704123049964
  2.8186119169021282 21.1551507875364884 28.1128704123049964
  5.6371817309221299 21.1551507875364884 28.1128704123049964
 14.0929757309221344 21.1551507875364884 28.1128704123049964
 16.9115455449421290 21.1551507875364884 28.1128704123049964
 25.3673395449421299 21.1551507875364884 28.1128704123049964
 31.0045637309221327 21.1551507875364884 28.1128704123049964
 39.4603577309221265 21.1551507875364884 28.1128704123049964
 45.0975819169021293 21.1551507875364884 28.1128704123049964
 53.5533759169021195 21.1551507875364884 28.1128704123049964
 -2.8186122690778692 21.1551507875364884 28.1128704123049964
 23.9580546582497540 18.7141971991307194 28.1128704123049964
 22.5488116848071662 60.2107743487284921 28.1128704123049964
 43.6882122284558676 48.0059331773597151 28.1128704123049964
 38.0510306058956047 13.8322167929792403 28.1128704123049964
 -31.0045644488186873 65.0927547548799765 28.1128704123049964
 -36.6417886347986865 65.0927547548799765 28.1128704123049964
 43.6882547918756003 13.8322167929792403 28.1128704123049964
 35.2324181065489270 62.6518011664742076 28.1128704123049964
 -4.2278973995841262 48.0059331773597151 28.1128704123049964
 59.1905154230351869 35.8010187766509844 28.1128704123049964
 18.3208723042478390 72.4156887494372228 28.1128704123049964
 45.0975817949951860 35.8010187766509844 28.1128704123049964
  2.8185696785679806 16.2731703813850075 28.1128704123049964
  4.2278965597806355 52.8878403541712458 28.1128704123049964
 36.6417877949951958 35.8010187766509844 28.1128704123049964
  1.4092422284558699 48.0059331773597151 28.1128704123049964
 28.1859516785679780 16.2731703813850075 28.1128704123049964
 32.4138484144358685 48.0059331773597151 28.1128704123049964
 -26.7767097074710669 62.6518011664742076 28.1128704123049964
 35.2324182284558631 48.0059331773597151 28.1128704123049964
 56.3719880505279747 16.2731703813850075 28.1128704123049964
 64.8277820505279863 16.2731703813850075 28.1128704123049964
 67.6463518645479809 16.2731703813850075 28.1128704123049964
 45.0975393128471538 60.2107743487284921 28.1128704123049964
 -1.4093273417502492 18.7141971991307194 28.1128704123049964
 -2.8186123909848098 35.8010187766509844 28.1128704123049964
 59.1905155449421230 21.1551507875364884 28.1128704123049964
 64.8277397309221328 21.1551507875364884 28.1128704123049964
 26.7766243503628161 33.3600651882452155 28.1128704123049964
 -4.2278971964054897 23.5961043759422537 28.1128704123049964
 16.9115875394624062 55.3288671719169614 28.1128704123049964
 -26.7767096261993700 52.8878403541712458 28.1128704123049964
 -2.8186548324975988 55.3288671719169614 28.1128704123049964
 -5.6372246465175939 55.3288671719169614 28.1128704123049964
 -19.7302428324975985 55.3288671719169614 28.1128704123049964
 -22.5488126465175966 55.3288671719169614 28.1128704123049964
 49.3254363738006276 52.8878403541712458 28.1128704123049964
  1.4092846699686612 28.4780847820937346 28.1128704123049964
 43.6882967457606384 52.8878403541712458 28.1128704123049964
 -15.5022612542393716 52.8878403541712458 28.1128704123049964
 38.0510725597806356 52.8878403541712458 28.1128704123049964
 -12.6836914402193699 52.8878403541712458 28.1128704123049964
 15.5023028559486651 28.4780847820937346 28.1128704123049964
 40.8696848559486625 28.4780847820937346 28.1128704123049964
 49.3254788559486528 28.4780847820937346 28.1128704123049964
 23.9580543738006249 52.8878403541712458 28.1128704123049964
 54.9626184839886562 28.4780847820937346 28.1128704123049964
 11.2743635566610401 30.9190383704995000 28.1128704123049964
 63.4184124839886536 28.4780847820937346 28.1128704123049964
 18.3209147457606356 52.8878403541712458 28.1128704123049964
  5.6372239286210437 30.9190383704995000 28.1128704123049964
 -16.9115882573589573 30.9190383704995000 28.1128704123049964
  9.8651207457606311 52.8878403541712458 28.1128704123049964
 -29.5952794402193682 52.8878403541712458 28.1128704123049964
 35.2324607918756030 13.8322167929792403 28.1128704123049964
 22.5487271675023955 55.3288671719169614 28.1128704123049964
 53.5533335566610376 30.9190383704995000 28.1128704123049964
 21.1394422401747804 57.7698207603227232 28.1128704123049964
  7.0464666176145112 23.5961043759422537 28.1128704123049964
 21.1394847223228126 33.3600651882452155 28.1128704123049964
 15.5022605363428152 33.3600651882452155 28.1128704123049964
  7.0465086121347857 57.7698207603227232 28.1128704123049964
  7.0464665363428152 33.3600651882452155 28.1128704123049964
  4.2278967223228134 33.3600651882452155 28.1128704123049964
 43.6882969895745106 23.5961043759422537 28.1128704123049964
 46.5068668035945052 23.5961043759422537 28.1128704123049964
 -1.4093274636571897 33.3600651882452155 28.1128704123049964
 -7.0465516496371885 33.3600651882452155 28.1128704123049964
 -15.5023035738452162 57.7698207603227232 28.1128704123049964
 -11.2744485886837182 26.0371311936879657 28.1128704123049964
 -5.6372244027037182 26.0371311936879657 28.1128704123049964
 -23.9580975738452153 57.7698207603227232 28.1128704123049964
 -26.7766673878652135 57.7698207603227232 28.1128704123049964
  5.6371394113162827 26.0371311936879657 28.1128704123049964
 62.0091275566610349 30.9190383704995000 28.1128704123049964
 14.0929334113162810 26.0371311936879657 28.1128704123049964
 16.9115877832762855 26.0371311936879657 28.1128704123049964
 22.5487274113162819 26.0371311936879657 28.1128704123049964
 28.1859513534823982 55.3288671719169614 28.1128704123049964
 31.0045214113162864 26.0371311936879657 28.1128704123049964
 36.6417455972962784 26.0371311936879657 28.1128704123049964
 -9.8651215855641290 48.0059331773597151 28.1128704123049964
 -0.0000002573589589 30.9190383704995000 28.1128704123049964
 -25.3674248207786874 65.0927547548799765 28.1128704123049964
 54.9626609661366956  4.0683292100162243 28.1128704123049964
 56.3719032894093317 40.6829991828024689 28.1128704123049964
 66.2370247801566876  4.0683292100162243 28.1128704123049964
 69.0555945941766822  4.0683292100162243 28.1128704123049964
 74.6928187801566850  4.0683292100162243 28.1128704123049964
 80.3300429661366877  4.0683292100162243 28.1128704123049964
 47.9161092894093343 40.6829991828024689 28.1128704123049964
 39.4603152894093299 40.6829991828024689 28.1128704123049964
 14.0930178067140996 45.5649063596139996 28.1128704123049964
 31.0045212894093325 40.6829991828024689 28.1128704123049964
 16.9115876613693388 40.6829991828024689 28.1128704123049964
 14.0929332894093395 40.6829991828024689 28.1128704123049964
  8.4557936613693432 40.6829991828024689 28.1128704123049964
  2.8185694753893440 40.6829991828024689 28.1128704123049964
 16.9115876207341032 45.5649063596139996 28.1128704123049964
 -2.8186547105906588 40.6829991828024689 28.1128704123049964
 -28.1859946347986892 65.0927547548799765 28.1128704123049964
 -19.7302427105906588 40.6829991828024689 28.1128704123049964
 21.1394844378736906 67.5337083432857384 28.1128704123049964
 15.5022602518936878 67.5337083432857384 28.1128704123049964
 57.7812304957075682 38.2419723650567462 28.1128704123049964
 -23.9580974519382757 43.1239527712082307 28.1128704123049964
 40.8696427801566955  4.0683292100162243 28.1128704123049964
  8.4557934175554603 69.9747351610314468 28.1128704123049964
 26.7766245941766883  4.0683292100162243 28.1128704123049964
 29.5952363620817174 43.1239527712082307 28.1128704123049964
  9.8650783042478416 72.4156887494372228 28.1128704123049964
 19.7301578004749203  1.6273023922705114 28.1128704123049964
  1.4092843042478451 72.4156887494372228 28.1128704123049964
 42.2789699864549249  1.6273023922705114 28.1128704123049964
 -19.7301581932858987 45.5649063596139996 28.1128704123049964
 -4.2279398817321576 72.4156887494372228 28.1128704123049964
 50.7347639864549222  1.6273023922705114 28.1128704123049964
 53.5533338004749169  1.6273023922705114 28.1128704123049964
 59.1905579864549196  1.6273023922705114 28.1128704123049964
  1.4093271114814494  8.9502363868277595 28.1128704123049964
 -14.0930185652459006 45.5649063596139996 28.1128704123049964
 -26.7766675097721567 72.4156887494372228 28.1128704123049964
 -32.4138916957521559 72.4156887494372228 28.1128704123049964
 81.7393701724349171  1.6273023922705114 28.1128704123049964
 -1.4093272198433096  4.0683292100162243 28.1128704123049964
 -9.8650792659582809 43.1239527712082307 28.1128704123049964
  4.2278969661366892  4.0683292100162243 28.1128704123049964
 28.1859512315754728 69.9747351610314468 28.1128704123049964
 12.6836909661366875  4.0683292100162243 28.1128704123049964
 25.3673814175554639 69.9747351610314468 28.1128704123049964
 21.1394849661366919  4.0683292100162243 28.1128704123049964
 64.8277821724349081  1.6273023922705114 28.1128704123049964
 -7.0464673761463033 67.5337083432857384 28.1128704123049964
 -11.2744487105906597 40.6829991828024689 28.1128704123049964
 40.8696427395214528  8.9502363868277595 28.1128704123049964
 33.8231331792213084 65.0927547548799765 28.1128704123049964
 46.5068669255014484  8.9502363868277595 28.1128704123049964
 52.1440911114814512  8.9502363868277595 28.1128704123049964
 59.1905579051832120 11.3912632045734714 28.1128704123049964
 45.0975394347540970 45.5649063596139996 28.1128704123049964
 60.5998851114814414  8.9502363868277595 28.1128704123049964
 -26.7767095855641273 48.0059331773597151 28.1128704123049964
 32.4138487395214483  8.9502363868277595 28.1128704123049964
 63.4184549255014502  8.9502363868277595 28.1128704123049964
 42.2789271792213057 65.0927547548799765 28.1128704123049964
 25.3673391792213039 65.0927547548799765 28.1128704123049964
 -9.8651217481063078 67.5337083432857384 28.1128704123049964
 77.5114731114814504  8.9502363868277595 28.1128704123049964
 36.6417875511813165 65.0927547548799765 28.1128704123049964
 31.0045633652013137 65.0927547548799765 28.1128704123049964
  8.4557939051832172 11.3912632045734714 28.1128704123049964
 71.8742489255014476  8.9502363868277595 28.1128704123049964
 -4.2279393941043990 13.8322167929792403 28.1128704123049964
 -0.0000000948167802 11.3912632045734714 28.1128704123049964
 -9.8651215042924267 38.2419723650567462 28.1128704123049964
 11.2744055511813173 65.0927547548799765 28.1128704123049964
 -22.5487704488186900 65.0927547548799765 28.1128704123049964
 -19.7302006347986882 65.0927547548799765 28.1128704123049964
 23.9580547395214474  8.9502363868277595 28.1128704123049964
 -12.6836913183124267 38.2419723650567462 28.1128704123049964
 32.4138484957075690 38.2419723650567462 28.1128704123049964
 -15.5023457715441282 48.0059331773597151 28.1128704123049964
 36.6417454347540925 45.5649063596139996 28.1128704123049964
 -8.4558368207786891 65.0927547548799765 28.1128704123049964
 15.5022607395214518  8.9502363868277595 28.1128704123049964
 -15.5023034654833562 44.7512551634787386 28.6327538495249954
 -11.2743642068309775 47.1922087518845075 28.6327538495249954
 31.0046057931690235 47.1922087518845075 28.6327538495249954
 -2.8186125264368322 52.0741891580359919 28.6327538495249954
 22.5488117931690120 47.1922087518845075 28.6327538495249954
 -23.9580974654833554 44.7512551634787386 28.6327538495249954
 -9.8650792795033553 44.7512551634787386 28.6327538495249954
 57.7812727204966521 44.7512551634787386 28.6327538495249954
 -5.6371400208509774 47.1922087518845075 28.6327538495249954
 -22.5487703404568300 52.0741891580359919 28.6327538495249954
 -16.9115461544768308 52.0741891580359919 28.6327538495249954
 -12.6836490935233588 44.7512551634787386 28.6327538495249954
 -2.8185702068309761 47.1922087518845075 28.6327538495249954
 -5.6371823404568273 52.0741891580359919 28.6327538495249954
 -0.0000003928109814 47.1922087518845075 28.6327538495249954
 -25.3673823928109776 47.1922087518845075 28.6327538495249954
 -11.2744065264368292 52.0741891580359919 28.6327538495249954
 -25.3673401544768282 52.0741891580359919 28.6327538495249954
 35.2324605345166475 44.7512551634787386 28.6327538495249954
  4.2279389064766386 44.7512551634787386 28.6327538495249954
 -4.2278550935233552 44.7512551634787386 28.6327538495249954
 -21.1394854131292078 49.6332355696302230 28.6327538495249954
 -1.4093275991092098 49.6332355696302230 28.6327538495249954
 32.4138907204966458 44.7512551634787386 28.6327538495249954
  7.0464664008907913 49.6332355696302230 28.6327538495249954
  9.8651207728507995 49.6332355696302230 28.6327538495249954
 15.5022604008907816 49.6332355696302230 28.6327538495249954
 -23.9580552271492060 49.6332355696302230 28.6327538495249954
 29.5953209064766369 44.7512551634787386 28.6327538495249954
 21.1394845868707826 49.6332355696302230 28.6327538495249954
 26.7766665345166501 44.7512551634787386 28.6327538495249954
 23.9580544008907985 49.6332355696302230 28.6327538495249954
 18.3208725345166314 44.7512551634787386 28.6327538495249954
 35.2325027728508005 49.6332355696302230 28.6327538495249954
 38.0510725868707951 49.6332355696302230 28.6327538495249954
 38.0511149064766485 44.7512551634787386 28.6327538495249954
 56.3719877931690334 47.1922087518845075 28.6327538495249954
 40.8696847204966431 44.7512551634787386 28.6327538495249954
 39.4603997931690245 47.1922087518845075 28.6327538495249954
 54.9626605868708040 49.6332355696302230 28.6327538495249954
  1.4092845345166412 44.7512551634787386 28.6327538495249954
 52.1440907728507952 49.6332355696302230 28.6327538495249954
 54.9627029064766432 44.7512551634787386 28.6327538495249954
 49.3254364008908013 49.6332355696302230 28.6327538495249954
 -7.0465094654833562 44.7512551634787386 28.6327538495249954
 49.3254787204966547 44.7512551634787386 28.6327538495249954
 47.9161937931690360 47.1922087518845075 28.6327538495249954
 12.6837329064766493 44.7512551634787386 28.6327538495249954
 46.5068665868708067 49.6332355696302230 28.6327538495249954
 46.5069089064766459 44.7512551634787386 28.6327538495249954
 43.6882967728507978 49.6332355696302230 28.6327538495249954
 40.8696424008908039 49.6332355696302230 28.6327538495249954
  9.8650785345166412 44.7512551634787386 28.6327538495249954
  1.4092849002374601  0.8136511961352557 28.6327538495249954
 25.3673815259173274 56.9561695641874692 28.6327538495249954
  8.4558358455231772 52.0741891580359919 28.6327538495249954
 36.6417875376362474 66.7200571471504844 28.6327538495249954
 33.8232177236162386 66.7200571471504844 28.6327538495249954
 28.1859935376362323 66.7200571471504844 28.6327538495249954
  2.8186115376362340 66.7200571471504844 28.6327538495249954
 -5.6371824623637705 66.7200571471504844 28.6327538495249954
 -11.2744066483437688 66.7200571471504844 28.6327538495249954
 -14.0929764623637634 66.7200571471504844 28.6327538495249954
 -19.7302006483437680 66.7200571471504844 28.6327538495249954
 -25.3673402763837679 66.7200571471504844 28.6327538495249954
 -31.0045644623637671 66.7200571471504844 28.6327538495249954
 -33.8231342763837688 66.7200571471504844 28.6327538495249954
 -36.6417886483437698 66.7200571471504844 28.6327538495249954
 46.5068664649638706 64.2791035587447084 28.6327538495249954
 38.0510724649638732 64.2791035587447084 28.6327538495249954
 21.1394844649638500 64.2791035587447084 28.6327538495249954
 18.3209146509438554 64.2791035587447084 28.6327538495249954
 15.5022602789838597 64.2791035587447084 28.6327538495249954
  7.0464662789838490 64.2791035587447084 28.6327538495249954
  1.4093266509438596 64.2791035587447084 28.6327538495249954
 -4.2278975350361501 64.2791035587447084 28.6327538495249954
 -7.0464673490561447 64.2791035587447084 28.6327538495249954
 -29.5952795350361448 64.2791035587447084 28.6327538495249954
 36.6418298572420866 61.8380767409990000 28.6327538495249954
 39.4603573516562420 66.7200571471504844 28.6327538495249954
 42.2790117236162359 66.7200571471504844 28.6327538495249954
 45.0975815376362448 66.7200571471504844 28.6327538495249954
 -38.0510735756713814 69.1610107355562462 28.6327538495249954
 14.0930175899903762 71.6020375533019688 28.6327538495249954
 -0.0000005959896168 71.6020375533019688 28.6327538495249954
 -2.8185704100096114 71.6020375533019688 28.6327538495249954
 -8.4557945959896212 71.6020375533019688 28.6327538495249954
 -14.0930187819696204 71.6020375533019688 28.6327538495249954
 40.8697267962886173 69.1610107355562462 28.6327538495249954
 38.0510724243286234 69.1610107355562462 28.6327538495249954
 32.4139327962886199 69.1610107355562462 28.6327538495249954
 23.9581387962886225 69.1610107355562462 28.6327538495249954
 12.6836904243286224 69.1610107355562462 28.6327538495249954
  4.2278964243286037 69.1610107355562462 28.6327538495249954
 33.8231754852820927 61.8380767409990000 28.6327538495249954
  1.4093266103086164 69.1610107355562462 28.6327538495249954
 -4.2278975756713866 69.1610107355562462 28.6327538495249954
 -7.0464673896913883 69.1610107355562462 28.6327538495249954
 -9.8650372037113900 69.1610107355562462 28.6327538495249954
 -12.6836915756713875 69.1610107355562462 28.6327538495249954
 -15.5022613896913821 69.1610107355562462 28.6327538495249954
 -18.3208312037113821 69.1610107355562462 28.6327538495249954
 -21.1394855756713831 69.1610107355562462 28.6327538495249954
 -23.9580553896913813 69.1610107355562462 28.6327538495249954
 -29.5952795756713840 69.1610107355562462 28.6327538495249954
 -32.4138493896913857 69.1610107355562462 28.6327538495249954
 -35.2324192037113804 69.1610107355562462 28.6327538495249954
 -1.4092432037113782 69.1610107355562462 28.6327538495249954
  0.0000418455231652 52.0741891580359919 28.6327538495249954
 28.1860358572420893 61.8380767409990000 28.6327538495249954
  8.4557934852820722 61.8380767409990000 28.6327538495249954
 11.2743633399373131 56.9561695641874692 28.6327538495249954
  2.8185693399373224 56.9561695641874692 28.6327538495249954
 -0.0000004740826793 56.9561695641874692 28.6327538495249954
 -2.8185702881026811 56.9561695641874692 28.6327538495249954
 -5.6372246600626781 56.9561695641874692 28.6327538495249954
 -8.4557944740826727 56.9561695641874692 28.6327538495249954
 -11.2743642881026744 56.9561695641874692 28.6327538495249954
 -19.7301582881026789 56.9561695641874692 28.6327538495249954
 -28.1859522881026763 56.9561695641874692 28.6327538495249954
 35.2325027322155506 54.5151427464417537 28.6327538495249954
 32.4139329181955560 54.5151427464417537 28.6327538495249954
 26.7767087322155568 54.5151427464417537 28.6327538495249954
 21.1394845462355612 54.5151427464417537 28.6327538495249954
  1.4093267322155492 54.5151427464417537 28.6327538495249954
 -4.2278974537644496 54.5151427464417537 28.6327538495249954
 -23.9580552677844487 54.5151427464417537 28.6327538495249954
 50.7348058455231694 52.0741891580359919 28.6327538495249954
 39.4603574735631781 52.0741891580359919 28.6327538495249954
 36.6417876595431693 52.0741891580359919 28.6327538495249954
 28.1859936595431719 52.0741891580359919 28.6327538495249954
 25.3674238455231631 52.0741891580359919 28.6327538495249954
 22.5487694735631763 52.0741891580359919 28.6327538495249954
 14.0929754735631594 52.0741891580359919 28.6327538495249954
 16.9115875259173158 56.9561695641874692 28.6327538495249954
 19.7301573399373318 56.9561695641874692 28.6327538495249954
 22.5488117118973186 56.9561695641874692 28.6327538495249954
 59.1905576478242708 42.3103015750729767 28.6327538495249954
  5.6372236712620847 61.8380767409990000 28.6327538495249954
  2.8186538572420905 61.8380767409990000 28.6327538495249954
 -11.2743643287379136 61.8380767409990000 28.6327538495249954
 -16.9115885147179164 61.8380767409990000 28.6327538495249954
 -19.7301583287379145 61.8380767409990000 28.6327538495249954
 -22.5487281427579163 61.8380767409990000 28.6327538495249954
 -25.3673825147179137 61.8380767409990000 28.6327538495249954
 -33.8231765147179146 61.8380767409990000 28.6327538495249954
 49.3254785985897115 59.3971231525932382 28.6327538495249954
 35.2324604126097114 59.3971231525932382 28.6327538495249954
 26.7766664126097069 59.3971231525932382 28.6327538495249954
 11.2744478572420874 61.8380767409990000 28.6327538495249954
 18.3208724126097096 59.3971231525932382 28.6327538495249954
 -7.0465095873903012 59.3971231525932382 28.6327538495249954
 -15.5023035873902977 59.3971231525932382 28.6327538495249954
 -18.3208734014102959 59.3971231525932382 28.6327538495249954
 50.7347635259173302 56.9561695641874692 28.6327538495249954
 47.9161937118973214 56.9561695641874692 28.6327538495249954
 45.0975393399373274 56.9561695641874692 28.6327538495249954
 42.2789695259173328 56.9561695641874692 28.6327538495249954
 36.6417453399373301 56.9561695641874692 28.6327538495249954
 33.8231755259173212 56.9561695641874692 28.6327538495249954
 31.0046057118973302 56.9561695641874692 28.6327538495249954
 28.1859513399373292 56.9561695641874692 28.6327538495249954
  4.2279387845697078 59.3971231525932382 28.6327538495249954
 56.3719878338042619 42.3103015750729767 28.6327538495249954
 49.3254365227977445 34.9873675805157234 28.6327538495249954
 36.6417454618442662 42.3103015750729767 28.6327538495249954
 32.4138909643105251 15.4595191852497500 28.6327538495249954
 23.9580969643105171 15.4595191852497500 28.6327538495249954
 15.5023029643105232 15.4595191852497500 28.6327538495249954
  7.0465089643105223 15.4595191852497500 28.6327538495249954
 76.1021458916381448 13.0185655968439828 28.6327538495249954
 73.2835760776181360 13.0185655968439828 28.6327538495249954
 70.4649217056581421 13.0185655968439828 28.6327538495249954
 64.8277820776181386 13.0185655968439828 28.6327538495249954
 62.0091277056581518 13.0185655968439828 28.6327538495249954
 53.5533337056581473 13.0185655968439828 28.6327538495249954
 47.9161940776181368 13.0185655968439828 28.6327538495249954
 42.2789698916381340 13.0185655968439828 28.6327538495249954
 35.2324607783305126 15.4595191852497500 28.6327538495249954
 39.4604000776181465 13.0185655968439828 28.6327538495249954
 31.0046060776181456 13.0185655968439828 28.6327538495249954
 25.3673818916381357 13.0185655968439828 28.6327538495249954
 22.5488120776181340 13.0185655968439828 28.6327538495249954
 16.9115878916381419 13.0185655968439828 28.6327538495249954
 14.0930180776181420 13.0185655968439828 28.6327538495249954
 11.2743637056581409 13.0185655968439828 28.6327538495249954
  8.4557938916381428 13.0185655968439828 28.6327538495249954
  5.6372240776181393 13.0185655968439828 28.6327538495249954
  2.8185697056581414 13.0185655968439828 28.6327538495249954
 -0.0000001083618602 13.0185655968439828 28.6327538495249954
 74.6929032839163654 10.5775387790982709 28.6327538495249954
 54.9626609119563767 10.5775387790982709 28.6327538495249954
 33.8231758916381438 13.0185655968439828 28.6327538495249954
 38.0510729119563607 10.5775387790982709 28.6327538495249954
 38.0511151502905278 15.4595191852497500 28.6327538495249954
 52.1440487783305286 15.4595191852497500 28.6327538495249954
 -8.4557519106629488 22.7824531798069998 28.6327538495249954
 71.8742488306846781 20.3414995914012344 28.6327538495249954
 57.7812306447046780 20.3414995914012344 28.6327538495249954
 49.3254366447046735 20.3414995914012344 28.6327538495249954
 29.5952788306846699 20.3414995914012344 28.6327538495249954
 26.7767090166646753 20.3414995914012344 28.6327538495249954
 18.3209150166646637 20.3414995914012344 28.6327538495249954
  9.8651210166646699 20.3414995914012344 28.6327538495249954
  7.0464666447046698 20.3414995914012344 28.6327538495249954
  1.4093270166646681 20.3414995914012344 28.6327538495249954
 73.2835760369829075 17.9004727736555189 28.6327538495249954
 70.4650062229628986 17.9004727736555189 28.6327538495249954
 40.8696849643105153 15.4595191852497500 28.6327538495249954
 64.8277820369829101 17.9004727736555189 28.6327538495249954
 59.1905578510029073 17.9004727736555189 28.6327538495249954
 56.3719880369828985 17.9004727736555189 28.6327538495249954
 45.0976242229628923 17.9004727736555189 28.6327538495249954
 42.2789698510029055 17.9004727736555189 28.6327538495249954
 36.6418302229629020 17.9004727736555189 28.6327538495249954
 25.3673818510029001 17.9004727736555189 28.6327538495249954
 19.7302422229628966 17.9004727736555189 28.6327538495249954
 16.9115878510028992 17.9004727736555189 28.6327538495249954
  5.6372240369829028 17.9004727736555189 28.6327538495249954
  2.8186542229628988 17.9004727736555189 28.6327538495249954
 -5.6371397770370981 17.9004727736555189 28.6327538495249954
 60.5998427783305331 15.4595191852497500 28.6327538495249954
 62.0092122229629013 17.9004727736555189 28.6327538495249954
 -5.6371820966429516 22.7824531798069998 28.6327538495249954
 35.2325030979363731 10.5775387790982709 28.6327538495249954
  4.2278969119563712 10.5775387790982709 28.6327538495249954
 15.5022607666116095  5.6956316022867357 28.6327538495249954
  1.4093271385716108  5.6956316022867357 28.6327538495249954
 -1.4093272333883895  5.6956316022867357 28.6327538495249954
 78.9208003448698463  3.2546047845410229 28.6327538495249954
 62.0092123448698445  3.2546047845410229 28.6327538495249954
 50.7347639729098461  3.2546047845410229 28.6327538495249954
 47.9161941588898301  3.2546047845410229 28.6327538495249954
 45.0976243448698426  3.2546047845410229 28.6327538495249954
 39.4604001588898399  3.2546047845410229 28.6327538495249954
 36.6418303448698452  3.2546047845410229 28.6327538495249954
 31.0046061588898354  3.2546047845410229 28.6327538495249954
 16.9115879729098388  3.2546047845410229 28.6327538495249954
 18.3209151385716105  5.6956316022867357 28.6327538495249954
  8.4557939729098397  3.2546047845410229 28.6327538495249954
 83.1486550862174738  0.8136511961352557 28.6327538495249954
 77.5114309002374711  0.8136511961352557 28.6327538495249954
 71.8742912721974676  0.8136511961352557 28.6327538495249954
 66.2370670862174649  0.8136511961352557 28.6327538495249954
 63.4184972721974631  0.8136511961352557 28.6327538495249954
 54.9627032721974516  0.8136511961352557 28.6327538495249954
 49.3254790862174488  0.8136511961352557 28.6327538495249954
 46.5069092721974613  0.8136511961352557 28.6327538495249954
 26.7766669002374584  0.8136511961352557 28.6327538495249954
 23.9580970862174638  0.8136511961352557 28.6327538495249954
 18.3208729002374611  0.8136511961352557 28.6327538495249954
  7.0465090862174584  0.8136511961352557 28.6327538495249954
 -0.0000000270901599  3.2546047845410229 28.6327538495249954
 12.6836909119563703 10.5775387790982709 28.6327538495249954
 21.1394849525916122  5.6956316022867357 28.6327538495249954
 29.5952789525916060  5.6956316022867357 28.6327538495249954
 -4.2278970880436288 10.5775387790982709 28.6327538495249954
 76.1021882112439840  8.1365851906925037 28.6327538495249954
 73.2835338392839901  8.1365851906925037 28.6327538495249954
 67.6463942112439867  8.1365851906925037 28.6327538495249954
 59.1906002112439964  8.1365851906925037 28.6327538495249954
 56.3719458392839954  8.1365851906925037 28.6327538495249954
 36.6417880252639918  8.1365851906925037 28.6327538495249954
 28.1859940252639873  8.1365851906925037 28.6327538495249954
 19.7302000252639935  8.1365851906925037 28.6327538495249954
 14.0929758392839890  8.1365851906925037 28.6327538495249954
 11.2744060252639908  8.1365851906925037 28.6327538495249954
  5.6371818392839907  8.1365851906925037 28.6327538495249954
 26.7767091385716043  5.6956316022867357 28.6327538495249954
  2.8186120252639890  8.1365851906925037 28.6327538495249954
 71.8742489525916284  5.6956316022867357 28.6327538495249954
 69.0556791385716195  5.6956316022867357 28.6327538495249954
 66.2370247666116256  5.6956316022867357 28.6327538495249954
 63.4184549525916097  5.6956316022867357 28.6327538495249954
 60.5998851385716151  5.6956316022867357 28.6327538495249954
 57.7812307666116141  5.6956316022867357 28.6327538495249954
 49.3254367666116167  5.6956316022867357 28.6327538495249954
 46.5068669525916008  5.6956316022867357 28.6327538495249954
 43.6882971385716132  5.6956316022867357 28.6327538495249954
 40.8696427666115980  5.6956316022867357 28.6327538495249954
 38.0510729525916105  5.6956316022867357 28.6327538495249954
 35.2325031385716159  5.6956316022867357 28.6327538495249954
 -2.8186121607160102  8.1365851906925037 28.6327538495249954
 50.7347636478242734 42.3103015750729767 28.6327538495249954
  0.0000420893370479 22.7824531798069998 28.6327538495249954
 16.9116300893370450 22.7824531798069998 28.6327538495249954
 -5.6371822185498859 37.4283211689214923 28.6327538495249954
 -14.0929762185498877 37.4283211689214923 28.6327538495249954
 -16.9115460325698876 37.4283211689214923 28.6327538495249954
 63.4184547087777446 34.9873675805157234 28.6327538495249954
 60.5998848947577358 34.9873675805157234 28.6327538495249954
 54.9626607087777472 34.9873675805157234 28.6327538495249954
 40.8696425227977400 34.9873675805157234 28.6327538495249954
 32.4138485227977426 34.9873675805157234 28.6327538495249954
 29.5952787087777267 34.9873675805157234 28.6327538495249954
 23.9580545227977240 34.9873675805157234 28.6327538495249954
 12.6836907087777320 34.9873675805157234 28.6327538495249954
  4.2278967087777302 34.9873675805157234 28.6327538495249954
 -2.8186124045298877 37.4283211689214923 28.6327538495249954
  1.4093268947577322 34.9873675805157234 28.6327538495249954
 -12.6836912912222672 34.9873675805157234 28.6327538495249954
 -18.3209154772022664 34.9873675805157234 28.6327538495249954
 64.8277819150759740 32.5463407627700150 28.6327538495249954
 59.1905577290959641 32.5463407627700150 28.6327538495249954
 56.3719879150759695 32.5463407627700150 28.6327538495249954
 53.5534181010559607 32.5463407627700150 28.6327538495249954
 50.7347637290959668 32.5463407627700150 28.6327538495249954
 47.9161939150759579 32.5463407627700150 28.6327538495249954
 45.0976241010559633 32.5463407627700150 28.6327538495249954
 42.2789697290959623 32.5463407627700150 28.6327538495249954
 39.4603999150759606 32.5463407627700150 28.6327538495249954
 33.8231757290959649 32.5463407627700150 28.6327538495249954
 -9.8651214772022673 34.9873675805157234 28.6327538495249954
 31.0046059150759525 32.5463407627700150 28.6327538495249954
  0.0000419674301133 37.4283211689214923 28.6327538495249954
  5.6371815954701097 37.4283211689214923 28.6327538495249954
 33.8231756478242644 42.3103015750729767 28.6327538495249954
 25.3673816478242529 42.3103015750729767 28.6327538495249954
 19.7301574618442501 42.3103015750729767 28.6327538495249954
 16.9115876478242626 42.3103015750729767 28.6327538495249954
 14.0930178338042680 42.3103015750729767 28.6327538495249954
 11.2743634618442599 42.3103015750729767 28.6327538495249954
 -5.6372245381557384 42.3103015750729767 28.6327538495249954
 -14.0930185381557376 42.3103015750729767 28.6327538495249954
 -16.9115883521757375 42.3103015750729767 28.6327538495249954
 -19.7301581661957393 42.3103015750729767 28.6327538495249954
 60.5998848541225001 39.8692747573272612 28.6327538495249954
 52.1440908541225028 39.8692747573272612 28.6327538495249954
  2.8186117814501150 37.4283211689214923 28.6327538495249954
 43.6882968541224912 39.8692747573272612 28.6327538495249954
 -1.4092429598975091 39.8692747573272612 28.6327538495249954
 -12.6836913318575100 39.8692747573272612 28.6327538495249954
 -15.5022611458775117 39.8692747573272612 28.6327538495249954
 62.0091697814501188 37.4283211689214923 28.6327538495249954
 36.6417877814501125 37.4283211689214923 28.6327538495249954
 33.8232179674301037 37.4283211689214923 28.6327538495249954
 28.1859937814501045 37.4283211689214923 28.6327538495249954
 22.5487695954701017 37.4283211689214923 28.6327538495249954
 19.7301997814501142 37.4283211689214923 28.6327538495249954
 14.0929755954701115 37.4283211689214923 28.6327538495249954
 11.2744057814501097 37.4283211689214923 28.6327538495249954
  8.4558359674301080 37.4283211689214923 28.6327538495249954
 35.2325028541224938 39.8692747573272612 28.6327538495249954
  8.4558360893370512 22.7824531798069998 28.6327538495249954
 22.5488119150759623 32.5463407627700150 28.6327538495249954
  2.8186541010559618 32.5463407627700150 28.6327538495249954
 63.4184547900494380 25.2234067682127652 28.6327538495249954
 60.5998849760294434 25.2234067682127652 28.6327538495249954
 57.7813151620094345 25.2234067682127652 28.6327538495249954
 52.1440909760294318 25.2234067682127652 28.6327538495249954
 49.3255211620094371 25.2234067682127652 28.6327538495249954
 46.5068667900494361 25.2234067682127652 28.6327538495249954
 43.6882969760294344 25.2234067682127652 28.6327538495249954
 40.8697271620094256 25.2234067682127652 28.6327538495249954
 38.0510727900494388 25.2234067682127652 28.6327538495249954
 32.4139331620094353 25.2234067682127652 28.6327538495249954
 26.7767089760294326 25.2234067682127652 28.6327538495249954
 18.3209149760294281 25.2234067682127652 28.6327538495249954
 69.0556789760294407 25.2234067682127652 28.6327538495249954
  9.8651209760294343 25.2234067682127652 28.6327538495249954
 -1.4092428379905699 25.2234067682127652 28.6327538495249954
 -4.2278972099505676 25.2234067682127652 28.6327538495249954
 -7.0464670239705693 25.2234067682127652 28.6327538495249954
 67.6463940893370506 22.7824531798069998 28.6327538495249954
 56.3719457173770593 22.7824531798069998 28.6327538495249954
 47.9161517173770548 22.7824531798069998 28.6327538495249954
 42.2790120893370442 22.7824531798069998 28.6327538495249954
 33.8232180893370540 22.7824531798069998 28.6327538495249954
 31.0045637173770388 22.7824531798069998 28.6327538495249954
 28.1859939033570512 22.7824531798069998 28.6327538495249954
 25.3674240893370566 22.7824531798069998 28.6327538495249954
 19.7301999033570468 22.7824531798069998 28.6327538495249954
  1.4093269760294336 25.2234067682127652 28.6327538495249954
 14.0930179150759578 32.5463407627700150 28.6327538495249954
 -8.4557942302688005 27.6644335859584807 28.6327538495249954
  2.8185695837512008 27.6644335859584807 28.6327538495249954
 -11.2743640849240396 32.5463407627700150 28.6327538495249954
 66.2370668424035927 30.1053871743642461 28.6327538495249954
 57.7812728424035953 30.1053871743642461 28.6327538495249954
 52.1440486564235925 30.1053871743642461 28.6327538495249954
 38.0511150283835775 30.1053871743642461 28.6327538495249954
 32.4138908424035748 30.1053871743642461 28.6327538495249954
 29.5953210283835837 30.1053871743642461 28.6327538495249954
 23.9580968424035810 30.1053871743642461 28.6327538495249954
 21.1395270283835863 30.1053871743642461 28.6327538495249954
 18.3208726564235782 30.1053871743642461 28.6327538495249954
 15.5023028424035783 30.1053871743642461 28.6327538495249954
 12.6837330283835765 30.1053871743642461 28.6327538495249954
 -2.8185700442888009 27.6644335859584807 28.6327538495249954
  4.2279390283835818 30.1053871743642461 28.6327538495249954
 -7.0465093435764183 30.1053871743642461 28.6327538495249954
 -9.8650791575964192 30.1053871743642461 28.6327538495249954
 -12.6836489716164174 30.1053871743642461 28.6327538495249954
 67.6463517697312113 27.6644335859584807 28.6327538495249954
 64.8277819557112025 27.6644335859584807 28.6327538495249954
 59.1905577697312140 27.6644335859584807 28.6327538495249954
 50.7347637697312024 27.6644335859584807 28.6327538495249954
 39.4603999557111962 27.6644335859584807 28.6327538495249954
 19.7301575837512004 27.6644335859584807 28.6327538495249954
 11.2743635837511977 27.6644335859584807 28.6327538495249954
  8.4557937697312031 27.6644335859584807 28.6327538495249954
  5.6372239557112023 27.6644335859584807 28.6327538495249954
 -4.2278549716164209 30.1053871743642461 28.6327538495249954
 22.5488115899903860 71.6020375533019688 28.6327538495249954
