 H  O 
 1.0000000000000000
    84.5579400000000021    0.0000000000000000    0.0000000000000000
   -42.2789706095346958   73.2293399455724767    0.0000000000000000
     0.0000000000000000    0.0000000000000000   46.9039550000000034
 H   O  
 232 360
Cartesian
  2.8185698004749202  1.6273023922705114 28.1128704123049964
 -29.5953217598252145 57.7698207603227232 28.1128704123049964
 -11.2744485886837182 26.0371311936879657 28.1128704123049964
 -5.6372244027037182 26.0371311936879657 28.1128704123049964
 -0.0000002167237204 26.0371311936879657 28.1128704123049964
 50.7347635394624064 55.3288671719169614 28.1128704123049964
  5.6371394113162827 26.0371311936879657 28.1128704123049964
  8.4557937832762846 26.0371311936879657 28.1128704123049964
 47.9161091675023982 55.3288671719169614 28.1128704123049964
 16.9115877832762855 26.0371311936879657 28.1128704123049964
 22.5487274113162819 26.0371311936879657 28.1128704123049964
 25.3673817832762829 26.0371311936879657 28.1128704123049964
 31.0045214113162864 26.0371311936879657 28.1128704123049964
 42.2789695394624090 55.3288671719169614 28.1128704123049964
 47.9161094113162704 26.0371311936879657 28.1128704123049964
 56.3719034113162749 26.0371311936879657 28.1128704123049964
 62.0091275972962777 26.0371311936879657 28.1128704123049964
 67.6463517832762875 26.0371311936879657 28.1128704123049964
 19.7301575566610410 30.9190383704995000 28.1128704123049964
 16.9115877426410464 30.9190383704995000 28.1128704123049964
  5.6372239286210437 30.9190383704995000 28.1128704123049964
 -14.0930184433389574 30.9190383704995000 28.1128704123049964
 66.2370668559486688 28.4780847820937346 28.1128704123049964
 57.7812728559486644 28.4780847820937346 28.1128704123049964
 -26.7766673878652135 57.7698207603227232 28.1128704123049964
 54.9626184839886562 28.4780847820937346 28.1128704123049964
 29.5952364839886641 28.4780847820937346 28.1128704123049964
 21.1394424839886597 28.4780847820937346 28.1128704123049964
 16.9115875394624062 55.3288671719169614 28.1128704123049964
 19.7301573534824009 55.3288671719169614 28.1128704123049964
 -12.6837335160113369 28.4780847820937346 28.1128704123049964
 -15.5023033300313369 28.4780847820937346 28.1128704123049964
 43.6882546699686571 28.4780847820937346 28.1128704123049964
 52.1440909895745008 23.5961043759422537 28.1128704123049964
 -23.9580975738452153 57.7698207603227232 28.1128704123049964
 40.8696426176145025 23.5961043759422537 28.1128704123049964
 -0.0000424550578693 21.1551507875364884 28.1128704123049964
 -5.6371820830978701 21.1551507875364884 28.1128704123049964
 -8.4558364550578684 21.1551507875364884 28.1128704123049964
 -14.0930186871528367 60.2107743487284921 28.1128704123049964
 -5.6372246871528393 60.2107743487284921 28.1128704123049964
 49.3254366582497497 18.7141971991307194 28.1128704123049964
  5.6371817309221299 21.1551507875364884 28.1128704123049964
 -0.0000005011728327 60.2107743487284921 28.1128704123049964
 40.8696426582497523 18.7141971991307194 28.1128704123049964
 26.7766244722697486 18.7141971991307194 28.1128704123049964
 22.5488116848071662 60.2107743487284921 28.1128704123049964
 15.5022606582497549 18.7141971991307194 28.1128704123049964
 28.1859513128471555 60.2107743487284921 28.1128704123049964
  9.8650364722697521 18.7141971991307194 28.1128704123049964
 43.6882124722697469 18.7141971991307194 28.1128704123049964
 22.5488119286210420 30.9190383704995000 28.1128704123049964
 14.0929757309221344 21.1551507875364884 28.1128704123049964
 25.3673395449421299 21.1551507875364884 28.1128704123049964
 38.0510728035945078 23.5961043759422537 28.1128704123049964
 -18.3208733878652161 57.7698207603227232 28.1128704123049964
 -12.6837337598252144 57.7698207603227232 28.1128704123049964
 -7.0465095738452108 57.7698207603227232 28.1128704123049964
 21.1394848035945166 23.5961043759422537 28.1128704123049964
 18.3209149895745149 23.5961043759422537 28.1128704123049964
 43.6882544261547849 57.7698207603227232 28.1128704123049964
 12.6836908035945140 23.5961043759422537 28.1128704123049964
  9.8650784261547866 57.7698207603227232 28.1128704123049964
 59.1905155449421230 21.1551507875364884 28.1128704123049964
 23.9580966121347885 57.7698207603227232 28.1128704123049964
 29.5952362401747777 57.7698207603227232 28.1128704123049964
 33.8231335449421309 21.1551507875364884 28.1128704123049964
 35.2324604261547876 57.7698207603227232 28.1128704123049964
  4.2278542401747847 57.7698207603227232 28.1128704123049964
 43.6882967457606384 52.8878403541712458 28.1128704123049964
 33.8231757426410411 30.9190383704995000 28.1128704123049964
 39.4603999286210438 30.9190383704995000 28.1128704123049964
  8.4557936613693432 40.6829991828024689 28.1128704123049964
  4.2278966004158747 48.0059331773597151 28.1128704123049964
  2.8185694753893440 40.6829991828024689 28.1128704123049964
 -5.6372245246106605 40.6829991828024689 28.1128704123049964
  9.8650362284558710 48.0059331773597151 28.1128704123049964
 -11.2744487105906597 40.6829991828024689 28.1128704123049964
 -1.4093275855641247 48.0059331773597151 28.1128704123049964
 -19.7302427105906588 40.6829991828024689 28.1128704123049964
 26.7766242284558658 48.0059331773597151 28.1128704123049964
 35.2325028676675771 38.2419723650567462 28.1128704123049964
 18.3209148676675753 38.2419723650567462 28.1128704123049964
 38.0510726004158641 48.0059331773597151 28.1128704123049964
  1.4093268676675752 38.2419723650567462 28.1128704123049964
 43.6882122284558676 48.0059331773597151 28.1128704123049964
 43.6882968676675674 38.2419723650567462 28.1128704123049964
 -4.2278973183124275 38.2419723650567462 28.1128704123049964
 14.0929332894093395 40.6829991828024689 28.1128704123049964
 33.8231756613693406 40.6829991828024689 28.1128704123049964
 49.3254787340417238 43.1239527712082307 28.1128704123049964
 -16.9115883792659005 45.5649063596139996 28.1128704123049964
 29.5952363620817174 43.1239527712082307 28.1128704123049964
 -0.0000003792658964 45.5649063596139996 28.1128704123049964
 15.5023027340417219 43.1239527712082307 28.1128704123049964
 12.6836483620817209 43.1239527712082307 28.1128704123049964
 -23.9581397715441291 48.0059331773597151 28.1128704123049964
  9.8650785480617262 43.1239527712082307 28.1128704123049964
 33.8231756207340979 45.5649063596139996 28.1128704123049964
 56.3719032894093317 40.6829991828024689 28.1128704123049964
 39.4603998067140935 45.5649063596139996 28.1128704123049964
 50.7347636613693425 40.6829991828024689 28.1128704123049964
 47.9161092894093343 40.6829991828024689 28.1128704123049964
 42.2789696613693309 40.6829991828024689 28.1128704123049964
 31.0046058067141033 45.5649063596139996 28.1128704123049964
 45.0975393128471538 60.2107743487284921 28.1128704123049964
 46.5068666004158757 48.0059331773597151 28.1128704123049964
 52.1440062284558650 48.0059331773597151 28.1128704123049964
 43.6882123503628037 33.3600651882452155 28.1128704123049964
 39.4603574871082543 50.4468867657654769 28.1128704123049964
 -29.5952794402193682 52.8878403541712458 28.1128704123049964
 -21.1394854402193673 52.8878403541712458 28.1128704123049964
 12.6836907223228135 33.3600651882452155 28.1128704123049964
 -12.6836914402193699 52.8878403541712458 28.1128704123049964
 52.1440063503628082 33.3600651882452155 28.1128704123049964
 -4.2278974402193654 52.8878403541712458 28.1128704123049964
 -9.8651214636571893 33.3600651882452155 28.1128704123049964
 -18.3209154636571903 33.3600651882452155 28.1128704123049964
  7.0464663738006301 52.8878403541712458 28.1128704123049964
 50.7347637426410429 30.9190383704995000 28.1128704123049964
 15.5022603738006346 52.8878403541712458 28.1128704123049964
 45.0975395566610331 30.9190383704995000 28.1128704123049964
 -7.0465516496371885 33.3600651882452155 28.1128704123049964
 -12.6836913183124267 38.2419723650567462 28.1128704123049964
 31.0045634871082498 50.4468867657654769 28.1128704123049964
 19.7301996730882578 50.4468867657654769 28.1128704123049964
 62.0091697949951950 35.8010187766509844 28.1128704123049964
 54.9626606004158731 48.0059331773597151 28.1128704123049964
 53.5533757949951976 35.8010187766509844 28.1128704123049964
 45.0975817949951860 35.8010187766509844 28.1128704123049964
 42.2789274230351850 35.8010187766509844 28.1128704123049964
 39.4603576090151904 35.8010187766509844 28.1128704123049964
 25.3673393011282471 50.4468867657654769 28.1128704123049964
 33.8231334230351877 35.8010187766509844 28.1128704123049964
 -19.7302005128917450 50.4468867657654769 28.1128704123049964
 16.9115454230351894 35.8010187766509844 28.1128704123049964
 -14.0929763269117494 50.4468867657654769 28.1128704123049964
  8.4557514230351885 35.8010187766509844 28.1128704123049964
 -0.0000426988717480 50.4468867657654769 28.1128704123049964
 14.0929754871082551 50.4468867657654769 28.1128704123049964
 26.7766663042478434 72.4156887494372228 28.1128704123049964
 70.4649216785679755 16.2731703813850075 28.1128704123049964
 67.6463095449421274 21.1551507875364884 28.1128704123049964
 57.7812727340417212 43.1239527712082307 28.1128704123049964
 42.2789271792213057 65.0927547548799765 28.1128704123049964
 12.6836909661366875  4.0683292100162243 28.1128704123049964
  9.8650365941766900  4.0683292100162243 28.1128704123049964
 39.4603573652013111 65.0927547548799765 28.1128704123049964
 28.1859935511813049 65.0927547548799765 28.1128704123049964
 25.3673391792213039 65.0927547548799765 28.1128704123049964
 22.5487693652013093 65.0927547548799765 28.1128704123049964
 11.2743637192032189 11.3912632045734714 28.1128704123049964
  4.2278969661366892  4.0683292100162243 28.1128704123049964
  1.4092425941766900  4.0683292100162243 28.1128704123049964
 22.5487275332232180 11.3912632045734714 28.1128704123049964
 16.9115451792213065 65.0927547548799765 28.1128704123049964
 14.0929753652013119 65.0927547548799765 28.1128704123049964
  8.4557511792213162 65.0927547548799765 28.1128704123049964
 45.0975397192032190 11.3912632045734714 28.1128704123049964
 19.7302000388090732  6.5092827984219914 28.1128704123049964
 53.5533337192032164 11.3912632045734714 28.1128704123049964
 67.6463519051832236 11.3912632045734714 28.1128704123049964
 76.1021459051832210 11.3912632045734714 28.1128704123049964
 -2.8186126347986837 65.0927547548799765 28.1128704123049964
 -1.4092850221444004 13.8322167929792403 28.1128704123049964
 -9.8650795097721549 72.4156887494372228 28.1128704123049964
  7.0465089778555976 13.8322167929792403 28.1128704123049964
 18.3208305941766909  4.0683292100162243 28.1128704123049964
 18.3208727918756047 13.8322167929792403 28.1128704123049964
 25.3673814175554639 69.9747351610314468 28.1128704123049964
 49.3254367801566929  4.0683292100162243 28.1128704123049964
 33.8231336668490670  6.5092827984219914 28.1128704123049964
 -19.7302429544045346 69.9747351610314468 28.1128704123049964
 -14.0930187684245301 69.9747351610314468 28.1128704123049964
 50.7347216668490617  6.5092827984219914 28.1128704123049964
 15.5022602518936878 67.5337083432857384 28.1128704123049964
 12.6836904378736932 67.5337083432857384 28.1128704123049964
 -5.6372247684245327 69.9747351610314468 28.1128704123049964
  1.4093266238536943 67.5337083432857384 28.1128704123049964
  2.8185692315754580 69.9747351610314468 28.1128704123049964
 74.6928187801566850  4.0683292100162243 28.1128704123049964
  1.4093271114814494  8.9502363868277595 28.1128704123049964
 -7.0464673761463033 67.5337083432857384 28.1128704123049964
 71.8742489661366903  4.0683292100162243 28.1128704123049964
  7.0464667395214500  8.9502363868277595 28.1128704123049964
 69.0555945941766822  4.0683292100162243 28.1128704123049964
 67.6463518645479809 16.2731703813850075 28.1128704123049964
 15.5022607395214518  8.9502363868277595 28.1128704123049964
 63.4184549661366859  4.0683292100162243 28.1128704123049964
 21.1394849255014528  8.9502363868277595 28.1128704123049964
 57.7812307801566902  4.0683292100162243 28.1128704123049964
  8.4557934175554603 69.9747351610314468 28.1128704123049964
 11.2743632315754621 69.9747351610314468 28.1128704123049964
 32.4138487395214483  8.9502363868277595 28.1128704123049964
 46.5068669661366982  4.0683292100162243 28.1128704123049964
 -16.9116308207786865 65.0927547548799765 28.1128704123049964
 78.9207158004749090  1.6273023922705114 28.1128704123049964
 18.3208301065489287 62.6518011664742076 28.1128704123049964
 22.5488120505279817 16.2731703813850075 28.1128704123049964
 42.2789699864549249  1.6273023922705114 28.1128704123049964
 36.6417458004749221  1.6273023922705114 28.1128704123049964
 31.0046061724349222  1.6273023922705114 28.1128704123049964
 47.9161940505279844 16.2731703813850075 28.1128704123049964
 74.6928609778556023 13.8322167929792403 28.1128704123049964
 16.9115879864549186  1.6273023922705114 28.1128704123049964
 -8.4557941354520185 16.2731703813850075 28.1128704123049964
 21.1394844785089369 62.6518011664742076 28.1128704123049964
 22.5488121724349213  1.6273023922705114 28.1128704123049964
 12.6836481182678362 72.4156887494372228 28.1128704123049964
 -15.5023458934510643 62.6518011664742076 28.1128704123049964
  2.8185696785679806 16.2731703813850075 28.1128704123049964
 -22.5487704488186900 65.0927547548799765 28.1128704123049964
 14.0930180505279825 16.2731703813850075 28.1128704123049964
 16.9115878645479825 16.2731703813850075 28.1128704123049964
  7.0464662925289359 62.6518011664742076 28.1128704123049964
 12.6836904785089395 62.6518011664742076 28.1128704123049964
 36.6417456785679860 16.2731703813850075 28.1128704123049964
 69.0556367918755996 13.8322167929792403 28.1128704123049964
 56.3719880505279747 16.2731703813850075 28.1128704123049964
  4.2278541182678469 72.4156887494372228 28.1128704123049964
 18.3208723042478390 72.4156887494372228 28.1128704123049964
 -28.1859946347986892 65.0927547548799765 28.1128704123049964
 29.5952366058956002 13.8322167929792403 28.1128704123049964
 -31.0045644488186873 65.0927547548799765 28.1128704123049964
 38.0510306058956047 13.8322167929792403 28.1128704123049964
 -36.6417886347986865 65.0927547548799765 28.1128704123049964
 32.4138482925289324 62.6518011664742076 28.1128704123049964
 11.2743638004749194  1.6273023922705114 28.1128704123049964
 43.6882547918756003 13.8322167929792403 28.1128704123049964
 63.4184126058955968 13.8322167929792403 28.1128704123049964
 64.8277820505279863 16.2731703813850075 28.1128704123049964
 59.1905579864549196  1.6273023922705114 28.1128704123049964
 -21.1394854131292078 49.6332355696302230 28.6327538495249954
  7.0465507962886189 69.1610107355562462 28.6327538495249954
 -1.4092432037113782 69.1610107355562462 28.6327538495249954
 -29.5952795756713840 69.1610107355562462 28.6327538495249954
 22.5488115899903860 71.6020375533019688 28.6327538495249954
  1.4093267728507877 49.6332355696302230 28.6327538495249954
 56.3719877931690334 47.1922087518845075 28.6327538495249954
  1.4092845345166412 44.7512551634787386 28.6327538495249954
 -23.9580553896913813 69.1610107355562462 28.6327538495249954
 -18.3209155991092061 49.6332355696302230 28.6327538495249954
 -4.2278550935233552 44.7512551634787386 28.6327538495249954
 -12.6836490935233588 44.7512551634787386 28.6327538495249954
 16.9115874040103833 71.6020375533019688 28.6327538495249954
 -18.3208732795033562 44.7512551634787386 28.6327538495249954
 -9.8651215991092069 49.6332355696302230 28.6327538495249954
 -9.8650372037113900 69.1610107355562462 28.6327538495249954
 -7.0464672271492059 49.6332355696302230 28.6327538495249954
  7.0465087204966403 44.7512551634787386 28.6327538495249954
 54.9627029064766432 44.7512551634787386 28.6327538495249954
 12.6837329064766493 44.7512551634787386 28.6327538495249954
 57.7812727204966521 44.7512551634787386 28.6327538495249954
 52.1440485345166493 44.7512551634787386 28.6327538495249954
 -8.4557945959896212 71.6020375533019688 28.6327538495249954
 -19.7301582068309784 47.1922087518845075 28.6327538495249954
 -22.5488127819696196 71.6020375533019688 28.6327538495249954
 -5.6372247819696195 71.6020375533019688 28.6327538495249954
 43.6882966103086261 69.1610107355562462 28.6327538495249954
 49.3254787204966547 44.7512551634787386 28.6327538495249954
 46.5069089064766459 44.7512551634787386 28.6327538495249954
 -2.8185704100096114 71.6020375533019688 28.6327538495249954
 -0.0000005959896168 71.6020375533019688 28.6327538495249954
 38.0510724243286234 69.1610107355562462 28.6327538495249954
  8.4557936071890190 47.1922087518845075 28.6327538495249954
  9.8650785345166412 44.7512551634787386 28.6327538495249954
 35.2325026103086287 69.1610107355562462 28.6327538495249954
 14.0930177931690217 47.1922087518845075 28.6327538495249954
 32.4139327962886199 69.1610107355562462 28.6327538495249954
 16.9115876071890092 47.1922087518845075 28.6327538495249954
 22.5488117931690120 47.1922087518845075 28.6327538495249954
 26.7766665345166501 44.7512551634787386 28.6327538495249954
 29.5952784243286260 69.1610107355562462 28.6327538495249954
 31.0046057931690235 47.1922087518845075 28.6327538495249954
 33.8231756071890288 47.1922087518845075 28.6327538495249954
 21.1394844243286215 69.1610107355562462 28.6327538495249954
 42.2789696071890333 47.1922087518845075 28.6327538495249954
 15.5023447962886092 69.1610107355562462 28.6327538495249954
 23.9580967204966342 44.7512551634787386 28.6327538495249954
 50.7347636071890307 47.1922087518845075 28.6327538495249954
 43.6882545345166520 44.7512551634787386 28.6327538495249954
 -32.4138493896913857 69.1610107355562462 28.6327538495249954
 -25.3673825147179137 61.8380767409990000 28.6327538495249954
 -38.0510735756713814 69.1610107355562462 28.6327538495249954
 -21.1394430935233544 44.7512551634787386 28.6327538495249954
 36.6418298572420866 61.8380767409990000 28.6327538495249954
 -0.0000004740826793 56.9561695641874692 28.6327538495249954
 -2.8185702881026811 56.9561695641874692 28.6327538495249954
 -5.6372246600626781 56.9561695641874692 28.6327538495249954
 42.2789694852820901 61.8380767409990000 28.6327538495249954
 -14.0930186600626755 56.9561695641874692 28.6327538495249954
 -22.5488126600626764 56.9561695641874692 28.6327538495249954
 -12.6836915350361448 64.2791035587447084 28.6327538495249954
 -7.0464673490561447 64.2791035587447084 28.6327538495249954
 -31.0046066600626737 56.9561695641874692 28.6327538495249954
 52.1440907322155596 54.5151427464417537 28.6327538495249954
 -4.2278975350361501 64.2791035587447084 28.6327538495249954
  1.4093266509438596 64.2791035587447084 28.6327538495249954
  4.2278964649638544 64.2791035587447084 28.6327538495249954
 38.0510725462355595 54.5151427464417537 28.6327538495249954
 32.4139329181955560 54.5151427464417537 28.6327538495249954
 14.0930177118973283 56.9561695641874692 28.6327538495249954
 29.5952785462355585 54.5151427464417537 28.6327538495249954
 25.3673815259173274 56.9561695641874692 28.6327538495249954
 31.0046057118973302 56.9561695641874692 28.6327538495249954
 -31.0045221427579136 61.8380767409990000 28.6327538495249954
 -33.8231765147179146 61.8380767409990000 28.6327538495249954
 49.3254785985897115 59.3971231525932382 28.6327538495249954
 -22.5487281427579163 61.8380767409990000 28.6327538495249954
 -19.7301583287379145 61.8380767409990000 28.6327538495249954
 -16.9115885147179164 61.8380767409990000 28.6327538495249954
 21.1395267845696964 59.3971231525932382 28.6327538495249954
 15.5023025985896936 59.3971231525932382 28.6327538495249954
 12.6837327845697061 59.3971231525932382 28.6327538495249954
  1.4092844126096999 59.3971231525932382 28.6327538495249954
  2.8186538572420905 61.8380767409990000 28.6327538495249954
 -1.4092854014103018 59.3971231525932382 28.6327538495249954
 11.2744478572420874 61.8380767409990000 28.6327538495249954
 -9.8650794014102949 59.3971231525932382 28.6327538495249954
 45.0975393399373274 56.9561695641874692 28.6327538495249954
 39.4603997118973240 56.9561695641874692 28.6327538495249954
 25.3673814852820882 61.8380767409990000 28.6327538495249954
 28.1860358572420893 61.8380767409990000 28.6327538495249954
 21.1394844649638500 64.2791035587447084 28.6327538495249954
 23.9581389181955480 54.5151427464417537 28.6327538495249954
 21.1394845462355612 54.5151427464417537 28.6327538495249954
 -8.4557522763837714 66.7200571471504844 28.6327538495249954
 16.9116298455231728 52.0741891580359919 28.6327538495249954
 11.2744056595431719 52.0741891580359919 28.6327538495249954
  0.0000417236162395 66.7200571471504844 28.6327538495249954
  2.8186116595431669 52.0741891580359919 28.6327538495249954
  0.0000418455231652 52.0741891580359919 28.6327538495249954
 11.2744055376362251 66.7200571471504844 28.6327538495249954
 -8.4557521544768282 52.0741891580359919 28.6327538495249954
 33.8232177236162386 66.7200571471504844 28.6327538495249954
 -16.9115461544768308 52.0741891580359919 28.6327538495249954
 36.6417875376362474 66.7200571471504844 28.6327538495249954
 -25.3673401544768282 52.0741891580359919 28.6327538495249954
 39.4603573516562420 66.7200571471504844 28.6327538495249954
 40.8696424008908039 49.6332355696302230 28.6327538495249954
 42.2790117236162359 66.7200571471504844 28.6327538495249954
 35.2325027728508005 49.6332355696302230 28.6327538495249954
 45.0975815376362448 66.7200571471504844 28.6327538495249954
 28.1859936595431719 52.0741891580359919 28.6327538495249954
 45.0975816595431809 52.0741891580359919 28.6327538495249954
 -16.9115462763837670 66.7200571471504844 28.6327538495249954
 -25.3673402763837679 66.7200571471504844 28.6327538495249954
 29.5952784649638616 64.2791035587447084 28.6327538495249954
 38.0510724649638732 64.2791035587447084 28.6327538495249954
 12.6836905462355407 54.5151427464417537 28.6327538495249954
  7.0465509181955595 54.5151427464417537 28.6327538495249954
  4.2278965462355513 54.5151427464417537 28.6327538495249954
 -7.0464672677844442 54.5151427464417537 28.6327538495249954
 43.6882966509438617 64.2791035587447084 28.6327538495249954
 -36.6417886483437698 66.7200571471504844 28.6327538495249954
 29.5952785868707942 49.6332355696302230 28.6327538495249954
 -33.8231342763837688 66.7200571471504844 28.6327538495249954
 -9.8650370818044468 54.5151427464417537 28.6327538495249954
 -12.6836914537644478 54.5151427464417537 28.6327538495249954
 -15.5022612677844460 54.5151427464417537 28.6327538495249954
 -21.1394854537644470 54.5151427464417537 28.6327538495249954
 -23.9580552677844487 54.5151427464417537 28.6327538495249954
 -26.7766250818044469 54.5151427464417537 28.6327538495249954
 50.7348058455231694 52.0741891580359919 28.6327538495249954
 47.9161514735631755 52.0741891580359919 28.6327538495249954
 -31.0045644623637671 66.7200571471504844 28.6327538495249954
 -11.2744066483437688 66.7200571471504844 28.6327538495249954
 29.5952787087777267 34.9873675805157234 28.6327538495249954
 36.6417454618442662 42.3103015750729767 28.6327538495249954
 12.6837331502905215 15.4595191852497500 28.6327538495249954
  1.4092847783305213 15.4595191852497500 28.6327538495249954
 73.2835760776181360 13.0185655968439828 28.6327538495249954
 70.4649217056581421 13.0185655968439828 28.6327538495249954
 64.8277820776181386 13.0185655968439828 28.6327538495249954
 62.0091277056581518 13.0185655968439828 28.6327538495249954
 59.1905578916381430 13.0185655968439828 28.6327538495249954
 39.4604000776181465 13.0185655968439828 28.6327538495249954
 33.8231758916381438 13.0185655968439828 28.6327538495249954
 25.3673818916381357 13.0185655968439828 28.6327538495249954
 22.5488120776181340 13.0185655968439828 28.6327538495249954
 21.1395271502905153 15.4595191852497500 28.6327538495249954
 19.7301577056581365 13.0185655968439828 28.6327538495249954
  5.6372240776181393 13.0185655968439828 28.6327538495249954
  2.8185697056581414 13.0185655968439828 28.6327538495249954
 -5.6372242943418591 13.0185655968439828 28.6327538495249954
 63.4184549119563812 10.5775387790982709 28.6327538495249954
 49.3255212839163661 10.5775387790982709 28.6327538495249954
 40.8697272839163759 10.5775387790982709 28.6327538495249954
 35.2325030979363731 10.5775387790982709 28.6327538495249954
 26.7767090979363651 10.5775387790982709 28.6327538495249954
 18.3209150979363713 10.5775387790982709 28.6327538495249954
 78.9207580252639929  8.1365851906925037 28.6327538495249954
 76.1021882112439840  8.1365851906925037 28.6327538495249954
 16.9115878916381419 13.0185655968439828 28.6327538495249954
 70.4649640252639955  8.1365851906925037 28.6327538495249954
 26.7766667783305188 15.4595191852497500 28.6327538495249954
 43.6882547783305313 15.4595191852497500 28.6327538495249954
 29.5952788306846699 20.3414995914012344 28.6327538495249954
 21.1394848306846654 20.3414995914012344 28.6327538495249954
 18.3209150166646637 20.3414995914012344 28.6327538495249954
 73.2835760369829075 17.9004727736555189 28.6327538495249954
 70.4650062229628986 17.9004727736555189 28.6327538495249954
 64.8277820369829101 17.9004727736555189 28.6327538495249954
 62.0092122229629013 17.9004727736555189 28.6327538495249954
 59.1905578510029073 17.9004727736555189 28.6327538495249954
 45.0976242229628923 17.9004727736555189 28.6327538495249954
 39.4604000369828896 17.9004727736555189 28.6327538495249954
 36.6418302229629020 17.9004727736555189 28.6327538495249954
 40.8696849643105153 15.4595191852497500 28.6327538495249954
 31.0046060369829029 17.9004727736555189 28.6327538495249954
 19.7302422229628966 17.9004727736555189 28.6327538495249954
 14.0930180369829028 17.9004727736555189 28.6327538495249954
  5.6372240369829028 17.9004727736555189 28.6327538495249954
  2.8186542229628988 17.9004727736555189 28.6327538495249954
 -0.0000001489970986 17.9004727736555189 28.6327538495249954
 -2.8185699630171004 17.9004727736555189 28.6327538495249954
 -8.4557941489970982 17.9004727736555189 28.6327538495249954
 66.2370669643105288 15.4595191852497500 28.6327538495249954
 60.5998427783305331 15.4595191852497500 28.6327538495249954
 52.1440487783305286 15.4595191852497500 28.6327538495249954
 46.5069091502905181 15.4595191852497500 28.6327538495249954
 28.1860362229629082 17.9004727736555189 28.6327538495249954
 38.0510728306846602 20.3414995914012344 28.6327538495249954
 67.6463942112439867  8.1365851906925037 28.6327538495249954
 56.3719458392839954  8.1365851906925037 28.6327538495249954
 -1.4093272333883895  5.6956316022867357 28.6327538495249954
 76.1021459729098524  3.2546047845410229 28.6327538495249954
 67.6463519729098550  3.2546047845410229 28.6327538495249954
 56.3719881588898417  3.2546047845410229 28.6327538495249954
 53.5534183448698329  3.2546047845410229 28.6327538495249954
 50.7347639729098461  3.2546047845410229 28.6327538495249954
 45.0976243448698426  3.2546047845410229 28.6327538495249954
 33.8231759729098371  3.2546047845410229 28.6327538495249954
 14.0930181588898407  3.2546047845410229 28.6327538495249954
  5.6372241588898389  3.2546047845410229 28.6327538495249954
 -0.0000000270901599  3.2546047845410229 28.6327538495249954
  1.4093271385716108  5.6956316022867357 28.6327538495249954
 83.1486550862174738  0.8136511961352557 28.6327538495249954
 71.8742912721974676  0.8136511961352557 28.6327538495249954
 69.0556369002374737  0.8136511961352557 28.6327538495249954
 66.2370670862174649  0.8136511961352557 28.6327538495249954
 63.4184972721974631  0.8136511961352557 28.6327538495249954
 49.3254790862174488  0.8136511961352557 28.6327538495249954
 46.5069092721974613  0.8136511961352557 28.6327538495249954
 43.6882549002374461  0.8136511961352557 28.6327538495249954
 26.7766669002374584  0.8136511961352557 28.6327538495249954
 21.1395272721974621  0.8136511961352557 28.6327538495249954
 15.5023030862174611  0.8136511961352557 28.6327538495249954
  7.0465090862174584  0.8136511961352557 28.6327538495249954
 74.6928610862174764  0.8136511961352557 28.6327538495249954
 64.8277398392839928  8.1365851906925037 28.6327538495249954
  4.2278969525916086  5.6956316022867357 28.6327538495249954
  9.8651211385716078  5.6956316022867357 28.6327538495249954
 53.5533760252639937  8.1365851906925037 28.6327538495249954
 45.0975820252639821  8.1365851906925037 28.6327538495249954
 42.2790122112439946  8.1365851906925037 28.6327538495249954
 39.4603578392839793  8.1365851906925037 28.6327538495249954
 36.6417880252639918  8.1365851906925037 28.6327538495249954
 31.0045638392839891  8.1365851906925037 28.6327538495249954
 16.9116302112439918  8.1365851906925037 28.6327538495249954
 14.0929758392839890  8.1365851906925037 28.6327538495249954
  8.4558362112439873  8.1365851906925037 28.6327538495249954
  5.6371818392839907  8.1365851906925037 28.6327538495249954
 -2.8186121607160102  8.1365851906925037 28.6327538495249954
  7.0464667666116103  5.6956316022867357 28.6327538495249954
 80.3300429525916257  5.6956316022867357 28.6327538495249954
 60.5998851385716151  5.6956316022867357 28.6327538495249954
 54.9626609525916123  5.6956316022867357 28.6327538495249954
 46.5068669525916008  5.6956316022867357 28.6327538495249954
 43.6882971385716132  5.6956316022867357 28.6327538495249954
 38.0510729525916105  5.6956316022867357 28.6327538495249954
 35.2325031385716159  5.6956316022867357 28.6327538495249954
 32.4138487666116077  5.6956316022867357 28.6327538495249954
 29.5952789525916060  5.6956316022867357 28.6327538495249954
 23.9580547666116068  5.6956316022867357 28.6327538495249954
 15.5022607666116095  5.6956316022867357 28.6327538495249954
 12.6836909525916113  5.6956316022867357 28.6327538495249954
 77.5114731385716169  5.6956316022867357 28.6327538495249954
 40.8696426447046761 20.3414995914012344 28.6327538495249954
 46.5068668306846718 20.3414995914012344 28.6327538495249954
 54.9626608306846691 20.3414995914012344 28.6327538495249954
 42.2790119674301152 37.4283211689214923 28.6327538495249954
 31.0045635954701204 37.4283211689214923 28.6327538495249954
 28.1859937814501045 37.4283211689214923 28.6327538495249954
 14.0929755954701115 37.4283211689214923 28.6327538495249954
  0.0000419674301133 37.4283211689214923 28.6327538495249954
 -2.8186124045298877 37.4283211689214923 28.6327538495249954
 -11.2744064045298860 37.4283211689214923 28.6327538495249954
 -14.0929762185498877 37.4283211689214923 28.6327538495249954
 -16.9115460325698876 37.4283211689214923 28.6327538495249954
 57.7812305227977419 34.9873675805157234 28.6327538495249954
 49.3254365227977445 34.9873675805157234 28.6327538495249954
 47.9161515954701187 37.4283211689214923 28.6327538495249954
 38.0510727087777383 34.9873675805157234 28.6327538495249954
 21.1394847087777364 34.9873675805157234 28.6327538495249954
 15.5022605227977337 34.9873675805157234 28.6327538495249954
 12.6836907087777320 34.9873675805157234 28.6327538495249954
  4.2278967087777302 34.9873675805157234 28.6327538495249954
  1.4093268947577322 34.9873675805157234 28.6327538495249954
 -4.2278972912222672 34.9873675805157234 28.6327538495249954
 -7.0464671052422672 34.9873675805157234 28.6327538495249954
 -12.6836912912222672 34.9873675805157234 28.6327538495249954
 62.0092121010559580 32.5463407627700150 28.6327538495249954
 59.1905577290959641 32.5463407627700150 28.6327538495249954
 56.3719879150759695 32.5463407627700150 28.6327538495249954
 26.7767088947577392 34.9873675805157234 28.6327538495249954
 47.9161939150759579 32.5463407627700150 28.6327538495249954
 50.7348059674301126 37.4283211689214923 28.6327538495249954
 -9.8650369598975125 39.8692747573272612 28.6327538495249954
 33.8231756478242644 42.3103015750729767 28.6327538495249954
 31.0046058338042556 42.3103015750729767 28.6327538495249954
 25.3673816478242529 42.3103015750729767 28.6327538495249954
 16.9115876478242626 42.3103015750729767 28.6327538495249954
 -0.0000003521757358 42.3103015750729767 28.6327538495249954
 -2.8185701661957374 42.3103015750729767 28.6327538495249954
 -5.6372245381557384 42.3103015750729767 28.6327538495249954
 -8.4557943521757366 42.3103015750729767 28.6327538495249954
 -11.2743641661957401 42.3103015750729767 28.6327538495249954
 -14.0930185381557376 42.3103015750729767 28.6327538495249954
 -16.9115883521757375 42.3103015750729767 28.6327538495249954
 -15.5022611458775117 39.8692747573272612 28.6327538495249954
 60.5998848541225001 39.8692747573272612 28.6327538495249954
 52.1440908541225028 39.8692747573272612 28.6327538495249954
 46.5068666681425000 39.8692747573272612 28.6327538495249954
 38.0510726681424956 39.8692747573272612 28.6327538495249954
 29.5952786681424982 39.8692747573272612 28.6327538495249954
 26.7767088541224823 39.8692747573272612 28.6327538495249954
 23.9581390401024947 39.8692747573272612 28.6327538495249954
 18.3209148541224920 39.8692747573272612 28.6327538495249954
 15.5023450401024956 39.8692747573272612 28.6327538495249954
 12.6836906681424875 39.8692747573272612 28.6327538495249954
  4.2278966681424874 39.8692747573272612 28.6327538495249954
 -1.4092429598975091 39.8692747573272612 28.6327538495249954
 54.9626606681424974 39.8692747573272612 28.6327538495249954
 42.2789697290959623 32.5463407627700150 28.6327538495249954
 31.0046059150759525 32.5463407627700150 28.6327538495249954
 28.1860361010559650 32.5463407627700150 28.6327538495249954
 -14.0930184162487979 27.6644335859584807 28.6327538495249954
 66.2371091620094319 25.2234067682127652 28.6327538495249954
 57.7813151620094345 25.2234067682127652 28.6327538495249954
 54.9626607900494406 25.2234067682127652 28.6327538495249954
 35.2325029760294228 25.2234067682127652 28.6327538495249954
 32.4139331620094353 25.2234067682127652 28.6327538495249954
  9.8651209760294343 25.2234067682127652 28.6327538495249954
  4.2278967900494315 25.2234067682127652 28.6327538495249954
 -7.0464670239705693 25.2234067682127652 28.6327538495249954
 -9.8650368379905675 25.2234067682127652 28.6327538495249954
 70.4649639033570594 22.7824531798069998 28.6327538495249954
 11.2743635837511977 27.6644335859584807 28.6327538495249954
 56.3719457173770593 22.7824531798069998 28.6327538495249954
 45.0975819033570531 22.7824531798069998 28.6327538495249954
 36.6417879033570415 22.7824531798069998 28.6327538495249954
 28.1859939033570512 22.7824531798069998 28.6327538495249954
 25.3674240893370566 22.7824531798069998 28.6327538495249954
 22.5487697173770485 22.7824531798069998 28.6327538495249954
 11.2744059033570529 22.7824531798069998 28.6327538495249954
  8.4558360893370512 22.7824531798069998 28.6327538495249954
 -2.8186122826229494 22.7824531798069998 28.6327538495249954
 71.8742488306846781 20.3414995914012344 28.6327538495249954
 66.2370246447046753 20.3414995914012344 28.6327538495249954
 57.7812306447046780 20.3414995914012344 28.6327538495249954
 47.9161517173770548 22.7824531798069998 28.6327538495249954
 19.7301575837512004 27.6644335859584807 28.6327538495249954
 33.8231757697311934 27.6644335859584807 28.6327538495249954
 36.6417455837512094 27.6644335859584807 28.6327538495249954
 25.3673817290959498 32.5463407627700150 28.6327538495249954
 22.5488119150759623 32.5463407627700150 28.6327538495249954
 19.7302421010559677 32.5463407627700150 28.6327538495249954
  8.4557937290959586 32.5463407627700150 28.6327538495249954
  2.8186541010559618 32.5463407627700150 28.6327538495249954
 -5.6371398989440404 32.5463407627700150 28.6327538495249954
 -11.2743640849240396 32.5463407627700150 28.6327538495249954
 66.2370668424035927 30.1053871743642461 28.6327538495249954
 63.4184970283835838 30.1053871743642461 28.6327538495249954
 60.5998426564235899 30.1053871743642461 28.6327538495249954
 49.3254788424035837 30.1053871743642461 28.6327538495249954
 46.5069090283835891 30.1053871743642461 28.6327538495249954
 35.2324606564235907 30.1053871743642461 28.6327538495249954
 32.4138908424035748 30.1053871743642461 28.6327538495249954
 23.9580968424035810 30.1053871743642461 28.6327538495249954
 15.5023028424035783 30.1053871743642461 28.6327538495249954
 12.6837330283835765 30.1053871743642461 28.6327538495249954
  9.8650786564235791 30.1053871743642461 28.6327538495249954
  4.2279390283835818 30.1053871743642461 28.6327538495249954
  1.4092846564235810 30.1053871743642461 28.6327538495249954
 -4.2278549716164209 30.1053871743642461 28.6327538495249954
 -7.0465093435764183 30.1053871743642461 28.6327538495249954
 -9.8650791575964192 30.1053871743642461 28.6327538495249954
 53.5533335837512112 27.6644335859584807 28.6327538495249954
 42.2789697697312050 27.6644335859584807 28.6327538495249954
 53.5533334618442680 42.3103015750729767 28.6327538495249954
 31.0046055899903834 71.6020375533019688 28.6327538495249954
