 H  O 
 1.0000000000000000
    84.5579400000000021    0.0000000000000000    0.0000000000000000
   -42.2789706095346958   73.2293399455724767    0.0000000000000000
     0.0000000000000000    0.0000000000000000   46.9039550000000034
 H   O  
 234 357
Cartesian
 56.3719456090151922 35.8010187766509844 28.1128704123049964
 -9.8650793878652134 57.7698207603227232 28.1128704123049964
 -12.6837337598252144 57.7698207603227232 28.1128704123049964
 -9.8650791440513395 28.4780847820937346 28.1128704123049964
 -18.3208733878652161 57.7698207603227232 28.1128704123049964
  1.4092846699686612 28.4780847820937346 28.1128704123049964
 -29.5953217598252145 57.7698207603227232 28.1128704123049964
  9.8650786699686659 28.4780847820937346 28.1128704123049964
 18.3208726699686650 28.4780847820937346 28.1128704123049964
 50.7347635394624064 55.3288671719169614 28.1128704123049964
 23.9580968559486607 28.4780847820937346 28.1128704123049964
 47.9161091675023982 55.3288671719169614 28.1128704123049964
 29.5952364839886641 28.4780847820937346 28.1128704123049964
 32.4138908559486651 28.4780847820937346 28.1128704123049964
 42.2789695394624090 55.3288671719169614 28.1128704123049964
 38.0510304839886544 28.4780847820937346 28.1128704123049964
 31.0045211675023928 55.3288671719169614 28.1128704123049964
 52.1440486699686616 28.4780847820937346 28.1128704123049964
 -2.8186548324975988 55.3288671719169614 28.1128704123049964
 47.9161939286210341 30.9190383704995000 28.1128704123049964
 45.0975395566610331 30.9190383704995000 28.1128704123049964
 42.2789697426410385 30.9190383704995000 28.1128704123049964
  5.6371391675024016 55.3288671719169614 28.1128704123049964
 36.6417455566610357 30.9190383704995000 28.1128704123049964
 47.9161094113162704 26.0371311936879657 28.1128704123049964
 11.2743635566610401 30.9190383704995000 28.1128704123049964
  2.8185695566610427 30.9190383704995000 28.1128704123049964
 -5.6372244433389582 30.9190383704995000 28.1128704123049964
 -11.2743640713789581 30.9190383704995000 28.1128704123049964
 16.9115875394624062 55.3288671719169614 28.1128704123049964
 66.2370668559486688 28.4780847820937346 28.1128704123049964
 60.5998426699686590 28.4780847820937346 28.1128704123049964
  5.6372239286210437 30.9190383704995000 28.1128704123049964
 -4.2279397598252162 57.7698207603227232 28.1128704123049964
 42.2789697832762812 26.0371311936879657 28.1128704123049964
 36.6417455972962784 26.0371311936879657 28.1128704123049964
  5.6371817309221299 21.1551507875364884 28.1128704123049964
 -2.8186122690778692 21.1551507875364884 28.1128704123049964
 -8.4558364550578684 21.1551507875364884 28.1128704123049964
 33.8231754988271618 60.2107743487284921 28.1128704123049964
 36.6417453128471564 60.2107743487284921 28.1128704123049964
 -32.4139338934510661 62.6518011664742076 28.1128704123049964
 39.4603577309221265 21.1551507875364884 28.1128704123049964
 -29.5952795214910651 62.6518011664742076 28.1128704123049964
 38.0510728442297577 18.7141971991307194 28.1128704123049964
 -21.1394855214910677 62.6518011664742076 28.1128704123049964
 32.4138486582497549 18.7141971991307194 28.1128704123049964
 -15.5023458934510643 62.6518011664742076 28.1128704123049964
 -7.0465518934510678 62.6518011664742076 28.1128704123049964
 18.3208304722697477 18.7141971991307194 28.1128704123049964
 -26.7767097074710669 62.6518011664742076 28.1128704123049964
 -11.2744488324975958 55.3288671719169614 28.1128704123049964
 45.0975819169021293 21.1551507875364884 28.1128704123049964
  7.0464666176145112 23.5961043759422537 28.1128704123049964
  9.8650784261547866 57.7698207603227232 28.1128704123049964
 18.3208724261547857 57.7698207603227232 28.1128704123049964
 14.0929334113162810 26.0371311936879657 28.1128704123049964
 21.1394422401747804 57.7698207603227232 28.1128704123049964
 29.5952362401747777 57.7698207603227232 28.1128704123049964
 -5.6372244027037182 26.0371311936879657 28.1128704123049964
 59.1905155449421230 21.1551507875364884 28.1128704123049964
 35.2324604261547876 57.7698207603227232 28.1128704123049964
 57.7812306176145043 23.5961043759422537 28.1128704123049964
 -31.0046066871528367 60.2107743487284921 28.1128704123049964
 26.7767089895745123 23.5961043759422537 28.1128704123049964
 -23.9581397715441291 48.0059331773597151 28.1128704123049964
 18.3209149895745149 23.5961043759422537 28.1128704123049964
  9.8651209895745122 23.5961043759422537 28.1128704123049964
 46.5068242401747796 57.7698207603227232 28.1128704123049964
  9.8650364722697521 18.7141971991307194 28.1128704123049964
 -19.7302428324975985 55.3288671719169614 28.1128704123049964
  9.8650363503628089 33.3600651882452155 28.1128704123049964
 25.3673816613693432 40.6829991828024689 28.1128704123049964
 -22.5487703269117468 50.4468867657654769 28.1128704123049964
 54.9626606004158731 48.0059331773597151 28.1128704123049964
 42.2789696613693309 40.6829991828024689 28.1128704123049964
 46.5068666004158757 48.0059331773597151 28.1128704123049964
 59.1905576613693398 40.6829991828024689 28.1128704123049964
 -21.1395276379182775 43.1239527712082307 28.1128704123049964
 -15.5023034519382783 43.1239527712082307 28.1128704123049964
 35.2324182284558631 48.0059331773597151 28.1128704123049964
 -9.8650792659582809 43.1239527712082307 28.1128704123049964
 -7.0465094519382783 43.1239527712082307 28.1128704123049964
 -4.2279396379182765 43.1239527712082307 28.1128704123049964
  7.0465087340417254 43.1239527712082307 28.1128704123049964
 12.6836483620817209 43.1239527712082307 28.1128704123049964
 18.3208725480617254 43.1239527712082307 28.1128704123049964
 23.9580967340417281 43.1239527712082307 28.1128704123049964
 29.5952363620817174 43.1239527712082307 28.1128704123049964
 42.2789696207341024 45.5649063596139996 28.1128704123049964
 -18.3209155855641299 48.0059331773597151 28.1128704123049964
 14.0930178067140996 45.5649063596139996 28.1128704123049964
 11.2743634347540986 45.5649063596139996 28.1128704123049964
 -0.0000003792658964 45.5649063596139996 28.1128704123049964
 -7.0465517715441273 48.0059331773597151 28.1128704123049964
 14.0929332894093395 40.6829991828024689 28.1128704123049964
 -4.2278973995841262 48.0059331773597151 28.1128704123049964
 -19.7301581932858987 45.5649063596139996 28.1128704123049964
  9.8650362284558710 48.0059331773597151 28.1128704123049964
 57.7812727340417212 43.1239527712082307 28.1128704123049964
 38.0510303620817112 43.1239527712082307 28.1128704123049964
 21.1394846004158765 48.0059331773597151 28.1128704123049964
 32.4138907340417219 43.1239527712082307 28.1128704123049964
  1.4092422284558699 48.0059331773597151 28.1128704123049964
 -5.6372245246106605 40.6829991828024689 28.1128704123049964
 60.5998848676675763 38.2419723650567462 28.1128704123049964
 52.1440908676675789 38.2419723650567462 28.1128704123049964
 28.1859937949951949 35.8010187766509844 28.1128704123049964
 22.5487696090151921 35.8010187766509844 28.1128704123049964
 -26.7767096261993700 52.8878403541712458 28.1128704123049964
 14.0929756090151947 35.8010187766509844 28.1128704123049964
 -15.5022612542393716 52.8878403541712458 28.1128704123049964
 -7.0464672542393672 52.8878403541712458 28.1128704123049964
 45.0975816730882570 50.4468867657654769 28.1128704123049964
 -2.8186123909848098 35.8010187766509844 28.1128704123049964
 -16.9116305769648072 35.8010187766509844 28.1128704123049964
 63.4184547223228137 33.3600651882452155 28.1128704123049964
 54.9626607223228163 33.3600651882452155 28.1128704123049964
 12.6836905597806329 52.8878403541712458 28.1128704123049964
 18.3209147457606356 52.8878403541712458 28.1128704123049964
 32.4138485363428117 33.3600651882452155 28.1128704123049964
 -1.4093276261993704 52.8878403541712458 28.1128704123049964
  4.2278967223228134 33.3600651882452155 28.1128704123049964
 33.8231334230351877 35.8010187766509844 28.1128704123049964
 42.2789274230351850 35.8010187766509844 28.1128704123049964
 49.3254364957075708 38.2419723650567462 28.1128704123049964
 46.5068666816875762 38.2419723650567462 28.1128704123049964
  2.8186116730882564 50.4468867657654769 28.1128704123049964
 16.9115453011282568 50.4468867657654769 28.1128704123049964
  9.8651208676675761 38.2419723650567462 28.1128704123049964
  4.2278966816875769 38.2419723650567462 28.1128704123049964
 39.4603576090151904 35.8010187766509844 28.1128704123049964
 -1.4093275042924258 38.2419723650567462 28.1128704123049964
 -9.8651215042924267 38.2419723650567462 28.1128704123049964
 -15.5022611323324266 38.2419723650567462 28.1128704123049964
 28.1859936730882552 50.4468867657654769 28.1128704123049964
 33.8231333011282445 50.4468867657654769 28.1128704123049964
 39.4603574871082543 50.4468867657654769 28.1128704123049964
 42.2789273011282489 50.4468867657654769 28.1128704123049964
 -7.0464671323324293 38.2419723650567462 28.1128704123049964
 -1.4093277074710613 62.6518011664742076 28.1128704123049964
 21.1394848035945166 23.5961043759422537 28.1128704123049964
 54.9626609661366956  4.0683292100162243 28.1128704123049964
  8.4557934175554603 69.9747351610314468 28.1128704123049964
 -29.5952795621263043 67.5337083432857384 28.1128704123049964
 -35.2325037481063035 67.5337083432857384 28.1128704123049964
 -38.0510735621263052 67.5337083432857384 28.1128704123049964
 45.0975815511813138 65.0927547548799765 28.1128704123049964
 42.2789699051832244 11.3912632045734714 28.1128704123049964
 42.2789271792213057 65.0927547548799765 28.1128704123049964
 39.4603573652013111 65.0927547548799765 28.1128704123049964
 76.1021459051832210 11.3912632045734714 28.1128704123049964
 -7.0465092081243990 13.8322167929792403 28.1128704123049964
 60.5998005941766849  4.0683292100162243 28.1128704123049964
  1.4092847918756004 13.8322167929792403 28.1128704123049964
  9.8650787918756002 13.8322167929792403 28.1128704123049964
 42.2789694175554729 69.9747351610314468 28.1128704123049964
 12.6836486058956019 13.8322167929792403 28.1128704123049964
 15.5023029778556030 13.8322167929792403 28.1128704123049964
 -1.4093272604785494  8.9502363868277595 28.1128704123049964
 23.9580969778556039 13.8322167929792403 28.1128704123049964
 52.1440065941766875  4.0683292100162243 28.1128704123049964
 29.5952366058956002 13.8322167929792403 28.1128704123049964
 14.0929753652013119 65.0927547548799765 28.1128704123049964
 -35.2324615097721576 72.4156887494372228 28.1128704123049964
 35.2324607918756030 13.8322167929792403 28.1128704123049964
 -0.0000423331509293  6.5092827984219914 28.1128704123049964
 11.2743637192032189 11.3912632045734714 28.1128704123049964
  5.6371818528290705  6.5092827984219914 28.1128704123049964
  8.4557516668490695  6.5092827984219914 28.1128704123049964
 29.5952784378736951 67.5337083432857384 28.1128704123049964
 23.9580547395214474  8.9502363868277595 28.1128704123049964
 73.2835338528290663  6.5092827984219914 28.1128704123049964
 26.7767091114814519  8.9502363868277595 28.1128704123049964
 35.2325026238536978 67.5337083432857384 28.1128704123049964
 64.8277398528290689  6.5092827984219914 28.1128704123049964
 32.4138487395214483  8.9502363868277595 28.1128704123049964
 38.0510724378736924 67.5337083432857384 28.1128704123049964
 -22.5488127684245363 69.9747351610314468 28.1128704123049964
 -16.9115885824445336 69.9747351610314468 28.1128704123049964
 45.0975820388090725  6.5092827984219914 28.1128704123049964
 21.1394849661366919  4.0683292100162243 28.1128704123049964
 39.4603578528290697  6.5092827984219914 28.1128704123049964
 -11.2744489544045354 69.9747351610314468 28.1128704123049964
 52.1440911114814512  8.9502363868277595 28.1128704123049964
 31.0045638528290759  6.5092827984219914 28.1128704123049964
 -5.6372247684245327 69.9747351610314468 28.1128704123049964
 57.7812307395214404  8.9502363868277595 28.1128704123049964
 60.5998851114814414  8.9502363868277595 28.1128704123049964
 66.2370247395214449  8.9502363868277595 28.1128704123049964
 -0.0000005824445366 69.9747351610314468 28.1128704123049964
 16.9115456668490722  6.5092827984219914 28.1128704123049964
  5.6371390455954664 69.9747351610314468 28.1128704123049964
 11.2744060388090670  6.5092827984219914 28.1128704123049964
 49.3254367395214430  8.9502363868277595 28.1128704123049964
  5.6371813652013136 65.0927547548799765 28.1128704123049964
 32.4138482518936897 67.5337083432857384 28.1128704123049964
  1.4092843042478451 72.4156887494372228 28.1128704123049964
  8.4557938645479798 16.2731703813850075 28.1128704123049964
 28.1859516785679780 16.2731703813850075 28.1128704123049964
 18.3208301065489287 62.6518011664742076 28.1128704123049964
 23.9580542925289315 62.6518011664742076 28.1128704123049964
 53.5533338004749169  1.6273023922705114 28.1128704123049964
 56.3719880505279747 16.2731703813850075 28.1128704123049964
 53.5533336785679737 16.2731703813850075 28.1128704123049964
 47.9161941724349276  1.6273023922705114 28.1128704123049964
 62.0091278004749142  1.6273023922705114 28.1128704123049964
 50.7347638645479790 16.2731703813850075 28.1128704123049964
 16.9115879864549186  1.6273023922705114 28.1128704123049964
 16.9115878645479825 16.2731703813850075 28.1128704123049964
 -2.8186126347986837 65.0927547548799765 28.1128704123049964
 39.4604001724349231  1.6273023922705114 28.1128704123049964
 36.6417458004749221  1.6273023922705114 28.1128704123049964
 26.7766663042478434 72.4156887494372228 28.1128704123049964
 38.0510724785089351 62.6518011664742076 28.1128704123049964
 31.0046060505279790 16.2731703813850075 28.1128704123049964
 26.7766241065489261 62.6518011664742076 28.1128704123049964
 35.2324603042478444 72.4156887494372228 28.1128704123049964
 28.1859518004749177  1.6273023922705114 28.1128704123049964
 12.6836904785089395 62.6518011664742076 28.1128704123049964
 -33.8232188207786848 65.0927547548799765 28.1128704123049964
 -25.3674248207786874 65.0927547548799765 28.1128704123049964
  8.4557939864549194  1.6273023922705114 28.1128704123049964
 70.4649216785679755 16.2731703813850075 28.1128704123049964
  7.0464667801566900  4.0683292100162243 28.1128704123049964
 69.0556367918755996 13.8322167929792403 28.1128704123049964
 -8.4557941354520185 16.2731703813850075 28.1128704123049964
 71.8742066058955942 13.8322167929792403 28.1128704123049964
  1.4092425941766900  4.0683292100162243 28.1128704123049964
 81.7393701724349171  1.6273023922705114 28.1128704123049964
 -31.0045644488186873 65.0927547548799765 28.1128704123049964
 -0.0000001354520196 16.2731703813850075 28.1128704123049964
  2.8185698004749202  1.6273023922705114 28.1128704123049964
 67.6463518645479809 16.2731703813850075 28.1128704123049964
 -19.7302005264368283 52.0741891580359919 28.6327538495249954
 31.0046055899903834 71.6020375533019688 28.6327538495249954
 -22.5487703404568300 52.0741891580359919 28.6327538495249954
 -1.4092432037113782 69.1610107355562462 28.6327538495249954
 42.2790117236162359 66.7200571471504844 28.6327538495249954
 -11.2743642068309775 47.1922087518845075 28.6327538495249954
 -22.5487280208509766 47.1922087518845075 28.6327538495249954
 29.5952785868707942 49.6332355696302230 28.6327538495249954
 -14.0929340208509810 47.1922087518845075 28.6327538495249954
 38.0510725868707951 49.6332355696302230 28.6327538495249954
 -21.1394855756713831 69.1610107355562462 28.6327538495249954
 49.3254364008908013 49.6332355696302230 28.6327538495249954
 18.3209147728507951 49.6332355696302230 28.6327538495249954
 -38.0510735756713814 69.1610107355562462 28.6327538495249954
 -31.0046067819696169 71.6020375533019688 28.6327538495249954
 22.5488115899903860 71.6020375533019688 28.6327538495249954
 -28.1859524100096195 71.6020375533019688 28.6327538495249954
 36.6418299791490298 47.1922087518845075 28.6327538495249954
 -19.7301584100096186 71.6020375533019688 28.6327538495249954
 39.4603997931690245 47.1922087518845075 28.6327538495249954
 -36.6417464100096169 71.6020375533019688 28.6327538495249954
 31.0046057931690235 47.1922087518845075 28.6327538495249954
 28.1860359791490147 47.1922087518845075 28.6327538495249954
 47.9161937931690360 47.1922087518845075 28.6327538495249954
 50.7347636071890307 47.1922087518845075 28.6327538495249954
 -26.7767095991092070 49.6332355696302230 28.6327538495249954
 -8.4557945959896212 71.6020375533019688 28.6327538495249954
 38.0510724243286234 69.1610107355562462 28.6327538495249954
 -18.3209155991092061 49.6332355696302230 28.6327538495249954
 -2.8185702068309761 47.1922087518845075 28.6327538495249954
 32.4139327962886199 69.1610107355562462 28.6327538495249954
 -5.6372247819696195 71.6020375533019688 28.6327538495249954
 -2.8185704100096114 71.6020375533019688 28.6327538495249954
 -12.6836914131292051 49.6332355696302230 28.6327538495249954
 -9.8651215991092069 49.6332355696302230 28.6327538495249954
 18.3209146103086198 69.1610107355562462 28.6327538495249954
 16.9115876071890092 47.1922087518845075 28.6327538495249954
 -4.2278974131292042 49.6332355696302230 28.6327538495249954
 14.0930177931690217 47.1922087518845075 28.6327538495249954
 -1.4093275991092098 49.6332355696302230 28.6327538495249954
 12.6836904243286224 69.1610107355562462 28.6327538495249954
  5.6372237931690181 47.1922087518845075 28.6327538495249954
  7.0464664008907913 49.6332355696302230 28.6327538495249954
 15.5022604008907816 49.6332355696302230 28.6327538495249954
 25.3673816071890279 47.1922087518845075 28.6327538495249954
 -0.0000005147179177 61.8380767409990000 28.6327538495249954
 -12.6836914537644478 54.5151427464417537 28.6327538495249954
 -2.8186125264368322 52.0741891580359919 28.6327538495249954
 -15.5023035873902977 59.3971231525932382 28.6327538495249954
 -35.2325037210161440 64.2791035587447084 28.6327538495249954
 -18.3208734014102959 59.3971231525932382 28.6327538495249954
 -23.9580975873902986 59.3971231525932382 28.6327538495249954
 -26.7766674014102968 59.3971231525932382 28.6327538495249954
 -32.4138915873902960 59.3971231525932382 28.6327538495249954
 -29.5952795350361448 64.2791035587447084 28.6327538495249954
 33.8231755259173212 56.9561695641874692 28.6327538495249954
 -12.6836492154302967 59.3971231525932382 28.6327538495249954
 -23.9580553490561456 64.2791035587447084 28.6327538495249954
  1.4093266509438596 64.2791035587447084 28.6327538495249954
 14.0930177118973283 56.9561695641874692 28.6327538495249954
  9.8651206509438563 64.2791035587447084 28.6327538495249954
  5.6372237118973310 56.9561695641874692 28.6327538495249954
 15.5022602789838597 64.2791035587447084 28.6327538495249954
 -5.6372246600626781 56.9561695641874692 28.6327538495249954
 -8.4557944740826727 56.9561695641874692 28.6327538495249954
 26.7767086509438528 64.2791035587447084 28.6327538495249954
 25.3673815259173274 56.9561695641874692 28.6327538495249954
 -14.0930186600626755 56.9561695641874692 28.6327538495249954
 -9.8650794014102949 59.3971231525932382 28.6327538495249954
 47.9161936712620928 61.8380767409990000 28.6327538495249954
 11.2744478572420874 61.8380767409990000 28.6327538495249954
 -5.6371401427579215 61.8380767409990000 28.6327538495249954
 14.0930176712620749 61.8380767409990000 28.6327538495249954
 -11.2743643287379136 61.8380767409990000 28.6327538495249954
 -16.9115885147179164 61.8380767409990000 28.6327538495249954
 40.8696845985897141 59.3971231525932382 28.6327538495249954
 31.0046056712620839 61.8380767409990000 28.6327538495249954
 33.8231754852820927 61.8380767409990000 28.6327538495249954
 -7.0465095873903012 59.3971231525932382 28.6327538495249954
 32.4138905985897026 59.3971231525932382 28.6327538495249954
 21.1395267845696964 59.3971231525932382 28.6327538495249954
 15.5023025985896936 59.3971231525932382 28.6327538495249954
 12.6837327845697061 59.3971231525932382 28.6327538495249954
  9.8650784126096909 59.3971231525932382 28.6327538495249954
 42.2789694852820901 61.8380767409990000 28.6327538495249954
  4.2279387845697078 59.3971231525932382 28.6327538495249954
 -1.4092854014103018 59.3971231525932382 28.6327538495249954
 -4.2278552154303037 59.3971231525932382 28.6327538495249954
 23.9580965985897052 59.3971231525932382 28.6327538495249954
 -11.2744065264368292 52.0741891580359919 28.6327538495249954
 -16.9115884740826736 56.9561695641874692 28.6327538495249954
 29.5952784649638616 64.2791035587447084 28.6327538495249954
  8.4558357236162376 66.7200571471504844 28.6327538495249954
  2.8186538572420905 61.8380767409990000 28.6327538495249954
 11.2744055376362251 66.7200571471504844 28.6327538495249954
 -21.1394854537644470 54.5151427464417537 28.6327538495249954
 -23.9580552677844487 54.5151427464417537 28.6327538495249954
 53.5533756595431782 52.0741891580359919 28.6327538495249954
 47.9161514735631755 52.0741891580359919 28.6327538495249954
 45.0975816595431809 52.0741891580359919 28.6327538495249954
 -9.8650370818044468 54.5151427464417537 28.6327538495249954
 39.4603574735631781 52.0741891580359919 28.6327538495249954
 22.5487694735631763 52.0741891580359919 28.6327538495249954
 14.0929753516562410 66.7200571471504844 28.6327538495249954
 19.7301996595431604 52.0741891580359919 28.6327538495249954
 16.9116297236162261 66.7200571471504844 28.6327538495249954
 19.7301995376362349 66.7200571471504844 28.6327538495249954
  2.8186116595431669 52.0741891580359919 28.6327538495249954
  0.0000418455231652 52.0741891580359919 28.6327538495249954
 25.3674237236162377 66.7200571471504844 28.6327538495249954
 36.6417876595431693 52.0741891580359919 28.6327538495249954
 -25.3673824740826745 56.9561695641874692 28.6327538495249954
  1.4093267322155492 54.5151427464417537 28.6327538495249954
  2.8186115376362340 66.7200571471504844 28.6327538495249954
 52.1440907322155596 54.5151427464417537 28.6327538495249954
 32.4138482789838704 64.2791035587447084 28.6327538495249954
 38.0510724649638732 64.2791035587447084 28.6327538495249954
 43.6882967322155622 54.5151427464417537 28.6327538495249954
 38.0510725462355595 54.5151427464417537 28.6327538495249954
 35.2325027322155506 54.5151427464417537 28.6327538495249954
 26.7767087322155568 54.5151427464417537 28.6327538495249954
 23.9581389181955480 54.5151427464417537 28.6327538495249954
  5.6371813516562215 66.7200571471504844 28.6327538495249954
 -25.3673402763837679 66.7200571471504844 28.6327538495249954
 -22.5487704623637697 66.7200571471504844 28.6327538495249954
 -19.7302006483437680 66.7200571471504844 28.6327538495249954
 -16.9115462763837670 66.7200571471504844 28.6327538495249954
 15.5023449181955559 54.5151427464417537 28.6327538495249954
 -14.0929764623637634 66.7200571471504844 28.6327538495249954
 -8.4557522763837714 66.7200571471504844 28.6327538495249954
  9.8651207322155532 54.5151427464417537 28.6327538495249954
  0.0000417236162395 66.7200571471504844 28.6327538495249954
 21.1394845462355612 54.5151427464417537 28.6327538495249954
 -25.3673823928109776 47.1922087518845075 28.6327538495249954
  1.4092849002374601  0.8136511961352557 28.6327538495249954
 46.5069089064766459 44.7512551634787386 28.6327538495249954
 74.6928609643105261 15.4595191852497500 28.6327538495249954
 66.2370669643105288 15.4595191852497500 28.6327538495249954
 57.7812729643105243 15.4595191852497500 28.6327538495249954
 40.8696849643105153 15.4595191852497500 28.6327538495249954
 38.0511151502905278 15.4595191852497500 28.6327538495249954
 35.2324607783305126 15.4595191852497500 28.6327538495249954
 32.4138909643105251 15.4595191852497500 28.6327538495249954
 26.7766667783305188 15.4595191852497500 28.6327538495249954
 12.6837331502905215 15.4595191852497500 28.6327538495249954
  7.0465089643105223 15.4595191852497500 28.6327538495249954
  4.2279391502905188 15.4595191852497500 28.6327538495249954
 -4.2278548497094786 15.4595191852497500 28.6327538495249954
 73.2835760776181360 13.0185655968439828 28.6327538495249954
 64.8277820776181386 13.0185655968439828 28.6327538495249954
 59.1905578916381430 13.0185655968439828 28.6327538495249954
 56.3719880776181483 13.0185655968439828 28.6327538495249954
 50.7347638916381456 13.0185655968439828 28.6327538495249954
 45.0975397056581500 13.0185655968439828 28.6327538495249954
 39.4604000776181465 13.0185655968439828 28.6327538495249954
 31.0046060776181456 13.0185655968439828 28.6327538495249954
 28.1859517056581375 13.0185655968439828 28.6327538495249954
 19.7301577056581365 13.0185655968439828 28.6327538495249954
  5.6372240776181393 13.0185655968439828 28.6327538495249954
 -8.4557941489970982 17.9004727736555189 28.6327538495249954
 -5.6371397770370981 17.9004727736555189 28.6327538495249954
 -2.8185699630171004 17.9004727736555189 28.6327538495249954
 -0.0000001489970986 17.9004727736555189 28.6327538495249954
 63.4184548306846807 20.3414995914012344 28.6327538495249954
 60.5998850166646719 20.3414995914012344 28.6327538495249954
 52.1440910166646745 20.3414995914012344 28.6327538495249954
 49.3254366447046735 20.3414995914012344 28.6327538495249954
 40.8696426447046761 20.3414995914012344 28.6327538495249954
 23.9580546447046672 20.3414995914012344 28.6327538495249954
 21.1394848306846654 20.3414995914012344 28.6327538495249954
 15.5022606447046662 20.3414995914012344 28.6327538495249954
  7.0464666447046698 20.3414995914012344 28.6327538495249954
  1.4093270166646681 20.3414995914012344 28.6327538495249954
 73.2835760369829075 17.9004727736555189 28.6327538495249954
 -2.8185699223818586 13.0185655968439828 28.6327538495249954
 70.4650062229628986 17.9004727736555189 28.6327538495249954
 56.3719880369828985 17.9004727736555189 28.6327538495249954
 50.7347638510029029 17.9004727736555189 28.6327538495249954
 47.9161940369829011 17.9004727736555189 28.6327538495249954
 42.2789698510029055 17.9004727736555189 28.6327538495249954
 36.6418302229629020 17.9004727736555189 28.6327538495249954
 28.1860362229629082 17.9004727736555189 28.6327538495249954
 25.3673818510029001 17.9004727736555189 28.6327538495249954
 22.5488120369828984 17.9004727736555189 28.6327538495249954
 19.7302422229628966 17.9004727736555189 28.6327538495249954
  5.6372240369829028 17.9004727736555189 28.6327538495249954
  2.8186542229628988 17.9004727736555189 28.6327538495249954
 59.1905578510029073 17.9004727736555189 28.6327538495249954
 71.8742489119563714 10.5775387790982709 28.6327538495249954
 69.0556790979363768 10.5775387790982709 28.6327538495249954
 46.5068669119563793 10.5775387790982709 28.6327538495249954
 35.2325031385716159  5.6956316022867357 28.6327538495249954
 29.5952789525916060  5.6956316022867357 28.6327538495249954
 26.7767091385716043  5.6956316022867357 28.6327538495249954
 21.1394849525916122  5.6956316022867357 28.6327538495249954
 12.6836909525916113  5.6956316022867357 28.6327538495249954
 -1.4093272333883895  5.6956316022867357 28.6327538495249954
 76.1021459729098524  3.2546047845410229 28.6327538495249954
 70.4650063448698489  3.2546047845410229 28.6327538495249954
 67.6463519729098550  3.2546047845410229 28.6327538495249954
 64.8277821588898462  3.2546047845410229 28.6327538495249954
 56.3719881588898417  3.2546047845410229 28.6327538495249954
 49.3254367666116167  5.6956316022867357 28.6327538495249954
 50.7347639729098461  3.2546047845410229 28.6327538495249954
 14.0930181588898407  3.2546047845410229 28.6327538495249954
 11.2744483448698372  3.2546047845410229 28.6327538495249954
  5.6372241588898389  3.2546047845410229 28.6327538495249954
 66.2370670862174649  0.8136511961352557 28.6327538495249954
 57.7812730862174604  0.8136511961352557 28.6327538495249954
 49.3254790862174488  0.8136511961352557 28.6327538495249954
 43.6882549002374461  0.8136511961352557 28.6327538495249954
 32.4138910862174541  0.8136511961352557 28.6327538495249954
 23.9580970862174638  0.8136511961352557 28.6327538495249954
 21.1395272721974621  0.8136511961352557 28.6327538495249954
 12.6837332721974576  0.8136511961352557 28.6327538495249954
 42.2789699729098274  3.2546047845410229 28.6327538495249954
 69.0556790166646692 20.3414995914012344 28.6327538495249954
 52.1440911385716035  5.6956316022867357 28.6327538495249954
 57.7812307666116141  5.6956316022867357 28.6327538495249954
 40.8697272839163759 10.5775387790982709 28.6327538495249954
 38.0510729119563607 10.5775387790982709 28.6327538495249954
 32.4139332839163785 10.5775387790982709 28.6327538495249954
 29.5952789119563668 10.5775387790982709 28.6327538495249954
 26.7767090979363651 10.5775387790982709 28.6327538495249954
 15.5023452839163713 10.5775387790982709 28.6327538495249954
 12.6836909119563703 10.5775387790982709 28.6327538495249954
  7.0465512839163686 10.5775387790982709 28.6327538495249954
  4.2278969119563712 10.5775387790982709 28.6327538495249954
  1.4093270979363695 10.5775387790982709 28.6327538495249954
 78.9207580252639929  8.1365851906925037 28.6327538495249954
 54.9626609525916123  5.6956316022867357 28.6327538495249954
 70.4649640252639955  8.1365851906925037 28.6327538495249954
 56.3719458392839954  8.1365851906925037 28.6327538495249954
 50.7348062112439848  8.1365851906925037 28.6327538495249954
 47.9161518392839980  8.1365851906925037 28.6327538495249954
 45.0975820252639821  8.1365851906925037 28.6327538495249954
 28.1859940252639873  8.1365851906925037 28.6327538495249954
 22.5487698392839881  8.1365851906925037 28.6327538495249954
  2.8186120252639890  8.1365851906925037 28.6327538495249954
 77.5114731385716169  5.6956316022867357 28.6327538495249954
 69.0556791385716195  5.6956316022867357 28.6327538495249954
 63.4184549525916097  5.6956316022867357 28.6327538495249954
 60.5998851385716151  5.6956316022867357 28.6327538495249954
 67.6463942112439867  8.1365851906925037 28.6327538495249954
  2.8186119033570516 22.7824531798069998 28.6327538495249954
 11.2744059033570529 22.7824531798069998 28.6327538495249954
 31.0045637173770388 22.7824531798069998 28.6327538495249954
 -18.3208309598975099 39.8692747573272612 28.6327538495249954
 -21.1394853318575109 39.8692747573272612 28.6327538495249954
 45.0975817814501099 37.4283211689214923 28.6327538495249954
 39.4603575954701142 37.4283211689214923 28.6327538495249954
 31.0045635954701204 37.4283211689214923 28.6327538495249954
 11.2744057814501097 37.4283211689214923 28.6327538495249954
 -11.2744064045298860 37.4283211689214923 28.6327538495249954
 -19.7302004045298887 37.4283211689214923 28.6327538495249954
 57.7812305227977419 34.9873675805157234 28.6327538495249954
 36.6417452180303869 71.6020375533019688 28.6327538495249954
 52.1440908947577384 34.9873675805157234 28.6327538495249954
 -4.2278973318575099 39.8692747573272612 28.6327538495249954
 49.3254365227977445 34.9873675805157234 28.6327538495249954
 29.5952787087777267 34.9873675805157234 28.6327538495249954
 23.9580545227977240 34.9873675805157234 28.6327538495249954
 18.3209148947577418 34.9873675805157234 28.6327538495249954
 12.6836907087777320 34.9873675805157234 28.6327538495249954
  9.8651208947577302 34.9873675805157234 28.6327538495249954
  7.0464665227977319 34.9873675805157234 28.6327538495249954
  4.2278967087777302 34.9873675805157234 28.6327538495249954
  1.4093268947577322 34.9873675805157234 28.6327538495249954
 -4.2278972912222672 34.9873675805157234 28.6327538495249954
 -7.0464671052422672 34.9873675805157234 28.6327538495249954
 -18.3209154772022664 34.9873675805157234 28.6327538495249954
 43.6882968947577410 34.9873675805157234 28.6327538495249954
 59.1905577290959641 32.5463407627700150 28.6327538495249954
 12.6836906681424875 39.8692747573272612 28.6327538495249954
 29.5952786681424982 39.8692747573272612 28.6327538495249954
 40.8696847204966431 44.7512551634787386 28.6327538495249954
 26.7766665345166501 44.7512551634787386 28.6327538495249954
 15.5023027204966439 44.7512551634787386 28.6327538495249954
  9.8650785345166412 44.7512551634787386 28.6327538495249954
 -1.4092852795033535 44.7512551634787386 28.6327538495249954
 -4.2278550935233552 44.7512551634787386 28.6327538495249954
 -12.6836490935233588 44.7512551634787386 28.6327538495249954
 -18.3208732795033562 44.7512551634787386 28.6327538495249954
 -23.9580974654833554 44.7512551634787386 28.6327538495249954
 59.1905576478242708 42.3103015750729767 28.6327538495249954
 53.5533334618442680 42.3103015750729767 28.6327538495249954
 21.1394846681424795 39.8692747573272612 28.6327538495249954
 45.0975394618442706 42.3103015750729767 28.6327538495249954
 28.1859514618442688 42.3103015750729767 28.6327538495249954
  2.8185694618442589 42.3103015750729767 28.6327538495249954
 -0.0000003521757358 42.3103015750729767 28.6327538495249954
 -11.2743641661957401 42.3103015750729767 28.6327538495249954
 -14.0930185381557376 42.3103015750729767 28.6327538495249954
 -22.5488125381557367 42.3103015750729767 28.6327538495249954
 54.9626606681424974 39.8692747573272612 28.6327538495249954
 49.3255210401024939 39.8692747573272612 28.6327538495249954
 40.8697270401024966 39.8692747573272612 28.6327538495249954
 35.2325028541224938 39.8692747573272612 28.6327538495249954
 32.4139330401024850 39.8692747573272612 28.6327538495249954
 33.8231756478242644 42.3103015750729767 28.6327538495249954
 52.1440485345166493 44.7512551634787386 28.6327538495249954
 50.7347637290959668 32.5463407627700150 28.6327538495249954
 36.6418301010559517 32.5463407627700150 28.6327538495249954
 14.0930179557111952 27.6644335859584807 28.6327538495249954
  5.6372239557112023 27.6644335859584807 28.6327538495249954
 -2.8185700442888009 27.6644335859584807 28.6327538495249954
 -8.4557942302688005 27.6644335859584807 28.6327538495249954
 -11.2743640442888005 27.6644335859584807 28.6327538495249954
 66.2371091620094319 25.2234067682127652 28.6327538495249954
 63.4184547900494380 25.2234067682127652 28.6327538495249954
 60.5998849760294434 25.2234067682127652 28.6327538495249954
 54.9626607900494406 25.2234067682127652 28.6327538495249954
 52.1440909760294318 25.2234067682127652 28.6327538495249954
 43.6882969760294344 25.2234067682127652 28.6327538495249954
 22.5488119557112086 27.6644335859584807 28.6327538495249954
 40.8697271620094256 25.2234067682127652 28.6327538495249954
 23.9581391620094379 25.2234067682127652 28.6327538495249954
 18.3209149760294281 25.2234067682127652 28.6327538495249954
  7.0465511620094325 25.2234067682127652 28.6327538495249954
  4.2278967900494315 25.2234067682127652 28.6327538495249954
 -1.4092428379905699 25.2234067682127652 28.6327538495249954
 -7.0464670239705693 25.2234067682127652 28.6327538495249954
 -9.8650368379905675 25.2234067682127652 28.6327538495249954
 62.0091699033570620 22.7824531798069998 28.6327538495249954
 45.0975819033570531 22.7824531798069998 28.6327538495249954
 42.2790120893370442 22.7824531798069998 28.6327538495249954
 36.6417879033570415 22.7824531798069998 28.6327538495249954
 32.4139331620094353 25.2234067682127652 28.6327538495249954
 39.4603999150759606 32.5463407627700150 28.6327538495249954
 25.3673817697312032 27.6644335859584807 28.6327538495249954
 33.8231757697311934 27.6644335859584807 28.6327538495249954
 31.0046059150759525 32.5463407627700150 28.6327538495249954
 28.1860361010559650 32.5463407627700150 28.6327538495249954
 25.3673817290959498 32.5463407627700150 28.6327538495249954
 22.5488119150759623 32.5463407627700150 28.6327538495249954
 19.7302421010559677 32.5463407627700150 28.6327538495249954
 16.9115877290959595 32.5463407627700150 28.6327538495249954
 14.0930179150759578 32.5463407627700150 28.6327538495249954
  8.4557937290959586 32.5463407627700150 28.6327538495249954
  2.8186541010559618 32.5463407627700150 28.6327538495249954
 -0.0000002709040391 32.5463407627700150 28.6327538495249954
 -11.2743640849240396 32.5463407627700150 28.6327538495249954
 28.1859515837511907 27.6644335859584807 28.6327538495249954
 -14.0929338989440378 32.5463407627700150 28.6327538495249954
 49.3254788424035837 30.1053871743642461 28.6327538495249954
 40.8696848424035863 30.1053871743642461 28.6327538495249954
 26.7766666564235685 30.1053871743642461 28.6327538495249954
  4.2279390283835818 30.1053871743642461 28.6327538495249954
 -12.6836489716164174 30.1053871743642461 28.6327538495249954
 -15.5023033435764184 30.1053871743642461 28.6327538495249954
 56.3719879557112051 27.6644335859584807 28.6327538495249954
 50.7347637697312024 27.6644335859584807 28.6327538495249954
 47.9161939557112078 27.6644335859584807 28.6327538495249954
 45.0975395837512067 27.6644335859584807 28.6327538495249954
 39.4603999557111962 27.6644335859584807 28.6327538495249954
 -16.9115882709040370 32.5463407627700150 28.6327538495249954
 42.2789694040103896 71.6020375533019688 28.6327538495249954
