 H  O 
 1.0000000000000000
    84.5579400000000021    0.0000000000000000    0.0000000000000000
   -42.2789706095346958   73.2293399455724767    0.0000000000000000
     0.0000000000000000    0.0000000000000000   46.9039550000000034
 H   O  
 219 349
Cartesian
  2.8185698004749202  1.6273023922705114 28.1128704123049964
 35.2325028676675771 38.2419723650567462 28.1128704123049964
 29.5952786816875744 38.2419723650567462 28.1128704123049964
 21.1394846816875770 38.2419723650567462 28.1128704123049964
 18.3209148676675753 38.2419723650567462 28.1128704123049964
 12.6836906816875779 38.2419723650567462 28.1128704123049964
 -4.2278973183124275 38.2419723650567462 28.1128704123049964
 29.5952361182678381 72.4156887494372228 28.1128704123049964
 -15.5022611323324266 38.2419723650567462 28.1128704123049964
 62.0091697949951950 35.8010187766509844 28.1128704123049964
 53.5533757949951976 35.8010187766509844 28.1128704123049964
 50.7347214230351895 35.8010187766509844 28.1128704123049964
 39.4603576090151904 35.8010187766509844 28.1128704123049964
  2.8186117949951930 35.8010187766509844 28.1128704123049964
 -16.9116305769648072 35.8010187766509844 28.1128704123049964
 26.7766243503628161 33.3600651882452155 28.1128704123049964
 38.0510726816875717 38.2419723650567462 28.1128704123049964
 52.1440908676675789 38.2419723650567462 28.1128704123049964
 -16.9115883386306614 40.6829991828024689 28.1128704123049964
 -14.0930185246106596 40.6829991828024689 28.1128704123049964
 -14.0930185652459006 45.5649063596139996 28.1128704123049964
 -19.7301581932858987 45.5649063596139996 28.1128704123049964
 52.1440485480617184 43.1239527712082307 28.1128704123049964
 43.6882545480617210 43.1239527712082307 28.1128704123049964
 32.4138907340417219 43.1239527712082307 28.1128704123049964
 12.6836483620817209 43.1239527712082307 28.1128704123049964
  4.2278543620817208 43.1239527712082307 28.1128704123049964
 21.1394847223228126 33.3600651882452155 28.1128704123049964
  1.4092845480617260 43.1239527712082307 28.1128704123049964
 -23.9580974519382757 43.1239527712082307 28.1128704123049964
 53.5533334753893371 40.6829991828024689 28.1128704123049964
 42.2789696613693309 40.6829991828024689 28.1128704123049964
 39.4603152894093299 40.6829991828024689 28.1128704123049964
 36.6417454753893352 40.6829991828024689 28.1128704123049964
 25.3673816613693432 40.6829991828024689 28.1128704123049964
 19.7301574753893405 40.6829991828024689 28.1128704123049964
 -9.8650792659582809 43.1239527712082307 28.1128704123049964
 -0.0000003792658964 45.5649063596139996 28.1128704123049964
  7.0464665363428152 33.3600651882452155 28.1128704123049964
  1.4092423503628120 33.3600651882452155 28.1128704123049964
 62.0091275972962777 26.0371311936879657 28.1128704123049964
 36.6417455972962784 26.0371311936879657 28.1128704123049964
 22.5487274113162819 26.0371311936879657 28.1128704123049964
 14.0929334113162810 26.0371311936879657 28.1128704123049964
  2.8185695972962814 26.0371311936879657 28.1128704123049964
 52.1440909895745008 23.5961043759422537 28.1128704123049964
 38.0510728035945078 23.5961043759422537 28.1128704123049964
 32.4138486176145122 23.5961043759422537 28.1128704123049964
  7.0464666176145112 23.5961043759422537 28.1128704123049964
  4.2278968035945095 23.5961043759422537 28.1128704123049964
 -1.4093273823854895 23.5961043759422537 28.1128704123049964
 -7.0464670104254905 23.5961043759422537 28.1128704123049964
 -12.6836911964054888 23.5961043759422537 28.1128704123049964
 62.0091699169021311 21.1551507875364884 28.1128704123049964
 45.0975819169021293 21.1551507875364884 28.1128704123049964
 -12.6837335160113369 28.4780847820937346 28.1128704123049964
 -4.2279395160113378 28.4780847820937346 28.1128704123049964
  9.8650786699686659 28.4780847820937346 28.1128704123049964
 12.6836484839886605 28.4780847820937346 28.1128704123049964
 -7.0465516496371885 33.3600651882452155 28.1128704123049964
 64.8277819286210502 30.9190383704995000 28.1128704123049964
 62.0091275566610349 30.9190383704995000 28.1128704123049964
 59.1905577426410403 30.9190383704995000 28.1128704123049964
 36.6417455566610357 30.9190383704995000 28.1128704123049964
 28.1859515566610455 30.9190383704995000 28.1128704123049964
 25.3673817426410437 30.9190383704995000 28.1128704123049964
  4.2278967223228134 33.3600651882452155 28.1128704123049964
 14.0930179286210446 30.9190383704995000 28.1128704123049964
 -14.0930184433389574 30.9190383704995000 28.1128704123049964
 63.4184124839886536 28.4780847820937346 28.1128704123049964
 60.5998426699686590 28.4780847820937346 28.1128704123049964
 52.1440486699686616 28.4780847820937346 28.1128704123049964
 46.5068244839886518 28.4780847820937346 28.1128704123049964
 40.8696848559486625 28.4780847820937346 28.1128704123049964
 26.7766666699686624 28.4780847820937346 28.1128704123049964
 -11.2743640713789581 30.9190383704995000 28.1128704123049964
  2.8185694347540982 45.5649063596139996 28.1128704123049964
 16.9115876207341032 45.5649063596139996 28.1128704123049964
 22.5488118067141059 45.5649063596139996 28.1128704123049964
  2.8186115511813119 65.0927547548799765 28.1128704123049964
 -22.5487704488186900 65.0927547548799765 28.1128704123049964
 -25.3674248207786874 65.0927547548799765 28.1128704123049964
 23.9580542925289315 62.6518011664742076 28.1128704123049964
 15.5022602925289341 62.6518011664742076 28.1128704123049964
 12.6836904785089395 62.6518011664742076 28.1128704123049964
 -4.2278975214910632 62.6518011664742076 28.1128704123049964
 -26.7767097074710669 62.6518011664742076 28.1128704123049964
 -29.5952795214910651 62.6518011664742076 28.1128704123049964
 39.4603996848071645 60.2107743487284921 28.1128704123049964
 31.0046056848071565 60.2107743487284921 28.1128704123049964
 14.0930176848071671 60.2107743487284921 28.1128704123049964
 -0.0000005011728327 60.2107743487284921 28.1128704123049964
 -2.8185703151928343 60.2107743487284921 28.1128704123049964
 -5.6372246871528393 60.2107743487284921 28.1128704123049964
  5.6371813652013136 65.0927547548799765 28.1128704123049964
 19.7301995511813146 65.0927547548799765 28.1128704123049964
 33.8231331792213084 65.0927547548799765 28.1128704123049964
 39.4603573652013111 65.0927547548799765 28.1128704123049964
 21.1394421182678336 72.4156887494372228 28.1128704123049964
 18.3208723042478390 72.4156887494372228 28.1128704123049964
 -1.4092855097721566 72.4156887494372228 28.1128704123049964
 -29.5953218817321577 72.4156887494372228 28.1128704123049964
 -32.4138916957521559 72.4156887494372228 28.1128704123049964
 19.7301572315754683 69.9747351610314468 28.1128704123049964
  8.4557934175554603 69.9747351610314468 28.1128704123049964
 -14.0930186871528367 60.2107743487284921 28.1128704123049964
  5.6371390455954664 69.9747351610314468 28.1128704123049964
 -31.0046067684245337 69.9747351610314468 28.1128704123049964
 43.6882966238536952 67.5337083432857384 28.1128704123049964
 29.5952784378736951 67.5337083432857384 28.1128704123049964
  7.0464662518936976 67.5337083432857384 28.1128704123049964
 -9.8651217481063078 67.5337083432857384 28.1128704123049964
 -18.3209157481063052 67.5337083432857384 28.1128704123049964
 42.2789271792213057 65.0927547548799765 28.1128704123049964
 -14.0930187684245301 69.9747351610314468 28.1128704123049964
 -33.8231765011728385 60.2107743487284921 28.1128704123049964
 49.3254786121347877 57.7698207603227232 28.1128704123049964
 46.5068242401747796 57.7698207603227232 28.1128704123049964
 -23.9580552542393690 52.8878403541712458 28.1128704123049964
 -26.7767096261993700 52.8878403541712458 28.1128704123049964
 39.4603574871082543 50.4468867657654769 28.1128704123049964
 25.3673393011282471 50.4468867657654769 28.1128704123049964
 22.5487694871082525 50.4468867657654769 28.1128704123049964
 19.7301996730882578 50.4468867657654769 28.1128704123049964
  8.4557513011282524 50.4468867657654769 28.1128704123049964
 -15.5022612542393716 52.8878403541712458 28.1128704123049964
 -8.4558366988717459 50.4468867657654769 28.1128704123049964
 52.1440062284558650 48.0059331773597151 28.1128704123049964
 35.2324182284558631 48.0059331773597151 28.1128704123049964
 29.5952786004158739 48.0059331773597151 28.1128704123049964
 12.6836906004158720 48.0059331773597151 28.1128704123049964
  4.2278966004158747 48.0059331773597151 28.1128704123049964
 -4.2278973995841262 48.0059331773597151 28.1128704123049964
 47.9161938067141051 45.5649063596139996 28.1128704123049964
 -11.2744065128917477 50.4468867657654769 28.1128704123049964
 25.3673395449421299 21.1551507875364884 28.1128704123049964
 -4.2278974402193654 52.8878403541712458 28.1128704123049964
 23.9580543738006249 52.8878403541712458 28.1128704123049964
  4.2278542401747847 57.7698207603227232 28.1128704123049964
 -4.2279397598252162 57.7698207603227232 28.1128704123049964
 -15.5023035738452162 57.7698207603227232 28.1128704123049964
 45.0975393534824036 55.3288671719169614 28.1128704123049964
 42.2789695394624090 55.3288671719169614 28.1128704123049964
 33.8231755394623974 55.3288671719169614 28.1128704123049964
 22.5487271675023955 55.3288671719169614 28.1128704123049964
  7.0464663738006301 52.8878403541712458 28.1128704123049964
 16.9115875394624062 55.3288671719169614 28.1128704123049964
  8.4557935394624035 55.3288671719169614 28.1128704123049964
 -19.7302428324975985 55.3288671719169614 28.1128704123049964
 -22.5488126465175966 55.3288671719169614 28.1128704123049964
 -25.3673824605375984 55.3288671719169614 28.1128704123049964
 40.8696423738006303 52.8878403541712458 28.1128704123049964
 38.0510725597806356 52.8878403541712458 28.1128704123049964
 29.5952785597806276 52.8878403541712458 28.1128704123049964
 11.2743633534824053 55.3288671719169614 28.1128704123049964
 19.7301999169021336 21.1551507875364884 28.1128704123049964
 32.4138904902278497 72.4156887494372228 28.1128704123049964
 12.6836908442297531 18.7141971991307194 28.1128704123049964
 71.8742066058955942 13.8322167929792403 28.1128704123049964
 67.6463518645479809 16.2731703813850075 28.1128704123049964
 59.1905156668490591  6.5092827984219914 28.1128704123049964
 69.0556367918755996 13.8322167929792403 28.1128704123049964
 67.6463519864549170  1.6273023922705114 28.1128704123049964
 33.8231759051832199 11.3912632045734714 28.1128704123049964
 70.4649218004749116  1.6273023922705114 28.1128704123049964
 -4.2278971557702505 18.7141971991307194 28.1128704123049964
 -1.4092850221444004 13.8322167929792403 28.1128704123049964
 64.8277398528290689  6.5092827984219914 28.1128704123049964
 25.3673819051832226 11.3912632045734714 28.1128704123049964
 22.5487275332232180 11.3912632045734714 28.1128704123049964
 56.3719881724349250  1.6273023922705114 28.1128704123049964
 60.5998427918756022 13.8322167929792403 28.1128704123049964
 21.1394849661366919  4.0683292100162243 28.1128704123049964
 11.2743637192032189 11.3912632045734714 28.1128704123049964
 18.3208305941766909  4.0683292100162243 28.1128704123049964
 23.9580969778556039 13.8322167929792403 28.1128704123049964
 -0.0000001354520196 16.2731703813850075 28.1128704123049964
 25.3673396668490696  6.5092827984219914 28.1128704123049964
  5.6372240505279780 16.2731703813850075 28.1128704123049964
 78.9207158004749090  1.6273023922705114 28.1128704123049964
 31.0045638528290759  6.5092827984219914 28.1128704123049964
 70.4649217192032182 11.3912632045734714 28.1128704123049964
 73.2834915332232129 11.3912632045734714 28.1128704123049964
 53.5533337192032164 11.3912632045734714 28.1128704123049964
  7.0464667801566900  4.0683292100162243 28.1128704123049964
 45.0975820388090725  6.5092827984219914 28.1128704123049964
 -8.4557941354520185 16.2731703813850075 28.1128704123049964
 73.2835761724349197  1.6273023922705114 28.1128704123049964
 33.8231758645479843 16.2731703813850075 28.1128704123049964
 53.5533336785679737 16.2731703813850075 28.1128704123049964
 16.9115878645479825 16.2731703813850075 28.1128704123049964
  7.0464667395214500  8.9502363868277595 28.1128704123049964
 67.6463519051832236 11.3912632045734714 28.1128704123049964
 43.6882124722697469 18.7141971991307194 28.1128704123049964
 49.3254789778556031 13.8322167929792403 28.1128704123049964
 57.7812306582497541 18.7141971991307194 28.1128704123049964
 43.6882971114814538  8.9502363868277595 28.1128704123049964
 46.5068668442297550 18.7141971991307194 28.1128704123049964
 28.1859518004749177  1.6273023922705114 28.1128704123049964
 -0.0000000948167802 11.3912632045734714 28.1128704123049964
 32.4138486582497549 18.7141971991307194 28.1128704123049964
 40.8696427801566955  4.0683292100162243 28.1128704123049964
 21.1394426058955993 13.8322167929792403 28.1128704123049964
 16.9115879864549186  1.6273023922705114 28.1128704123049964
 40.8696426582497523 18.7141971991307194 28.1128704123049964
 -2.8186544667767790 11.3912632045734714 28.1128704123049964
 77.5114731114814504  8.9502363868277595 28.1128704123049964
  2.8186119169021282 21.1551507875364884 28.1128704123049964
 35.2324184722697566 18.7141971991307194 28.1128704123049964
 12.6836486058956019 13.8322167929792403 28.1128704123049964
 -11.2744062690778684 21.1551507875364884 28.1128704123049964
 60.5998851114814414  8.9502363868277595 28.1128704123049964
  9.8651211114814483  8.9502363868277595 28.1128704123049964
 54.9626186058955923 13.8322167929792403 28.1128704123049964
  8.4557939051832172 11.3912632045734714 28.1128704123049964
 39.4604001724349231  1.6273023922705114 28.1128704123049964
 49.3254367395214430  8.9502363868277595 28.1128704123049964
 69.0555945941766822  4.0683292100162243 28.1128704123049964
 57.7812307395214404  8.9502363868277595 28.1128704123049964
 46.5068665462355568 54.5151427464417537 28.6327538495249954
 -16.9115884740826736 56.9561695641874692 28.6327538495249954
 -32.4138915873902960 59.3971231525932382 28.6327538495249954
 -25.3673824740826745 56.9561695641874692 28.6327538495249954
 -19.7301582881026789 56.9561695641874692 28.6327538495249954
 70.4650063448698489  3.2546047845410229 28.6327538495249954
 50.7347635259173302 56.9561695641874692 28.6327538495249954
 31.0046057118973302 56.9561695641874692 28.6327538495249954
 18.3209151385716105  5.6956316022867357 28.6327538495249954
 -14.0930186600626755 56.9561695641874692 28.6327538495249954
  1.4093271385716108  5.6956316022867357 28.6327538495249954
 47.9161937118973214 56.9561695641874692 28.6327538495249954
 -2.8185702881026811 56.9561695641874692 28.6327538495249954
  2.8185693399373224 56.9561695641874692 28.6327538495249954
 81.7393701588898551  3.2546047845410229 28.6327538495249954
 -1.4093272333883895  5.6956316022867357 28.6327538495249954
  5.6372237118973310 56.9561695641874692 28.6327538495249954
 21.1394849525916122  5.6956316022867357 28.6327538495249954
 45.0975393399373274 56.9561695641874692 28.6327538495249954
 14.0930177118973283 56.9561695641874692 28.6327538495249954
 16.9115875259173158 56.9561695641874692 28.6327538495249954
 33.8231755259173212 56.9561695641874692 28.6327538495249954
 78.9208003448698463  3.2546047845410229 28.6327538495249954
 12.6836908306846716 20.3414995914012344 28.6327538495249954
 -15.5022612677844460 54.5151427464417537 28.6327538495249954
 23.9580547666116068  5.6956316022867357 28.6327538495249954
 11.2744056595431719 52.0741891580359919 28.6327538495249954
  8.4558358455231772 52.0741891580359919 28.6327538495249954
  5.6371814735631682 52.0741891580359919 28.6327538495249954
 -2.8186125264368322 52.0741891580359919 28.6327538495249954
 -5.6371823404568273 52.0741891580359919 28.6327538495249954
 -14.0929763404568273 52.0741891580359919 28.6327538495249954
 11.2744060252639908  8.1365851906925037 28.6327538495249954
 31.0045638392839891  8.1365851906925037 28.6327538495249954
 -25.3673401544768282 52.0741891580359919 28.6327538495249954
 33.8232182112439972  8.1365851906925037 28.6327538495249954
 52.1440907728507952 49.6332355696302230 28.6327538495249954
 35.2325027728508005 49.6332355696302230 28.6327538495249954
 45.0975820252639821  8.1365851906925037 28.6327538495249954
 23.9580544008907985 49.6332355696302230 28.6327538495249954
 47.9161518392839980  8.1365851906925037 28.6327538495249954
 21.1394845868707826 49.6332355696302230 28.6327538495249954
  9.8651207728507995 49.6332355696302230 28.6327538495249954
 22.5487694735631763 52.0741891580359919 28.6327538495249954
 80.3300429525916257  5.6956316022867357 28.6327538495249954
 25.3674238455231631 52.0741891580359919 28.6327538495249954
 36.6417876595431693 52.0741891580359919 28.6327538495249954
 40.8697269181955534 54.5151427464417537 28.6327538495249954
 29.5952785462355585 54.5151427464417537 28.6327538495249954
 21.1394845462355612 54.5151427464417537 28.6327538495249954
 18.3209147322155452 54.5151427464417537 28.6327538495249954
 32.4138487666116077  5.6956316022867357 28.6327538495249954
 35.2325031385716159  5.6956316022867357 28.6327538495249954
  9.8651207322155532 54.5151427464417537 28.6327538495249954
  7.0465509181955595 54.5151427464417537 28.6327538495249954
 43.6882967322155622 54.5151427464417537 28.6327538495249954
 -4.2278974537644496 54.5151427464417537 28.6327538495249954
 46.5068669525916008  5.6956316022867357 28.6327538495249954
 -21.1394854537644470 54.5151427464417537 28.6327538495249954
 49.3254367666116167  5.6956316022867357 28.6327538495249954
 -23.9580552677844487 54.5151427464417537 28.6327538495249954
 42.2790118455231720 52.0741891580359919 28.6327538495249954
 60.5998851385716151  5.6956316022867357 28.6327538495249954
 39.4603574735631781 52.0741891580359919 28.6327538495249954
 63.4184549525916097  5.6956316022867357 28.6327538495249954
 -18.3208310818044460 54.5151427464417537 28.6327538495249954
 -29.5952372154302985 59.3971231525932382 28.6327538495249954
 32.4138905985897026 59.3971231525932382 28.6327538495249954
 67.6463519729098550  3.2546047845410229 28.6327538495249954
 -18.3208312037113821 69.1610107355562462 28.6327538495249954
 -29.5952795756713840 69.1610107355562462 28.6327538495249954
 54.9627032721974516  0.8136511961352557 28.6327538495249954
 -35.2324192037113804 69.1610107355562462 28.6327538495249954
 -38.0510735756713814 69.1610107355562462 28.6327538495249954
 45.0975815376362448 66.7200571471504844 28.6327538495249954
 42.2790117236162359 66.7200571471504844 28.6327538495249954
 39.4603573516562420 66.7200571471504844 28.6327538495249954
 31.0045633516562411 66.7200571471504844 28.6327538495249954
 57.7812730862174604  0.8136511961352557 28.6327538495249954
 28.1859935376362323 66.7200571471504844 28.6327538495249954
 19.7301995376362349 66.7200571471504844 28.6327538495249954
  8.4558357236162376 66.7200571471504844 28.6327538495249954
 60.5998429002374621  0.8136511961352557 28.6327538495249954
  5.6371813516562215 66.7200571471504844 28.6327538495249954
 -8.4557522763837714 66.7200571471504844 28.6327538495249954
 -14.0929764623637634 66.7200571471504844 28.6327538495249954
 69.0556369002374737  0.8136511961352557 28.6327538495249954
 -19.7302006483437680 66.7200571471504844 28.6327538495249954
 -15.5022613896913821 69.1610107355562462 28.6327538495249954
 43.6882549002374461  0.8136511961352557 28.6327538495249954
 -12.6836915756713875 69.1610107355562462 28.6327538495249954
 -9.8650372037113900 69.1610107355562462 28.6327538495249954
  4.2279392721974602  0.8136511961352557 28.6327538495249954
 19.7301572180303850 71.6020375533019688 28.6327538495249954
 12.6837332721974576  0.8136511961352557 28.6327538495249954
 16.9115874040103833 71.6020375533019688 28.6327538495249954
 14.0930175899903762 71.6020375533019688 28.6327538495249954
 -0.0000005959896168 71.6020375533019688 28.6327538495249954
 -2.8185704100096114 71.6020375533019688 28.6327538495249954
 -11.2743644100096230 71.6020375533019688 28.6327538495249954
 -14.0930187819696204 71.6020375533019688 28.6327538495249954
 -22.5487704623637697 66.7200571471504844 28.6327538495249954
 -16.9115885959896168 71.6020375533019688 28.6327538495249954
 -31.0046067819696169 71.6020375533019688 28.6327538495249954
 -33.8231765959896151 71.6020375533019688 28.6327538495249954
 43.6882966103086261 69.1610107355562462 28.6327538495249954
 29.5952784243286260 69.1610107355562462 28.6327538495249954
 21.1394844243286215 69.1610107355562462 28.6327538495249954
 38.0511152721974639  0.8136511961352557 28.6327538495249954
  7.0465507962886189 69.1610107355562462 28.6327538495249954
 40.8696850862174585  0.8136511961352557 28.6327538495249954
  4.2278964243286037 69.1610107355562462 28.6327538495249954
 18.3208729002374611  0.8136511961352557 28.6327538495249954
 43.6882966509438617 64.2791035587447084 28.6327538495249954
 40.8696422789838678 64.2791035587447084 28.6327538495249954
 71.8742912721974676  0.8136511961352557 28.6327538495249954
 -2.8185703287379194 61.8380767409990000 28.6327538495249954
 -8.4557945147179190 61.8380767409990000 28.6327538495249954
 -14.0929341427579153 61.8380767409990000 28.6327538495249954
 19.7302423448698399  3.2546047845410229 28.6327538495249954
 -28.1859523287379155 61.8380767409990000 28.6327538495249954
 -31.0045221427579136 61.8380767409990000 28.6327538495249954
 -33.8231765147179146 61.8380767409990000 28.6327538495249954
 49.3254785985897115 59.3971231525932382 28.6327538495249954
 22.5488121588898416  3.2546047845410229 28.6327538495249954
 16.9115879729098388  3.2546047845410229 28.6327538495249954
  7.0464664008907913 49.6332355696302230 28.6327538495249954
 29.5953207845697079 59.3971231525932382 28.6327538495249954
 26.7766664126097069 59.3971231525932382 28.6327538495249954
 18.3208724126097096 59.3971231525932382 28.6327538495249954
 15.5023025985896936 59.3971231525932382 28.6327538495249954
 39.4604001588898399  3.2546047845410229 28.6327538495249954
 12.6837327845697061 59.3971231525932382 28.6327538495249954
 -1.4092854014103018 59.3971231525932382 28.6327538495249954
 56.3719881588898417  3.2546047845410229 28.6327538495249954
 -4.2278552154303037 59.3971231525932382 28.6327538495249954
 33.8231759729098371  3.2546047845410229 28.6327538495249954
 -15.5023035873902977 59.3971231525932382 28.6327538495249954
 14.0930176712620749 61.8380767409990000 28.6327538495249954
 36.6418298572420866 61.8380767409990000 28.6327538495249954
 38.0510724649638732 64.2791035587447084 28.6327538495249954
 35.2325026509438644 64.2791035587447084 28.6327538495249954
 29.5952784649638616 64.2791035587447084 28.6327538495249954
 23.9580542789838589 64.2791035587447084 28.6327538495249954
 21.1394844649638500 64.2791035587447084 28.6327538495249954
 74.6928610862174764  0.8136511961352557 28.6327538495249954
 18.3209146509438554 64.2791035587447084 28.6327538495249954
 15.5022602789838597 64.2791035587447084 28.6327538495249954
  7.0464662789838490 64.2791035587447084 28.6327538495249954
  5.6372241588898389  3.2546047845410229 28.6327538495249954
 77.5114309002374711  0.8136511961352557 28.6327538495249954
 -4.2278975350361501 64.2791035587447084 28.6327538495249954
 -9.8651217210161430 64.2791035587447084 28.6327538495249954
 -21.1394855350361439 64.2791035587447084 28.6327538495249954
 83.1486550862174738  0.8136511961352557 28.6327538495249954
 -23.9580553490561456 64.2791035587447084 28.6327538495249954
 -0.0000000270901599  3.2546047845410229 28.6327538495249954
 -26.7767097210161431 64.2791035587447084 28.6327538495249954
 -29.5952795350361448 64.2791035587447084 28.6327538495249954
 39.4603996712620955 61.8380767409990000 28.6327538495249954
  4.2278964649638544 64.2791035587447084 28.6327538495249954
 -4.2278974131292042 49.6332355696302230 28.6327538495249954
 -14.0929340208509810 47.1922087518845075 28.6327538495249954
 59.1906002112439964  8.1365851906925037 28.6327538495249954
 26.7766666564235685 30.1053871743642461 28.6327538495249954
 12.6837331502905215 15.4595191852497500 28.6327538495249954
 23.9580968424035810 30.1053871743642461 28.6327538495249954
 15.5023029643105232 15.4595191852497500 28.6327538495249954
 12.6837330283835765 30.1053871743642461 28.6327538495249954
 -9.8650791575964192 30.1053871743642461 28.6327538495249954
 -12.6836489716164174 30.1053871743642461 28.6327538495249954
 18.3208727783305179 15.4595191852497500 28.6327538495249954
 -15.5023033435764184 30.1053871743642461 28.6327538495249954
 21.1395271502905153 15.4595191852497500 28.6327538495249954
 62.0091275837512086 27.6644335859584807 28.6327538495249954
 32.4138909643105251 15.4595191852497500 28.6327538495249954
 45.0975395837512067 27.6644335859584807 28.6327538495249954
 42.2789697697312050 27.6644335859584807 28.6327538495249954
 54.9627031502905297 15.4595191852497500 28.6327538495249954
 39.4603999557111962 27.6644335859584807 28.6327538495249954
 36.6417455837512094 27.6644335859584807 28.6327538495249954
 28.1859515837511907 27.6644335859584807 28.6327538495249954
 25.3673817697312032 27.6644335859584807 28.6327538495249954
 29.5953210283835837 30.1053871743642461 28.6327538495249954
 14.0930179557111952 27.6644335859584807 28.6327538495249954
  4.2279391502905188 15.4595191852497500 28.6327538495249954
 40.8696848424035863 30.1053871743642461 28.6327538495249954
 53.5534181010559607 32.5463407627700150 28.6327538495249954
 50.7347637290959668 32.5463407627700150 28.6327538495249954
 39.4603999150759606 32.5463407627700150 28.6327538495249954
 36.6418301010559517 32.5463407627700150 28.6327538495249954
 28.1860361010559650 32.5463407627700150 28.6327538495249954
 70.4649217056581421 13.0185655968439828 28.6327538495249954
 19.7302421010559677 32.5463407627700150 28.6327538495249954
  5.6372239150759640 32.5463407627700150 28.6327538495249954
 73.2835760776181360 13.0185655968439828 28.6327538495249954
  2.8186541010559618 32.5463407627700150 28.6327538495249954
 -5.6371398989440404 32.5463407627700150 28.6327538495249954
 -7.0465092216694787 15.4595191852497500 28.6327538495249954
 -14.0929338989440378 32.5463407627700150 28.6327538495249954
 -16.9115882709040370 32.5463407627700150 28.6327538495249954
 -1.4092850356894804 15.4595191852497500 28.6327538495249954
 63.4184970283835838 30.1053871743642461 28.6327538495249954
 60.5998426564235899 30.1053871743642461 28.6327538495249954
  1.4092847783305213 15.4595191852497500 28.6327538495249954
 52.1440486564235925 30.1053871743642461 28.6327538495249954
 38.0511150283835775 30.1053871743642461 28.6327538495249954
 69.0556367783305234 15.4595191852497500 28.6327538495249954
 11.2743635837511977 27.6644335859584807 28.6327538495249954
 71.8742911502905173 15.4595191852497500 28.6327538495249954
 33.8232180893370540 22.7824531798069998 28.6327538495249954
 19.7301999033570468 22.7824531798069998 28.6327538495249954
 42.2789698510029055 17.9004727736555189 28.6327538495249954
  5.6371817173770493 22.7824531798069998 28.6327538495249954
  2.8186119033570516 22.7824531798069998 28.6327538495249954
 45.0976242229628923 17.9004727736555189 28.6327538495249954
 -11.2744062826229499 22.7824531798069998 28.6327538495249954
 71.8742488306846781 20.3414995914012344 28.6327538495249954
 63.4184548306846807 20.3414995914012344 28.6327538495249954
 59.1905578510029073 17.9004727736555189 28.6327538495249954
 60.5998850166646719 20.3414995914012344 28.6327538495249954
 49.3254366447046735 20.3414995914012344 28.6327538495249954
 46.5068668306846718 20.3414995914012344 28.6327538495249954
 62.0092122229629013 17.9004727736555189 28.6327538495249954
 38.0510728306846602 20.3414995914012344 28.6327538495249954
 35.2325030166646727 20.3414995914012344 28.6327538495249954
 26.7767090166646753 20.3414995914012344 28.6327538495249954
 64.8277820369829101 17.9004727736555189 28.6327538495249954
 23.9580546447046672 20.3414995914012344 28.6327538495249954
 36.6417879033570415 22.7824531798069998 28.6327538495249954
 39.4603577173770574 22.7824531798069998 28.6327538495249954
 50.7348060893370558 22.7824531798069998 28.6327538495249954
 33.8231758510028868 17.9004727736555189 28.6327538495249954
 -0.0000002302687971 27.6644335859584807 28.6327538495249954
 -2.8185700442888009 27.6644335859584807 28.6327538495249954
 -5.6372244162487979 27.6644335859584807 28.6327538495249954
 -11.2743640442888005 27.6644335859584807 28.6327538495249954
 -2.8185699630171004 17.9004727736555189 28.6327538495249954
 63.4184547900494380 25.2234067682127652 28.6327538495249954
 -0.0000001489970986 17.9004727736555189 28.6327538495249954
 60.5998849760294434 25.2234067682127652 28.6327538495249954
 38.0510727900494388 25.2234067682127652 28.6327538495249954
 56.3719879150759695 32.5463407627700150 28.6327538495249954
 26.7767089760294326 25.2234067682127652 28.6327538495249954
 21.1394847900494298 25.2234067682127652 28.6327538495249954
 16.9115878510028992 17.9004727736555189 28.6327538495249954
 12.6836907900494289 25.2234067682127652 28.6327538495249954
  4.2278967900494315 25.2234067682127652 28.6327538495249954
  1.4093269760294336 25.2234067682127652 28.6327538495249954
 -1.4092428379905699 25.2234067682127652 28.6327538495249954
 -7.0464670239705693 25.2234067682127652 28.6327538495249954
 62.0091699033570620 22.7824531798069998 28.6327538495249954
 53.5533759033570504 22.7824531798069998 28.6327538495249954
 14.0930180369829028 17.9004727736555189 28.6327538495249954
 -18.3209154772022664 34.9873675805157234 28.6327538495249954
 -15.5022611052422672 34.9873675805157234 28.6327538495249954
 -12.6836912912222672 34.9873675805157234 28.6327538495249954
  1.4092845345166412 44.7512551634787386 28.6327538495249954
 -18.3208732795033562 44.7512551634787386 28.6327538495249954
 32.4139332839163785 10.5775387790982709 28.6327538495249954
 -21.1394430935233544 44.7512551634787386 28.6327538495249954
 -23.9580974654833554 44.7512551634787386 28.6327538495249954
 59.1905576478242708 42.3103015750729767 28.6327538495249954
 45.0975394618442706 42.3103015750729767 28.6327538495249954
 35.2325030979363731 10.5775387790982709 28.6327538495249954
 42.2789696478242618 42.3103015750729767 28.6327538495249954
 39.4603998338042672 42.3103015750729767 28.6327538495249954
 38.0510729119563607 10.5775387790982709 28.6327538495249954
 31.0046058338042556 42.3103015750729767 28.6327538495249954
 28.1859514618442688 42.3103015750729767 28.6327538495249954
 25.3673816478242529 42.3103015750729767 28.6327538495249954
 14.0930178338042680 42.3103015750729767 28.6327538495249954
 40.8697272839163759 10.5775387790982709 28.6327538495249954
 11.2743634618442599 42.3103015750729767 28.6327538495249954
 49.3255212839163661 10.5775387790982709 28.6327538495249954
 52.1440910979363750 10.5775387790982709 28.6327538495249954
 12.6836909119563703 10.5775387790982709 28.6327538495249954
  4.2279389064766386 44.7512551634787386 28.6327538495249954
 12.6837329064766493 44.7512551634787386 28.6327538495249954
 18.3208725345166314 44.7512551634787386 28.6327538495249954
 -9.8651215991092069 49.6332355696302230 28.6327538495249954
 -12.6836914131292051 49.6332355696302230 28.6327538495249954
 62.0091700252639910  8.1365851906925037 28.6327538495249954
 50.7347636071890307 47.1922087518845075 28.6327538495249954
 47.9161937931690360 47.1922087518845075 28.6327538495249954
 31.0046057931690235 47.1922087518845075 28.6327538495249954
 -1.4092427160836287 10.5775387790982709 28.6327538495249954
 11.2744479791490271 47.1922087518845075 28.6327538495249954
  8.4557936071890190 47.1922087518845075 28.6327538495249954
 -5.6372245381557384 42.3103015750729767 28.6327538495249954
  5.6372237931690181 47.1922087518845075 28.6327538495249954
  7.0465512839163686 10.5775387790982709 28.6327538495249954
 -5.6371400208509774 47.1922087518845075 28.6327538495249954
 -22.5487280208509766 47.1922087518845075 28.6327538495249954
 -25.3673823928109776 47.1922087518845075 28.6327538495249954
 57.7812727204966521 44.7512551634787386 28.6327538495249954
 46.5069089064766459 44.7512551634787386 28.6327538495249954
 43.6882545345166520 44.7512551634787386 28.6327538495249954
 29.5953209064766369 44.7512551634787386 28.6327538495249954
  9.8651210979363722 10.5775387790982709 28.6327538495249954
 -2.8185702068309761 47.1922087518845075 28.6327538495249954
 -7.0464672271492059 49.6332355696302230 28.6327538495249954
 -8.4557943521757366 42.3103015750729767 28.6327538495249954
 54.9626609119563767 10.5775387790982709 28.6327538495249954
 19.7301997814501142 37.4283211689214923 28.6327538495249954
 14.0929755954701115 37.4283211689214923 28.6327538495249954
 22.5488120776181340 13.0185655968439828 28.6327538495249954
 11.2744057814501097 37.4283211689214923 28.6327538495249954
  2.8186117814501150 37.4283211689214923 28.6327538495249954
  0.0000419674301133 37.4283211689214923 28.6327538495249954
 -2.8186124045298877 37.4283211689214923 28.6327538495249954
 25.3673818916381357 13.0185655968439828 28.6327538495249954
 33.8231758916381438 13.0185655968439828 28.6327538495249954
 -16.9115460325698876 37.4283211689214923 28.6327538495249954
 36.6417457056581313 13.0185655968439828 28.6327538495249954
 54.9626607087777472 34.9873675805157234 28.6327538495249954
 52.1440908947577384 34.9873675805157234 28.6327538495249954
 50.7347638916381456 13.0185655968439828 28.6327538495249954
 53.5533337056581473 13.0185655968439828 28.6327538495249954
 21.1394847087777364 34.9873675805157234 28.6327538495249954
  4.2278967087777302 34.9873675805157234 28.6327538495249954
  1.4093268947577322 34.9873675805157234 28.6327538495249954
 -1.4093274772022688 34.9873675805157234 28.6327538495249954
 11.2743637056581409 13.0185655968439828 28.6327538495249954
  8.4557938916381428 13.0185655968439828 28.6327538495249954
 36.6417877814501125 37.4283211689214923 28.6327538495249954
  2.8185697056581414 13.0185655968439828 28.6327538495249954
 57.7813150401024913 39.8692747573272612 28.6327538495249954
 54.9626606681424974 39.8692747573272612 28.6327538495249954
 57.7813152839163777 10.5775387790982709 28.6327538495249954
 46.5068666681425000 39.8692747573272612 28.6327538495249954
 43.6882968541224912 39.8692747573272612 28.6327538495249954
 40.8697270401024966 39.8692747573272612 28.6327538495249954
 69.0556790979363768 10.5775387790982709 28.6327538495249954
 38.0510726681424956 39.8692747573272612 28.6327538495249954
 29.5952786681424982 39.8692747573272612 28.6327538495249954
 -22.5488125381557367 42.3103015750729767 28.6327538495249954
 71.8742489119563714 10.5775387790982709 28.6327538495249954
 21.1394846681424795 39.8692747573272612 28.6327538495249954
 12.6836906681424875 39.8692747573272612 28.6327538495249954
 -4.2278973318575099 39.8692747573272612 28.6327538495249954
 -2.8185699223818586 13.0185655968439828 28.6327538495249954
 -15.5022611458775117 39.8692747573272612 28.6327538495249954
 53.5533757814501215 37.4283211689214923 28.6327538495249954
 -0.0000001083618602 13.0185655968439828 28.6327538495249954
 50.7348059674301126 37.4283211689214923 28.6327538495249954
 39.4603575954701142 37.4283211689214923 28.6327538495249954
 23.9581390401024947 39.8692747573272612 28.6327538495249954
 -5.6371822185498859 37.4283211689214923 28.6327538495249954
