 H  O 
 1.0000000000000000
    84.5579400000000021    0.0000000000000000    0.0000000000000000
   -42.2789706095346958   73.2293399455724767    0.0000000000000000
     0.0000000000000000    0.0000000000000000   46.9039550000000034
 H   O  
 208 351
Cartesian
 -0.0000000135450799  1.6273023922705114 28.1128704123049964
 47.9161092894093343 40.6829991828024689 28.1128704123049964
 39.4603152894093299 40.6829991828024689 28.1128704123049964
 33.8231756613693406 40.6829991828024689 28.1128704123049964
  2.8185694753893440 40.6829991828024689 28.1128704123049964
 -8.4557943386306622 40.6829991828024689 28.1128704123049964
 -14.0930185246106596 40.6829991828024689 28.1128704123049964
 26.7767088676675797 38.2419723650567462 28.1128704123049964
 15.5022604957075725 38.2419723650567462 28.1128704123049964
  4.2278966816875769 38.2419723650567462 28.1128704123049964
 -21.1394853183124276 38.2419723650567462 28.1128704123049964
 47.9161516090151949 35.8010187766509844 28.1128704123049964
 42.2789274230351850 35.8010187766509844 28.1128704123049964
 38.0510301182678390 72.4156887494372228 28.1128704123049964
 25.3673394230351938 35.8010187766509844 28.1128704123049964
 -0.0000425769648080 35.8010187766509844 28.1128704123049964
 50.7347636613693425 40.6829991828024689 28.1128704123049964
 -5.6371822050048115 35.8010187766509844 28.1128704123049964
 -21.1395276379182775 43.1239527712082307 28.1128704123049964
  1.4092845480617260 43.1239527712082307 28.1128704123049964
 31.0046058067141033 45.5649063596139996 28.1128704123049964
 25.3673816207341005 45.5649063596139996 28.1128704123049964
 14.0930178067140996 45.5649063596139996 28.1128704123049964
 11.2743634347540986 45.5649063596139996 28.1128704123049964
 -0.0000003792658964 45.5649063596139996 28.1128704123049964
 -5.6372245652458988 45.5649063596139996 28.1128704123049964
 -25.3673823792659014 45.5649063596139996 28.1128704123049964
 57.7812727340417212 43.1239527712082307 28.1128704123049964
 54.9626183620817130 43.1239527712082307 28.1128704123049964
 26.7766665480617228 43.1239527712082307 28.1128704123049964
 23.9580967340417281 43.1239527712082307 28.1128704123049964
 18.3208725480617254 43.1239527712082307 28.1128704123049964
 15.5023027340417219 43.1239527712082307 28.1128704123049964
 12.6836483620817209 43.1239527712082307 28.1128704123049964
  4.2278543620817208 43.1239527712082307 28.1128704123049964
 -1.4092852659582757 43.1239527712082307 28.1128704123049964
 36.6417454347540925 45.5649063596139996 28.1128704123049964
 -16.9116305769648072 35.8010187766509844 28.1128704123049964
 49.3254365363428136 33.3600651882452155 28.1128704123049964
 23.9580968559486607 28.4780847820937346 28.1128704123049964
 -1.4092851440513405 28.4780847820937346 28.1128704123049964
 -4.2279395160113378 28.4780847820937346 28.1128704123049964
 -9.8650791440513395 28.4780847820937346 28.1128704123049964
 64.8276974113162794 26.0371311936879657 28.1128704123049964
 47.9161094113162704 26.0371311936879657 28.1128704123049964
 11.2743635972962863 26.0371311936879657 28.1128704123049964
 -0.0000002167237204 26.0371311936879657 28.1128704123049964
 -14.0930184027037182 26.0371311936879657 28.1128704123049964
 38.0510728035945078 23.5961043759422537 28.1128704123049964
 15.5022606176145086 23.5961043759422537 28.1128704123049964
  4.2278968035945095 23.5961043759422537 28.1128704123049964
 67.6463095449421274 21.1551507875364884 28.1128704123049964
 47.9161517309221239 21.1551507875364884 28.1128704123049964
 31.0045637309221327 21.1551507875364884 28.1128704123049964
 32.4138908559486651 28.4780847820937346 28.1128704123049964
 57.7812305363428109 33.3600651882452155 28.1128704123049964
 38.0510304839886544 28.4780847820937346 28.1128704123049964
 57.7812728559486644 28.4780847820937346 28.1128704123049964
 26.7766243503628161 33.3600651882452155 28.1128704123049964
 23.9580545363428143 33.3600651882452155 28.1128704123049964
 15.5022605363428152 33.3600651882452155 28.1128704123049964
 12.6836907223228135 33.3600651882452155 28.1128704123049964
 -12.6836912776771893 33.3600651882452155 28.1128704123049964
 64.8277819286210502 30.9190383704995000 28.1128704123049964
 47.9161939286210341 30.9190383704995000 28.1128704123049964
 36.6417455566610357 30.9190383704995000 28.1128704123049964
 25.3673817426410437 30.9190383704995000 28.1128704123049964
 14.0930179286210446 30.9190383704995000 28.1128704123049964
  5.6372239286210437 30.9190383704995000 28.1128704123049964
 -5.6372244433389582 30.9190383704995000 28.1128704123049964
 -16.9115882573589573 30.9190383704995000 28.1128704123049964
 66.2370668559486688 28.4780847820937346 28.1128704123049964
 63.4184124839886536 28.4780847820937346 28.1128704123049964
 49.3254788559486528 28.4780847820937346 28.1128704123049964
 19.7301999169021336 21.1551507875364884 28.1128704123049964
 47.9161938067141051 45.5649063596139996 28.1128704123049964
  4.2278966004158747 48.0059331773597151 28.1128704123049964
 -32.4138493761463025 67.5337083432857384 28.1128704123049964
 -35.2325037481063035 67.5337083432857384 28.1128704123049964
 39.4603573652013111 65.0927547548799765 28.1128704123049964
 19.7301995511813146 65.0927547548799765 28.1128704123049964
 11.2744055511813173 65.0927547548799765 28.1128704123049964
  5.6371813652013136 65.0927547548799765 28.1128704123049964
 -11.2744066347986838 65.0927547548799765 28.1128704123049964
 -19.7302006347986882 65.0927547548799765 28.1128704123049964
 -33.8232188207786848 65.0927547548799765 28.1128704123049964
 46.5068664785089325 62.6518011664742076 28.1128704123049964
 35.2324181065489270 62.6518011664742076 28.1128704123049964
 23.9580542925289315 62.6518011664742076 28.1128704123049964
 -1.4093277074710613 62.6518011664742076 28.1128704123049964
 -7.0465518934510678 62.6518011664742076 28.1128704123049964
 -23.9581398934510652 62.6518011664742076 28.1128704123049964
 -23.9580553761463051 67.5337083432857384 28.1128704123049964
 45.0975393128471538 60.2107743487284921 28.1128704123049964
 -9.8651217481063078 67.5337083432857384 28.1128704123049964
 15.5022602518936878 67.5337083432857384 28.1128704123049964
 23.9580964902278346 72.4156887494372228 28.1128704123049964
  9.8650783042478416 72.4156887494372228 28.1128704123049964
  4.2278541182678469 72.4156887494372228 28.1128704123049964
  1.4092843042478451 72.4156887494372228 28.1128704123049964
 -1.4092855097721566 72.4156887494372228 28.1128704123049964
 -15.5023036957521541 72.4156887494372228 28.1128704123049964
 -21.1395278817321568 72.4156887494372228 28.1128704123049964
 -35.2324615097721576 72.4156887494372228 28.1128704123049964
 28.1859512315754728 69.9747351610314468 28.1128704123049964
 -0.0000005824445366 69.9747351610314468 28.1128704123049964
 -2.8186549544045376 69.9747351610314468 28.1128704123049964
 -33.8231765824445318 69.9747351610314468 28.1128704123049964
 32.4138482518936897 67.5337083432857384 28.1128704123049964
 21.1394844378736906 67.5337083432857384 28.1128704123049964
 18.3209146238536960 67.5337083432857384 28.1128704123049964
  9.8651206238536986 67.5337083432857384 28.1128704123049964
 -9.8651215855641290 48.0059331773597151 28.1128704123049964
  2.8185693128471621 60.2107743487284921 28.1128704123049964
 -14.0930186871528367 60.2107743487284921 28.1128704123049964
 46.5068665597806330 52.8878403541712458 28.1128704123049964
 43.6882967457606384 52.8878403541712458 28.1128704123049964
 32.4138483738006258 52.8878403541712458 28.1128704123049964
 12.6836905597806329 52.8878403541712458 28.1128704123049964
  9.8651207457606311 52.8878403541712458 28.1128704123049964
 -4.2278974402193654 52.8878403541712458 28.1128704123049964
 -15.5022612542393716 52.8878403541712458 28.1128704123049964
 -18.3209156261993691 52.8878403541712458 28.1128704123049964
 47.9161514871082517 50.4468867657654769 28.1128704123049964
 39.4603574871082543 50.4468867657654769 28.1128704123049964
 28.1859936730882552 50.4468867657654769 28.1128704123049964
 22.5487694871082525 50.4468867657654769 28.1128704123049964
 -14.0929763269117494 50.4468867657654769 28.1128704123049964
 -25.3674246988717442 50.4468867657654769 28.1128704123049964
 35.2324182284558631 48.0059331773597151 28.1128704123049964
 49.3254363738006276 52.8878403541712458 28.1128704123049964
 -0.0000005011728327 60.2107743487284921 28.1128704123049964
 -31.0046066465175976 55.3288671719169614 28.1128704123049964
 -19.7302428324975985 55.3288671719169614 28.1128704123049964
 -19.7301583151928384 60.2107743487284921 28.1128704123049964
 -31.0046066871528367 60.2107743487284921 28.1128704123049964
 43.6882544261547849 57.7698207603227232 28.1128704123049964
 21.1394422401747804 57.7698207603227232 28.1128704123049964
 12.6836482401747883 57.7698207603227232 28.1128704123049964
  4.2278542401747847 57.7698207603227232 28.1128704123049964
  1.4092844261547897 57.7698207603227232 28.1128704123049964
 -4.2279397598252162 57.7698207603227232 28.1128704123049964
 -9.8650793878652134 57.7698207603227232 28.1128704123049964
 -26.7766673878652135 57.7698207603227232 28.1128704123049964
 36.6417453534824062 55.3288671719169614 28.1128704123049964
 25.3673815394624036 55.3288671719169614 28.1128704123049964
 19.7301573534824009 55.3288671719169614 28.1128704123049964
 16.9115875394624062 55.3288671719169614 28.1128704123049964
  5.6371391675024016 55.3288671719169614 28.1128704123049964
 -22.5488126465175966 55.3288671719169614 28.1128704123049964
  8.4557515449421317 21.1551507875364884 28.1128704123049964
 36.6417877949951958 35.8010187766509844 28.1128704123049964
 69.0556791114814530  8.9502363868277595 28.1128704123049964
 56.3719880505279747 16.2731703813850075 28.1128704123049964
 32.4138487801566981  4.0683292100162243 28.1128704123049964
 42.2789276668490714  6.5092827984219914 28.1128704123049964
 73.2835760505279836 16.2731703813850075 28.1128704123049964
 -1.4092850221444004 13.8322167929792403 28.1128704123049964
 29.5952789661366928  4.0683292100162243 28.1128704123049964
 -1.4093273417502492 18.7141971991307194 28.1128704123049964
 36.6417880388090680  6.5092827984219914 28.1128704123049964
 12.6836908442297531 18.7141971991307194 28.1128704123049964
 14.0929758528290687  6.5092827984219914 28.1128704123049964
 23.9580546582497540 18.7141971991307194 28.1128704123049964
 45.0975397192032190 11.3912632045734714 28.1128704123049964
 29.5952788442297496 18.7141971991307194 28.1128704123049964
  7.0464667395214500  8.9502363868277595 28.1128704123049964
 -1.4093272198433096  4.0683292100162243 28.1128704123049964
 38.0510728442297577 18.7141971991307194 28.1128704123049964
 59.1905156668490591  6.5092827984219914 28.1128704123049964
 52.1440065941766875  4.0683292100162243 28.1128704123049964
 15.5023029778556030 13.8322167929792403 28.1128704123049964
 33.8231758645479843 16.2731703813850075 28.1128704123049964
 57.7812729778555934 13.8322167929792403 28.1128704123049964
  2.8186120388090696  6.5092827984219914 28.1128704123049964
 52.1440487918755977 13.8322167929792403 28.1128704123049964
 25.3673396668490696  6.5092827984219914 28.1128704123049964
 -0.0000001354520196 16.2731703813850075 28.1128704123049964
 80.3300429661366877  4.0683292100162243 28.1128704123049964
 63.4184549255014502  8.9502363868277595 28.1128704123049964
 28.1859940388090742  6.5092827984219914 28.1128704123049964
 38.0510306058956047 13.8322167929792403 28.1128704123049964
  5.6372240505279780 16.2731703813850075 28.1128704123049964
 71.8742489661366903  4.0683292100162243 28.1128704123049964
 29.5952366058956002 13.8322167929792403 28.1128704123049964
 60.5998005941766849  4.0683292100162243 28.1128704123049964
 57.7812307801566902  4.0683292100162243 28.1128704123049964
 33.8231336668490670  6.5092827984219914 28.1128704123049964
 31.0046060505279790 16.2731703813850075 28.1128704123049964
 54.9626609661366956  4.0683292100162243 28.1128704123049964
 22.5487275332232180 11.3912632045734714 28.1128704123049964
 81.7393701724349171  1.6273023922705114 28.1128704123049964
  8.4557516668490695  6.5092827984219914 28.1128704123049964
 54.9626608442297453 18.7141971991307194 28.1128704123049964
 56.3719881724349250  1.6273023922705114 28.1128704123049964
 69.0555944722697461 18.7141971991307194 28.1128704123049964
 16.9115879864549186  1.6273023922705114 28.1128704123049964
 31.0046061724349222  1.6273023922705114 28.1128704123049964
 40.8696427395214528  8.9502363868277595 28.1128704123049964
 49.3254367395214430  8.9502363868277595 28.1128704123049964
  5.6371395332232206 11.3912632045734714 28.1128704123049964
 74.6928187395214422  8.9502363868277595 28.1128704123049964
 28.1859518004749177  1.6273023922705114 28.1128704123049964
 71.8742488442297542 18.7141971991307194 28.1128704123049964
 57.7812306582497541 18.7141971991307194 28.1128704123049964
 18.3209151114814510  8.9502363868277595 28.1128704123049964
 43.6882124722697469 18.7141971991307194 28.1128704123049964
  8.4557939051832172 11.3912632045734714 28.1128704123049964
 26.7767087728507853 49.6332355696302230 28.6327538495249954
 -5.6372246600626781 56.9561695641874692 28.6327538495249954
 35.2325031385716159  5.6956316022867357 28.6327538495249954
 32.4138487666116077  5.6956316022867357 28.6327538495249954
 -19.7301582881026789 56.9561695641874692 28.6327538495249954
  2.8185693399373224 56.9561695641874692 28.6327538495249954
 45.0975820252639821  8.1365851906925037 28.6327538495249954
 29.5952789525916060  5.6956316022867357 28.6327538495249954
  5.6372237118973310 56.9561695641874692 28.6327538495249954
 47.9161518392839980  8.1365851906925037 28.6327538495249954
 23.9580544008907985 49.6332355696302230 28.6327538495249954
 28.1859936595431719 52.0741891580359919 28.6327538495249954
  4.2278965868707896 49.6332355696302230 28.6327538495249954
 36.6418299791490298 47.1922087518845075 28.6327538495249954
 56.3719877931690334 47.1922087518845075 28.6327538495249954
 -29.5952372154302985 59.3971231525932382 28.6327538495249954
 15.5022607666116095  5.6956316022867357 28.6327538495249954
 -32.4138915873902960 59.3971231525932382 28.6327538495249954
 50.7348062112439848  8.1365851906925037 28.6327538495249954
 36.6417453399373301 56.9561695641874692 28.6327538495249954
 33.8231755259173212 56.9561695641874692 28.6327538495249954
 25.3673815259173274 56.9561695641874692 28.6327538495249954
 22.5488117118973186 56.9561695641874692 28.6327538495249954
 26.7767091385716043  5.6956316022867357 28.6327538495249954
 -12.6836914131292051 49.6332355696302230 28.6327538495249954
 -9.8651215991092069 49.6332355696302230 28.6327538495249954
 -7.0464672271492059 49.6332355696302230 28.6327538495249954
 38.0510725868707951 49.6332355696302230 28.6327538495249954
 11.2743633399373131 56.9561695641874692 28.6327538495249954
 -25.3673824740826745 56.9561695641874692 28.6327538495249954
 -31.0046066600626737 56.9561695641874692 28.6327538495249954
 40.8696424008908039 49.6332355696302230 28.6327538495249954
 -21.1394854537644470 54.5151427464417537 28.6327538495249954
 71.8742489525916284  5.6956316022867357 28.6327538495249954
 -5.6371823404568273 52.0741891580359919 28.6327538495249954
 -23.9580552677844487 54.5151427464417537 28.6327538495249954
 28.1859940252639873  8.1365851906925037 28.6327538495249954
 74.6928187666116230  5.6956316022867357 28.6327538495249954
 80.3300429525916257  5.6956316022867357 28.6327538495249954
 47.9161514735631755 52.0741891580359919 28.6327538495249954
 -2.8186125264368322 52.0741891580359919 28.6327538495249954
 45.0975816595431809 52.0741891580359919 28.6327538495249954
 22.5487698392839881  8.1365851906925037 28.6327538495249954
  8.4558362112439873  8.1365851906925037 28.6327538495249954
 42.2790118455231720 52.0741891580359919 28.6327538495249954
 11.2744056595431719 52.0741891580359919 28.6327538495249954
 14.0929758392839890  8.1365851906925037 28.6327538495249954
 -14.0929763404568273 52.0741891580359919 28.6327538495249954
 42.2790122112439946  8.1365851906925037 28.6327538495249954
 60.5998851385716151  5.6956316022867357 28.6327538495249954
 36.6417880252639918  8.1365851906925037 28.6327538495249954
 43.6882967728507978 49.6332355696302230 28.6327538495249954
 -28.1859522881026763 56.9561695641874692 28.6327538495249954
 46.5068665462355568 54.5151427464417537 28.6327538495249954
 43.6882967322155622 54.5151427464417537 28.6327538495249954
 38.0510729525916105  5.6956316022867357 28.6327538495249954
 35.2325027322155506 54.5151427464417537 28.6327538495249954
 32.4139329181955560 54.5151427464417537 28.6327538495249954
 -19.7302005264368283 52.0741891580359919 28.6327538495249954
 39.4603578392839793  8.1365851906925037 28.6327538495249954
 23.9581389181955480 54.5151427464417537 28.6327538495249954
 21.1394845462355612 54.5151427464417537 28.6327538495249954
 -16.9115461544768308 52.0741891580359919 28.6327538495249954
 52.1440911385716035  5.6956316022867357 28.6327538495249954
 18.3209147322155452 54.5151427464417537 28.6327538495249954
 57.7812307666116141  5.6956316022867357 28.6327538495249954
 -15.5022612677844460 54.5151427464417537 28.6327538495249954
 -18.3208310818044460 54.5151427464417537 28.6327538495249954
 -22.5487281427579163 61.8380767409990000 28.6327538495249954
 -1.4092854014103018 59.3971231525932382 28.6327538495249954
 -1.4092432037113782 69.1610107355562462 28.6327538495249954
 66.2370670862174649  0.8136511961352557 28.6327538495249954
 -12.6836915756713875 69.1610107355562462 28.6327538495249954
 -15.5022613896913821 69.1610107355562462 28.6327538495249954
 -23.9580553896913813 69.1610107355562462 28.6327538495249954
 -32.4138493896913857 69.1610107355562462 28.6327538495249954
 80.3300852721974650  0.8136511961352557 28.6327538495249954
 -35.2324192037113804 69.1610107355562462 28.6327538495249954
 39.4603573516562420 66.7200571471504844 28.6327538495249954
 36.6417875376362474 66.7200571471504844 28.6327538495249954
 31.0045633516562411 66.7200571471504844 28.6327538495249954
 28.1859935376362323 66.7200571471504844 28.6327538495249954
 83.1486550862174738  0.8136511961352557 28.6327538495249954
 19.7301995376362349 66.7200571471504844 28.6327538495249954
 16.9116297236162261 66.7200571471504844 28.6327538495249954
 -0.0000000270901599  3.2546047845410229 28.6327538495249954
 11.2744055376362251 66.7200571471504844 28.6327538495249954
  5.6372241588898389  3.2546047845410229 28.6327538495249954
 -8.4557522763837714 66.7200571471504844 28.6327538495249954
  1.4093266103086164 69.1610107355562462 28.6327538495249954
  8.4557939729098397  3.2546047845410229 28.6327538495249954
  9.8651206103086064 69.1610107355562462 28.6327538495249954
 15.5023447962886092 69.1610107355562462 28.6327538495249954
 28.1859512180303895 71.6020375533019688 28.6327538495249954
 25.3673814040103807 71.6020375533019688 28.6327538495249954
  1.4092849002374601  0.8136511961352557 28.6327538495249954
 22.5488115899903860 71.6020375533019688 28.6327538495249954
  7.0465090862174584  0.8136511961352557 28.6327538495249954
  2.8185692180303707 71.6020375533019688 28.6327538495249954
 26.7766669002374584  0.8136511961352557 28.6327538495249954
 -0.0000005959896168 71.6020375533019688 28.6327538495249954
 -2.8185704100096114 71.6020375533019688 28.6327538495249954
 40.8696850862174585  0.8136511961352557 28.6327538495249954
 -25.3673825959896213 71.6020375533019688 28.6327538495249954
 -28.1859524100096195 71.6020375533019688 28.6327538495249954
 -33.8231765959896151 71.6020375533019688 28.6327538495249954
 43.6882549002374461  0.8136511961352557 28.6327538495249954
 32.4139327962886199 69.1610107355562462 28.6327538495249954
 29.5952784243286260 69.1610107355562462 28.6327538495249954
 52.1440489002374647  0.8136511961352557 28.6327538495249954
 26.7767086103086172 69.1610107355562462 28.6327538495249954
 23.9581387962886225 69.1610107355562462 28.6327538495249954
 12.6836904243286224 69.1610107355562462 28.6327538495249954
 -9.8650794014102949 59.3971231525932382 28.6327538495249954
 -11.2744066483437688 66.7200571471504844 28.6327538495249954
 -19.7302006483437680 66.7200571471504844 28.6327538495249954
 45.0976238572420840 61.8380767409990000 28.6327538495249954
 36.6418298572420866 61.8380767409990000 28.6327538495249954
 59.1905579729098434  3.2546047845410229 28.6327538495249954
 11.2744478572420874 61.8380767409990000 28.6327538495249954
 -0.0000005147179177 61.8380767409990000 28.6327538495249954
 -2.8185703287379194 61.8380767409990000 28.6327538495249954
 -5.6371401427579215 61.8380767409990000 28.6327538495249954
 -11.2743643287379136 61.8380767409990000 28.6327538495249954
 -14.0929341427579153 61.8380767409990000 28.6327538495249954
 -33.8231765147179146 61.8380767409990000 28.6327538495249954
 49.3254785985897115 59.3971231525932382 28.6327538495249954
 81.7393701588898551  3.2546047845410229 28.6327538495249954
 32.4138905985897026 59.3971231525932382 28.6327538495249954
 21.1395267845696964 59.3971231525932382 28.6327538495249954
 18.3208724126097096 59.3971231525932382 28.6327538495249954
  9.8650784126096909 59.3971231525932382 28.6327538495249954
  4.2279387845697078 59.3971231525932382 28.6327538495249954
 -1.4093272333883895  5.6956316022867357 28.6327538495249954
  1.4092844126096999 59.3971231525932382 28.6327538495249954
 56.3719881588898417  3.2546047845410229 28.6327538495249954
 -14.0929764623637634 66.7200571471504844 28.6327538495249954
 47.9161936712620928 61.8380767409990000 28.6327538495249954
 -32.4138493490561430 64.2791035587447084 28.6327538495249954
 -22.5487704623637697 66.7200571471504844 28.6327538495249954
 16.9115879729098388  3.2546047845410229 28.6327538495249954
 19.7302423448698399  3.2546047845410229 28.6327538495249954
 -33.8231342763837688 66.7200571471504844 28.6327538495249954
 28.1860363448698337  3.2546047845410229 28.6327538495249954
 40.8696422789838678 64.2791035587447084 28.6327538495249954
 38.0510724649638732 64.2791035587447084 28.6327538495249954
 35.2325026509438644 64.2791035587447084 28.6327538495249954
 23.9580542789838589 64.2791035587447084 28.6327538495249954
 21.1394844649638500 64.2791035587447084 28.6327538495249954
 31.0046061588898354  3.2546047845410229 28.6327538495249954
  9.8651206509438563 64.2791035587447084 28.6327538495249954
 33.8231759729098371  3.2546047845410229 28.6327538495249954
 -1.4093277210161486 64.2791035587447084 28.6327538495249954
 -9.8651217210161430 64.2791035587447084 28.6327538495249954
 50.7347639729098461  3.2546047845410229 28.6327538495249954
 -12.6836915350361448 64.2791035587447084 28.6327538495249954
 -15.5022613490561429 64.2791035587447084 28.6327538495249954
 -23.9580553490561456 64.2791035587447084 28.6327538495249954
 -35.2325037210161440 64.2791035587447084 28.6327538495249954
 33.8231756071890288 47.1922087518845075 28.6327538495249954
 -4.2278971693153311 20.3414995914012344 28.6327538495249954
 22.5488117931690120 47.1922087518845075 28.6327538495249954
 12.6837330283835765 30.1053871743642461 28.6327538495249954
  7.0465088424035836 30.1053871743642461 28.6327538495249954
 57.7812729643105243 15.4595191852497500 28.6327538495249954
  4.2279390283835818 30.1053871743642461 28.6327538495249954
 -4.2278549716164209 30.1053871743642461 28.6327538495249954
 -7.0465093435764183 30.1053871743642461 28.6327538495249954
 -9.8650791575964192 30.1053871743642461 28.6327538495249954
 74.6928609643105261 15.4595191852497500 28.6327538495249954
 -2.8185699630171004 17.9004727736555189 28.6327538495249954
 64.8277819557112025 27.6644335859584807 28.6327538495249954
 -0.0000001489970986 17.9004727736555189 28.6327538495249954
 56.3719879557112051 27.6644335859584807 28.6327538495249954
 47.9161939557112078 27.6644335859584807 28.6327538495249954
 39.4603999557111962 27.6644335859584807 28.6327538495249954
 14.0930180369829028 17.9004727736555189 28.6327538495249954
 36.6417455837512094 27.6644335859584807 28.6327538495249954
 25.3673818510029001 17.9004727736555189 28.6327538495249954
 14.0930179557111952 27.6644335859584807 28.6327538495249954
 28.1860362229629082 17.9004727736555189 28.6327538495249954
 15.5023028424035783 30.1053871743642461 28.6327538495249954
 23.9580968424035810 30.1053871743642461 28.6327538495249954
 54.9627031502905297 15.4595191852497500 28.6327538495249954
 26.7766666564235685 30.1053871743642461 28.6327538495249954
 36.6418301010559517 32.5463407627700150 28.6327538495249954
 28.1860361010559650 32.5463407627700150 28.6327538495249954
 25.3673817290959498 32.5463407627700150 28.6327538495249954
  7.0465089643105223 15.4595191852497500 28.6327538495249954
 16.9115877290959595 32.5463407627700150 28.6327538495249954
 15.5023029643105232 15.4595191852497500 28.6327538495249954
 14.0930179150759578 32.5463407627700150 28.6327538495249954
 29.5953211502905269 15.4595191852497500 28.6327538495249954
  5.6372239150759640 32.5463407627700150 28.6327538495249954
 -2.8185700442888009 27.6644335859584807 28.6327538495249954
  2.8186541010559618 32.5463407627700150 28.6327538495249954
 -11.2743640849240396 32.5463407627700150 28.6327538495249954
 66.2370668424035927 30.1053871743642461 28.6327538495249954
 32.4138909643105251 15.4595191852497500 28.6327538495249954
 57.7812728424035953 30.1053871743642461 28.6327538495249954
 49.3254788424035837 30.1053871743642461 28.6327538495249954
 46.5069090283835891 30.1053871743642461 28.6327538495249954
 38.0511150283835775 30.1053871743642461 28.6327538495249954
 35.2324607783305126 15.4595191852497500 28.6327538495249954
 32.4138908424035748 30.1053871743642461 28.6327538495249954
 -8.4557942709040379 32.5463407627700150 28.6327538495249954
 -5.6372244162487979 27.6644335859584807 28.6327538495249954
 -8.4557942302688005 27.6644335859584807 28.6327538495249954
 31.0046060369829029 17.9004727736555189 28.6327538495249954
  5.6371817173770493 22.7824531798069998 28.6327538495249954
 -8.4557519106629488 22.7824531798069998 28.6327538495249954
 71.8742488306846781 20.3414995914012344 28.6327538495249954
 69.0556790166646692 20.3414995914012344 28.6327538495249954
 59.1905578510029073 17.9004727736555189 28.6327538495249954
 66.2370246447046753 20.3414995914012344 28.6327538495249954
 63.4184548306846807 20.3414995914012344 28.6327538495249954
 57.7812306447046780 20.3414995914012344 28.6327538495249954
 49.3254366447046735 20.3414995914012344 28.6327538495249954
  8.4558360893370512 22.7824531798069998 28.6327538495249954
 67.6463518510029047 17.9004727736555189 28.6327538495249954
 40.8696426447046761 20.3414995914012344 28.6327538495249954
 38.0510728306846602 20.3414995914012344 28.6327538495249954
 29.5952788306846699 20.3414995914012344 28.6327538495249954
 26.7767090166646753 20.3414995914012344 28.6327538495249954
 23.9580546447046672 20.3414995914012344 28.6327538495249954
 21.1394848306846654 20.3414995914012344 28.6327538495249954
 70.4650062229628986 17.9004727736555189 28.6327538495249954
  7.0464666447046698 20.3414995914012344 28.6327538495249954
 -1.4093273552953294 20.3414995914012344 28.6327538495249954
 46.5068668306846718 20.3414995914012344 28.6327538495249954
 39.4603999150759606 32.5463407627700150 28.6327538495249954
 14.0929757173770476 22.7824531798069998 28.6327538495249954
 22.5487697173770485 22.7824531798069998 28.6327538495249954
 66.2371091620094319 25.2234067682127652 28.6327538495249954
 36.6418302229629020 17.9004727736555189 28.6327538495249954
 49.3255211620094371 25.2234067682127652 28.6327538495249954
 46.5068667900494361 25.2234067682127652 28.6327538495249954
 38.0510727900494388 25.2234067682127652 28.6327538495249954
 26.7767089760294326 25.2234067682127652 28.6327538495249954
 23.9581391620094379 25.2234067682127652 28.6327538495249954
 15.5023451620094264 25.2234067682127652 28.6327538495249954
 12.6836907900494289 25.2234067682127652 28.6327538495249954
 56.3719880369828985 17.9004727736555189 28.6327538495249954
 39.4604000369828896 17.9004727736555189 28.6327538495249954
 45.0976242229628923 17.9004727736555189 28.6327538495249954
 67.6463940893370506 22.7824531798069998 28.6327538495249954
 64.8277397173770566 22.7824531798069998 28.6327538495249954
 56.3719457173770593 22.7824531798069998 28.6327538495249954
 50.7348060893370558 22.7824531798069998 28.6327538495249954
 47.9161517173770548 22.7824531798069998 28.6327538495249954
 39.4603577173770574 22.7824531798069998 28.6327538495249954
 36.6417879033570415 22.7824531798069998 28.6327538495249954
 25.3674240893370566 22.7824531798069998 28.6327538495249954
 -1.4092428379905699 25.2234067682127652 28.6327538495249954
 47.9161939150759579 32.5463407627700150 28.6327538495249954
  1.4092847783305213 15.4595191852497500 28.6327538495249954
 56.3719879150759695 32.5463407627700150 28.6327538495249954
 -4.2278550935233552 44.7512551634787386 28.6327538495249954
 -15.5023034654833562 44.7512551634787386 28.6327538495249954
 -23.9580974654833554 44.7512551634787386 28.6327538495249954
 18.3209150979363713 10.5775387790982709 28.6327538495249954
 59.1905576478242708 42.3103015750729767 28.6327538495249954
 21.1394849119563659 10.5775387790982709 28.6327538495249954
 56.3719878338042619 42.3103015750729767 28.6327538495249954
 47.9161938338042646 42.3103015750729767 28.6327538495249954
 45.0975394618442706 42.3103015750729767 28.6327538495249954
 -1.4092852795033535 44.7512551634787386 28.6327538495249954
 33.8231756478242644 42.3103015750729767 28.6327538495249954
 25.3673816478242529 42.3103015750729767 28.6327538495249954
 38.0510729119563607 10.5775387790982709 28.6327538495249954
 43.6882970979363634 10.5775387790982709 28.6327538495249954
 16.9115876478242626 42.3103015750729767 28.6327538495249954
 14.0930178338042680 42.3103015750729767 28.6327538495249954
 46.5068669119563793 10.5775387790982709 28.6327538495249954
 49.3255212839163661 10.5775387790982709 28.6327538495249954
  2.8185694618442589 42.3103015750729767 28.6327538495249954
 66.2371092839163680 10.5775387790982709 28.6327538495249954
 23.9581392839163634 10.5775387790982709 28.6327538495249954
 -0.0000003521757358 42.3103015750729767 28.6327538495249954
  7.0465512839163686 10.5775387790982709 28.6327538495249954
 12.6837329064766493 44.7512551634787386 28.6327538495249954
 19.7302419791490244 47.1922087518845075 28.6327538495249954
 11.2744479791490271 47.1922087518845075 28.6327538495249954
  8.4557936071890190 47.1922087518845075 28.6327538495249954
  5.6372237931690181 47.1922087518845075 28.6327538495249954
 64.8277398392839928  8.1365851906925037 28.6327538495249954
 -5.6371400208509774 47.1922087518845075 28.6327538495249954
 -8.4557943928109793 47.1922087518845075 28.6327538495249954
 67.6463942112439867  8.1365851906925037 28.6327538495249954
 -25.3673823928109776 47.1922087518845075 28.6327538495249954
  9.8650785345166412 44.7512551634787386 28.6327538495249954
 57.7812727204966521 44.7512551634787386 28.6327538495249954
 73.2835760369829075 17.9004727736555189 28.6327538495249954
 46.5069089064766459 44.7512551634787386 28.6327538495249954
 70.4649640252639955  8.1365851906925037 28.6327538495249954
 32.4138907204966458 44.7512551634787386 28.6327538495249954
 73.2835338392839901  8.1365851906925037 28.6327538495249954
 26.7766665345166501 44.7512551634787386 28.6327538495249954
 23.9580967204966342 44.7512551634787386 28.6327538495249954
 15.5023027204966439 44.7512551634787386 28.6327538495249954
 76.1021882112439840  8.1365851906925037 28.6327538495249954
 49.3254787204966547 44.7512551634787386 28.6327538495249954
 25.3673816071890279 47.1922087518845075 28.6327538495249954
 69.0556790979363768 10.5775387790982709 28.6327538495249954
 71.8742489119563714 10.5775387790982709 28.6327538495249954
 47.9161940776181368 13.0185655968439828 28.6327538495249954
 57.7812305227977419 34.9873675805157234 28.6327538495249954
 49.3254365227977445 34.9873675805157234 28.6327538495249954
 50.7347638916381456 13.0185655968439828 28.6327538495249954
 38.0510727087777383 34.9873675805157234 28.6327538495249954
 56.3719880776181483 13.0185655968439828 28.6327538495249954
 26.7767088947577392 34.9873675805157234 28.6327538495249954
 23.9580545227977240 34.9873675805157234 28.6327538495249954
 15.5022605227977337 34.9873675805157234 28.6327538495249954
 -19.7302004045298887 37.4283211689214923 28.6327538495249954
 12.6836907087777320 34.9873675805157234 28.6327538495249954
  4.2278967087777302 34.9873675805157234 28.6327538495249954
  1.4093268947577322 34.9873675805157234 28.6327538495249954
 59.1905578916381430 13.0185655968439828 28.6327538495249954
 -4.2278972912222672 34.9873675805157234 28.6327538495249954
 -4.2278548497094786 15.4595191852497500 28.6327538495249954
 -1.4092850356894804 15.4595191852497500 28.6327538495249954
 -18.3209154772022664 34.9873675805157234 28.6327538495249954
 64.8277819150759740 32.5463407627700150 28.6327538495249954
 59.1905577290959641 32.5463407627700150 28.6327538495249954
  7.0464665227977319 34.9873675805157234 28.6327538495249954
 -19.7301581661957393 42.3103015750729767 28.6327538495249954
 -16.9115460325698876 37.4283211689214923 28.6327538495249954
  5.6371815954701097 37.4283211689214923 28.6327538495249954
 -2.8185699223818586 13.0185655968439828 28.6327538495249954
 49.3255210401024939 39.8692747573272612 28.6327538495249954
 46.5068666681425000 39.8692747573272612 28.6327538495249954
 -0.0000001083618602 13.0185655968439828 28.6327538495249954
 38.0510726681424956 39.8692747573272612 28.6327538495249954
 35.2325028541224938 39.8692747573272612 28.6327538495249954
  8.4557938916381428 13.0185655968439828 28.6327538495249954
 32.4139330401024850 39.8692747573272612 28.6327538495249954
  4.2278966681424874 39.8692747573272612 28.6327538495249954
 -5.6371822185498859 37.4283211689214923 28.6327538495249954
 14.0930180776181420 13.0185655968439828 28.6327538495249954
 -9.8650369598975125 39.8692747573272612 28.6327538495249954
 -12.6836913318575100 39.8692747573272612 28.6327538495249954
 16.9115878916381419 13.0185655968439828 28.6327538495249954
 56.3719455954701161 37.4283211689214923 28.6327538495249954
 47.9161515954701187 37.4283211689214923 28.6327538495249954
 36.6417877814501125 37.4283211689214923 28.6327538495249954
 19.7301577056581365 13.0185655968439828 28.6327538495249954
 25.3674239674301170 37.4283211689214923 28.6327538495249954
 16.9116299674301196 37.4283211689214923 28.6327538495249954
 -7.0464671458775081 39.8692747573272612 28.6327538495249954
 39.4603995899903808 71.6020375533019688 28.6327538495249954
