 H  O 
 1.0000000000000000
    84.5579400000000021    0.0000000000000000    0.0000000000000000
   -42.2789706095346958   73.2293399455724767    0.0000000000000000
     0.0000000000000000    0.0000000000000000   46.9039550000000034
 H   O  
 229 314
Cartesian
 56.3719456090151922 35.8010187766509844 28.1128704123049964
 -9.8650793878652134 57.7698207603227232 28.1128704123049964
 56.3719034113162749 26.0371311936879657 28.1128704123049964
 59.1905577832762830 26.0371311936879657 28.1128704123049964
 -12.6837335160113369 28.4780847820937346 28.1128704123049964
 -23.9580975738452153 57.7698207603227232 28.1128704123049964
 -7.0465093300313377 28.4780847820937346 28.1128704123049964
 -1.4092851440513405 28.4780847820937346 28.1128704123049964
  1.4092846699686612 28.4780847820937346 28.1128704123049964
  4.2278544839886631 28.4780847820937346 28.1128704123049964
 12.6836484839886605 28.4780847820937346 28.1128704123049964
 15.5023028559486651 28.4780847820937346 28.1128704123049964
 18.3208726699686650 28.4780847820937346 28.1128704123049964
 26.7766666699686624 28.4780847820937346 28.1128704123049964
 29.5952364839886641 28.4780847820937346 28.1128704123049964
 36.6417455972962784 26.0371311936879657 28.1128704123049964
 32.4138908559486651 28.4780847820937346 28.1128704123049964
 39.4603151675024009 55.3288671719169614 28.1128704123049964
 31.0045211675023928 55.3288671719169614 28.1128704123049964
 25.3673815394624036 55.3288671719169614 28.1128704123049964
 -2.8185700713789608 30.9190383704995000 28.1128704123049964
 -0.0000002573589589 30.9190383704995000 28.1128704123049964
 14.0929331675024070 55.3288671719169614 28.1128704123049964
 14.0930179286210446 30.9190383704995000 28.1128704123049964
 28.1859515566610455 30.9190383704995000 28.1128704123049964
 31.0046059286210465 30.9190383704995000 28.1128704123049964
  8.4557935394624035 55.3288671719169614 28.1128704123049964
 36.6417455566610357 30.9190383704995000 28.1128704123049964
 42.2789697426410385 30.9190383704995000 28.1128704123049964
 47.9161939286210341 30.9190383704995000 28.1128704123049964
  5.6371391675024016 55.3288671719169614 28.1128704123049964
 50.7347635394624064 55.3288671719169614 28.1128704123049964
 28.1859515972962846 26.0371311936879657 28.1128704123049964
  8.4557937832762846 26.0371311936879657 28.1128704123049964
 21.1394422401747804 57.7698207603227232 28.1128704123049964
 32.4138486582497549 18.7141971991307194 28.1128704123049964
 -26.7767097074710669 62.6518011664742076 28.1128704123049964
 35.2324184722697566 18.7141971991307194 28.1128704123049964
 47.9161936848071619 60.2107743487284921 28.1128704123049964
 38.0510728442297577 18.7141971991307194 28.1128704123049964
 45.0975393128471538 60.2107743487284921 28.1128704123049964
 66.2370246582497515 18.7141971991307194 28.1128704123049964
 -11.2744062690778684 21.1551507875364884 28.1128704123049964
 33.8231754988271618 60.2107743487284921 28.1128704123049964
 31.0046056848071565 60.2107743487284921 28.1128704123049964
 -0.0000424550578693 21.1551507875364884 28.1128704123049964
 22.5488116848071662 60.2107743487284921 28.1128704123049964
 16.9115455449421290 21.1551507875364884 28.1128704123049964
 11.2743633128471661 60.2107743487284921 28.1128704123049964
 36.6417879169021319 21.1551507875364884 28.1128704123049964
  2.8185693128471621 60.2107743487284921 28.1128704123049964
 39.4603577309221265 21.1551507875364884 28.1128704123049964
 54.9626608035945097 23.5961043759422537 28.1128704123049964
 52.1440909895745008 23.5961043759422537 28.1128704123049964
 35.2324604261547876 57.7698207603227232 28.1128704123049964
 43.6882969895745106 23.5961043759422537 28.1128704123049964
 38.0510302401747822 57.7698207603227232 28.1128704123049964
 40.8696846121347903 57.7698207603227232 28.1128704123049964
 64.8277819286210502 30.9190383704995000 28.1128704123049964
 23.9580546176145113 23.5961043759422537 28.1128704123049964
 -19.7301583151928384 60.2107743487284921 28.1128704123049964
 -14.0930186871528367 60.2107743487284921 28.1128704123049964
 67.6463095449421274 21.1551507875364884 28.1128704123049964
 64.8277397309221328 21.1551507875364884 28.1128704123049964
 59.1905155449421230 21.1551507875364884 28.1128704123049964
 53.5533759169021195 21.1551507875364884 28.1128704123049964
 12.6836908035945140 23.5961043759422537 28.1128704123049964
 26.7766244722697486 18.7141971991307194 28.1128704123049964
 -12.6836912776771893 33.3600651882452155 28.1128704123049964
 -7.0465516496371885 33.3600651882452155 28.1128704123049964
 -2.8186547105906588 40.6829991828024689 28.1128704123049964
 -0.0000003386306579 40.6829991828024689 28.1128704123049964
  5.6371392894093386 40.6829991828024689 28.1128704123049964
  8.4557936613693432 40.6829991828024689 28.1128704123049964
 11.2743634753893449 40.6829991828024689 28.1128704123049964
 16.9115876613693388 40.6829991828024689 28.1128704123049964
 22.5487272894093422 40.6829991828024689 28.1128704123049964
 31.0045212894093325 40.6829991828024689 28.1128704123049964
 36.6417454753893352 40.6829991828024689 28.1128704123049964
 42.2789696613693309 40.6829991828024689 28.1128704123049964
 35.2324182284558631 48.0059331773597151 28.1128704123049964
 -12.6837336379182783 43.1239527712082307 28.1128704123049964
 23.9580544144358711 48.0059331773597151 28.1128704123049964
 -1.4092852659582757 43.1239527712082307 28.1128704123049964
 -5.6372245246106605 40.6829991828024689 28.1128704123049964
  1.4092845480617260 43.1239527712082307 28.1128704123049964
  4.2278966004158747 48.0059331773597151 28.1128704123049964
  7.0465087340417254 43.1239527712082307 28.1128704123049964
 -7.0465517715441273 48.0059331773597151 28.1128704123049964
 -12.6836913995841307 48.0059331773597151 28.1128704123049964
 -21.1394853995841281 48.0059331773597151 28.1128704123049964
 43.6882545480617210 43.1239527712082307 28.1128704123049964
 46.5068243620817157 43.1239527712082307 28.1128704123049964
 54.9626183620817130 43.1239527712082307 28.1128704123049964
 -25.3673823792659014 45.5649063596139996 28.1128704123049964
 50.7347636207340997 45.5649063596139996 28.1128704123049964
 11.2743634347540986 45.5649063596139996 28.1128704123049964
 39.4603998067140935 45.5649063596139996 28.1128704123049964
 16.9115876207341032 45.5649063596139996 28.1128704123049964
 19.7301574347541049 45.5649063596139996 28.1128704123049964
  4.2278543620817208 43.1239527712082307 28.1128704123049964
 -16.9116306988717469 50.4468867657654769 28.1128704123049964
 -22.5488125246106605 40.6829991828024689 28.1128704123049964
 57.7812304957075682 38.2419723650567462 28.1128704123049964
 -5.6372246465175939 55.3288671719169614 28.1128704123049964
 -8.4557944605375948 55.3288671719169614 28.1128704123049964
 -16.9115884605376010 55.3288671719169614 28.1128704123049964
 -22.5488126465175966 55.3288671719169614 28.1128704123049964
 18.3208303503628116 33.3600651882452155 28.1128704123049964
 26.7766243503628161 33.3600651882452155 28.1128704123049964
 -28.1860368324975958 55.3288671719169614 28.1128704123049964
 -31.0046066465175976 55.3288671719169614 28.1128704123049964
 46.5068667223228047 33.3600651882452155 28.1128704123049964
 52.1440907457606357 52.8878403541712458 28.1128704123049964
 49.3254365363428136 33.3600651882452155 28.1128704123049964
 57.7812305363428109 33.3600651882452155 28.1128704123049964
 11.2744057949951930 35.8010187766509844 28.1128704123049964
 43.6882967457606384 52.8878403541712458 28.1128704123049964
 22.5487696090151921 35.8010187766509844 28.1128704123049964
 15.5022603738006346 52.8878403541712458 28.1128704123049964
  1.4093267457606342 52.8878403541712458 28.1128704123049964
 14.0929754871082551 50.4468867657654769 28.1128704123049964
 16.9115453011282568 50.4468867657654769 28.1128704123049964
 35.2325028676675771 38.2419723650567462 28.1128704123049964
 28.1859936730882552 50.4468867657654769 28.1128704123049964
  9.8651208676675761 38.2419723650567462 28.1128704123049964
  7.0464664957075716 38.2419723650567462 28.1128704123049964
 -2.8186548324975988 55.3288671719169614 28.1128704123049964
 -4.2278973183124275 38.2419723650567462 28.1128704123049964
 -18.3209155042924259 38.2419723650567462 28.1128704123049964
 39.4603574871082543 50.4468867657654769 28.1128704123049964
 59.1905154230351869 35.8010187766509844 28.1128704123049964
 47.9161514871082517 50.4468867657654769 28.1128704123049964
 53.5533757949951976 35.8010187766509844 28.1128704123049964
 -4.2278974402193654 52.8878403541712458 28.1128704123049964
 -12.6836913183124267 38.2419723650567462 28.1128704123049964
 23.9580546582497540 18.7141971991307194 28.1128704123049964
 28.1859514347540951 45.5649063596139996 28.1128704123049964
 26.7766667918756056 13.8322167929792403 28.1128704123049964
  4.2278546058956001 13.8322167929792403 28.1128704123049964
 35.2324185941766927  4.0683292100162243 28.1128704123049964
  7.0465089778555976 13.8322167929792403 28.1128704123049964
  2.8185692315754580 69.9747351610314468 28.1128704123049964
 15.5023029778556030 13.8322167929792403 28.1128704123049964
 33.8231336668490670  6.5092827984219914 28.1128704123049964
 26.7767091114814519  8.9502363868277595 28.1128704123049964
 29.5952366058956002 13.8322167929792403 28.1128704123049964
 39.4603150455954648 69.9747351610314468 28.1128704123049964
 38.0510729661366938  4.0683292100162243 28.1128704123049964
  8.4557511792213162 65.0927547548799765 28.1128704123049964
 -0.0000428207786890 65.0927547548799765 28.1128704123049964
 18.3209151114814510  8.9502363868277595 28.1128704123049964
 21.1394849661366919  4.0683292100162243 28.1128704123049964
  7.0464667801566900  4.0683292100162243 28.1128704123049964
 54.9626186058955923 13.8322167929792403 28.1128704123049964
 -5.6371824488186855 65.0927547548799765 28.1128704123049964
 60.5998427918756022 13.8322167929792403 28.1128704123049964
 -35.2324615097721576 72.4156887494372228 28.1128704123049964
  1.4093266238536943 67.5337083432857384 28.1128704123049964
 32.4138487801566981  4.0683292100162243 28.1128704123049964
 -1.4093272198433096  4.0683292100162243 28.1128704123049964
 19.7301995511813146 65.0927547548799765 28.1128704123049964
 31.0045633652013137 65.0927547548799765 28.1128704123049964
 74.6928187395214422  8.9502363868277595 28.1128704123049964
 66.2370247801566876  4.0683292100162243 28.1128704123049964
 57.7812307395214404  8.9502363868277595 28.1128704123049964
 -9.8651217481063078 67.5337083432857384 28.1128704123049964
 52.1440911114814512  8.9502363868277595 28.1128704123049964
 60.5998005941766849  4.0683292100162243 28.1128704123049964
 -26.7767097481063061 67.5337083432857384 28.1128704123049964
 28.1859512315754728 69.9747351610314468 28.1128704123049964
  4.2278964378736958 67.5337083432857384 28.1128704123049964
 43.6882125941766972  4.0683292100162243 28.1128704123049964
 54.9626609661366956  4.0683292100162243 28.1128704123049964
 71.8742489661366903  4.0683292100162243 28.1128704123049964
 -38.0510735621263052 67.5337083432857384 28.1128704123049964
 42.2789699051832244 11.3912632045734714 28.1128704123049964
 33.8231754175554755 69.9747351610314468 28.1128704123049964
 45.0975397192032190 11.3912632045734714 28.1128704123049964
 15.5022602518936878 67.5337083432857384 28.1128704123049964
 49.3254367801566929  4.0683292100162243 28.1128704123049964
 36.6417875511813165 65.0927547548799765 28.1128704123049964
 64.8276975332232155 11.3912632045734714 28.1128704123049964
 33.8231759051832199 11.3912632045734714 28.1128704123049964
 -8.4558368207786891 65.0927547548799765 28.1128704123049964
 23.9580542518936852 67.5337083432857384 28.1128704123049964
 12.6836909255014501  8.9502363868277595 28.1128704123049964
 46.5068664785089325 62.6518011664742076 28.1128704123049964
 64.8277820505279863 16.2731703813850075 28.1128704123049964
 28.1859518004749177  1.6273023922705114 28.1128704123049964
  9.8650783042478416 72.4156887494372228 28.1128704123049964
 22.5487698528290750  6.5092827984219914 28.1128704123049964
 67.6463518645479809 16.2731703813850075 28.1128704123049964
 -33.8231765824445318 69.9747351610314468 28.1128704123049964
 16.9115879864549186  1.6273023922705114 28.1128704123049964
 -7.0465515277302488 18.7141971991307194 28.1128704123049964
 36.6417458004749221  1.6273023922705114 28.1128704123049964
 18.3208723042478390 72.4156887494372228 28.1128704123049964
 -16.9115885824445336 69.9747351610314468 28.1128704123049964
 21.1394844785089369 62.6518011664742076 28.1128704123049964
 -19.7302429544045346 69.9747351610314468 28.1128704123049964
  7.0464666582497495 18.7141971991307194 28.1128704123049964
 15.5022602925289341 62.6518011664742076 28.1128704123049964
 11.2743638004749194  1.6273023922705114 28.1128704123049964
 12.6836908442297531 18.7141971991307194 28.1128704123049964
  9.8650361065489385 62.6518011664742076 28.1128704123049964
 21.1394848442297523 18.7141971991307194 28.1128704123049964
 -4.2278971557702505 18.7141971991307194 28.1128704123049964
 53.5533336785679737 16.2731703813850075 28.1128704123049964
 56.3719880505279747 16.2731703813850075 28.1128704123049964
 70.4649640388090717  6.5092827984219914 28.1128704123049964
 -8.4557941354520185 16.2731703813850075 28.1128704123049964
 -5.6372243214320203 16.2731703813850075 28.1128704123049964
 78.9207158004749090  1.6273023922705114 28.1128704123049964
  5.6372240505279780 16.2731703813850075 28.1128704123049964
 -14.0929764488186855 65.0927547548799765 28.1128704123049964
 73.2835761724349197  1.6273023922705114 28.1128704123049964
  8.4557938645479798 16.2731703813850075 28.1128704123049964
  1.4093271114814494  8.9502363868277595 28.1128704123049964
 -22.5487704488186900 65.0927547548799765 28.1128704123049964
 11.2743636785679815 16.2731703813850075 28.1128704123049964
 -4.2278970744985491  8.9502363868277595 28.1128704123049964
 71.8742489255014476  8.9502363868277595 28.1128704123049964
 25.3673818645479834 16.2731703813850075 28.1128704123049964
  4.2278541182678469 72.4156887494372228 28.1128704123049964
 42.2789698645479817 16.2731703813850075 28.1128704123049964
 -31.0045644488186873 65.0927547548799765 28.1128704123049964
 19.7302000388090732  6.5092827984219914 28.1128704123049964
 73.2835338528290663  6.5092827984219914 28.1128704123049964
  4.2278964243286037 69.1610107355562462 28.6327538495249954
 -7.0464673896913883 69.1610107355562462 28.6327538495249954
 29.5952785868707942 49.6332355696302230 28.6327538495249954
 18.3209147728507951 49.6332355696302230 28.6327538495249954
  1.4093266103086164 69.1610107355562462 28.6327538495249954
 -15.5022613896913821 69.1610107355562462 28.6327538495249954
 15.5022604008907816 49.6332355696302230 28.6327538495249954
 32.4138484008907994 49.6332355696302230 28.6327538495249954
 38.0510725868707951 49.6332355696302230 28.6327538495249954
 -4.2278975756713866 69.1610107355562462 28.6327538495249954
 -16.9115885147179164 61.8380767409990000 28.6327538495249954
 26.7767086103086172 69.1610107355562462 28.6327538495249954
 38.0511149064766485 44.7512551634787386 28.6327538495249954
 28.1859512180303895 71.6020375533019688 28.6327538495249954
 46.5069089064766459 44.7512551634787386 28.6327538495249954
 49.3254787204966547 44.7512551634787386 28.6327538495249954
 52.1440485345166493 44.7512551634787386 28.6327538495249954
 54.9627029064766432 44.7512551634787386 28.6327538495249954
  8.4557934040103735 71.6020375533019688 28.6327538495249954
 -25.3673823928109776 47.1922087518845075 28.6327538495249954
  2.8185692180303707 71.6020375533019688 28.6327538495249954
 -16.9115885959896168 71.6020375533019688 28.6327538495249954
 -11.2743642068309775 47.1922087518845075 28.6327538495249954
 -19.7301584100096186 71.6020375533019688 28.6327538495249954
 -5.6371400208509774 47.1922087518845075 28.6327538495249954
 23.9581387962886225 69.1610107355562462 28.6327538495249954
 -33.8231765959896151 71.6020375533019688 28.6327538495249954
 16.9115876071890092 47.1922087518845075 28.6327538495249954
 22.5488117931690120 47.1922087518845075 28.6327538495249954
 -36.6417464100096169 71.6020375533019688 28.6327538495249954
 36.6418299791490298 47.1922087518845075 28.6327538495249954
 39.4603997931690245 47.1922087518845075 28.6327538495249954
 50.7347636071890307 47.1922087518845075 28.6327538495249954
 38.0510724243286234 69.1610107355562462 28.6327538495249954
 53.5534179791490246 47.1922087518845075 28.6327538495249954
 -21.1394854131292078 49.6332355696302230 28.6327538495249954
 29.5952784243286260 69.1610107355562462 28.6327538495249954
 -18.3209155991092061 49.6332355696302230 28.6327538495249954
 -15.5022612271492086 49.6332355696302230 28.6327538495249954
 -12.6836914131292051 49.6332355696302230 28.6327538495249954
 14.0930177931690217 47.1922087518845075 28.6327538495249954
 -18.3208312037113821 69.1610107355562462 28.6327538495249954
  4.2278965462355513 54.5151427464417537 28.6327538495249954
 -14.0929763404568273 52.0741891580359919 28.6327538495249954
 -21.1394432154303011 59.3971231525932382 28.6327538495249954
 -23.9580975873902986 59.3971231525932382 28.6327538495249954
 39.4603997118973240 56.9561695641874692 28.6327538495249954
 36.6417453399373301 56.9561695641874692 28.6327538495249954
 22.5488117118973186 56.9561695641874692 28.6327538495249954
 -9.8651217210161430 64.2791035587447084 28.6327538495249954
 -26.7767097210161431 64.2791035587447084 28.6327538495249954
 19.7301573399373318 56.9561695641874692 28.6327538495249954
  8.4557935259173256 56.9561695641874692 28.6327538495249954
  2.8185693399373224 56.9561695641874692 28.6327538495249954
 -5.6372246600626781 56.9561695641874692 28.6327538495249954
 -8.4557944740826727 56.9561695641874692 28.6327538495249954
 -4.2278975350361501 64.2791035587447084 28.6327538495249954
 -11.2743642881026744 56.9561695641874692 28.6327538495249954
 11.2743633399373131 56.9561695641874692 28.6327538495249954
 -22.5488126600626764 56.9561695641874692 28.6327538495249954
 29.5953209064766369 44.7512551634787386 28.6327538495249954
 -12.6836492154302967 59.3971231525932382 28.6327538495249954
 11.2744478572420874 61.8380767409990000 28.6327538495249954
 46.5069087845697027 59.3971231525932382 28.6327538495249954
 35.2324604126097114 59.3971231525932382 28.6327538495249954
 22.5488116712620865 61.8380767409990000 28.6327538495249954
 32.4138905985897026 59.3971231525932382 28.6327538495249954
 31.0046056712620839 61.8380767409990000 28.6327538495249954
 -29.5952795350361448 64.2791035587447084 28.6327538495249954
 29.5953207845697079 59.3971231525932382 28.6327538495249954
 21.1395267845696964 59.3971231525932382 28.6327538495249954
  9.8650784126096909 59.3971231525932382 28.6327538495249954
  7.0465085985897025 59.3971231525932382 28.6327538495249954
 47.9161936712620928 61.8380767409990000 28.6327538495249954
  1.4092844126096999 59.3971231525932382 28.6327538495249954
 -32.4138493490561430 64.2791035587447084 28.6327538495249954
 45.0976238572420840 61.8380767409990000 28.6327538495249954
  9.8651206509438563 64.2791035587447084 28.6327538495249954
 15.5022602789838597 64.2791035587447084 28.6327538495249954
 -25.3673824740826745 56.9561695641874692 28.6327538495249954
 -4.2278974537644496 54.5151427464417537 28.6327538495249954
 -7.0464672677844442 54.5151427464417537 28.6327538495249954
 16.9116297236162261 66.7200571471504844 28.6327538495249954
 19.7301995376362349 66.7200571471504844 28.6327538495249954
 -26.7766250818044469 54.5151427464417537 28.6327538495249954
 22.5487693516562366 66.7200571471504844 28.6327538495249954
  2.8186538572420905 61.8380767409990000 28.6327538495249954
 -29.5952794537644479 54.5151427464417537 28.6327538495249954
 47.9161514735631755 52.0741891580359919 28.6327538495249954
 36.6417875376362474 66.7200571471504844 28.6327538495249954
 28.1859936595431719 52.0741891580359919 28.6327538495249954
 39.4603573516562420 66.7200571471504844 28.6327538495249954
 -38.0510735756713814 69.1610107355562462 28.6327538495249954
  0.0000418455231652 52.0741891580359919 28.6327538495249954
 31.0045633516562411 66.7200571471504844 28.6327538495249954
  2.8186115376362340 66.7200571471504844 28.6327538495249954
 -5.6371824623637705 66.7200571471504844 28.6327538495249954
  7.0465509181955595 54.5151427464417537 28.6327538495249954
 -28.1859522881026763 56.9561695641874692 28.6327538495249954
 18.3209146509438554 64.2791035587447084 28.6327538495249954
 -31.0046066600626737 56.9561695641874692 28.6327538495249954
 21.1394844649638500 64.2791035587447084 28.6327538495249954
 52.1440907322155596 54.5151427464417537 28.6327538495249954
 43.6882967322155622 54.5151427464417537 28.6327538495249954
 40.8697269181955534 54.5151427464417537 28.6327538495249954
 40.8696422789838678 64.2791035587447084 28.6327538495249954
 23.9581389181955480 54.5151427464417537 28.6327538495249954
 21.1394845462355612 54.5151427464417537 28.6327538495249954
 15.5023449181955559 54.5151427464417537 28.6327538495249954
 -28.1859946483437653 66.7200571471504844 28.6327538495249954
 -25.3673402763837679 66.7200571471504844 28.6327538495249954
  9.8651207322155532 54.5151427464417537 28.6327538495249954
 -8.4557522763837714 66.7200571471504844 28.6327538495249954
 -16.9115461544768308 52.0741891580359919 28.6327538495249954
 -15.5023035873902977 59.3971231525932382 28.6327538495249954
  9.8650789002374601  0.8136511961352557 28.6327538495249954
 21.1395269064766467 44.7512551634787386 28.6327538495249954
 66.2370669643105288 15.4595191852497500 28.6327538495249954
 57.7812729643105243 15.4595191852497500 28.6327538495249954
 54.9627031502905297 15.4595191852497500 28.6327538495249954
 52.1440487783305286 15.4595191852497500 28.6327538495249954
 49.3254789643105269 15.4595191852497500 28.6327538495249954
 26.7766667783305188 15.4595191852497500 28.6327538495249954
 23.9580969643105171 15.4595191852497500 28.6327538495249954
  9.8650787783305205 15.4595191852497500 28.6327538495249954
  7.0465089643105223 15.4595191852497500 28.6327538495249954
 -8.4557941489970982 17.9004727736555189 28.6327538495249954
 67.6463518916381474 13.0185655968439828 28.6327538495249954
 56.3719880776181483 13.0185655968439828 28.6327538495249954
 53.5533337056581473 13.0185655968439828 28.6327538495249954
 45.0975397056581500 13.0185655968439828 28.6327538495249954
 42.2789698916381340 13.0185655968439828 28.6327538495249954
 33.8231758916381438 13.0185655968439828 28.6327538495249954
 28.1859517056581375 13.0185655968439828 28.6327538495249954
  5.6372240776181393 13.0185655968439828 28.6327538495249954
 77.5114730979363742 10.5775387790982709 28.6327538495249954
 74.6929032839163654 10.5775387790982709 28.6327538495249954
 64.8277820776181386 13.0185655968439828 28.6327538495249954
 -5.6371397770370981 17.9004727736555189 28.6327538495249954
 -2.8185699630171004 17.9004727736555189 28.6327538495249954
  8.4557938510029000 17.9004727736555189 28.6327538495249954
 66.2370246447046753 20.3414995914012344 28.6327538495249954
 40.8696426447046761 20.3414995914012344 28.6327538495249954
 38.0510728306846602 20.3414995914012344 28.6327538495249954
 35.2325030166646727 20.3414995914012344 28.6327538495249954
 26.7767090166646753 20.3414995914012344 28.6327538495249954
 18.3209150166646637 20.3414995914012344 28.6327538495249954
 15.5022606447046662 20.3414995914012344 28.6327538495249954
 12.6836908306846716 20.3414995914012344 28.6327538495249954
  1.4093270166646681 20.3414995914012344 28.6327538495249954
 -1.4093273552953294 20.3414995914012344 28.6327538495249954
 -4.2278971693153311 20.3414995914012344 28.6327538495249954
 -9.8651213552953294 20.3414995914012344 28.6327538495249954
 64.8277820369829101 17.9004727736555189 28.6327538495249954
 56.3719880369828985 17.9004727736555189 28.6327538495249954
 53.5534182229629039 17.9004727736555189 28.6327538495249954
 36.6418302229629020 17.9004727736555189 28.6327538495249954
 33.8231758510028868 17.9004727736555189 28.6327538495249954
 25.3673818510029001 17.9004727736555189 28.6327538495249954
 22.5488120369828984 17.9004727736555189 28.6327538495249954
 14.0930180369829028 17.9004727736555189 28.6327538495249954
 11.2744482229629011 17.9004727736555189 28.6327538495249954
 66.2371092839163680 10.5775387790982709 28.6327538495249954
 63.4184549119563812 10.5775387790982709 28.6327538495249954
 43.6882970979363634 10.5775387790982709 28.6327538495249954
 40.8697272839163759 10.5775387790982709 28.6327538495249954
  4.2278969525916086  5.6956316022867357 28.6327538495249954
  1.4093271385716108  5.6956316022867357 28.6327538495249954
 -1.4093272333883895  5.6956316022867357 28.6327538495249954
 64.8277821588898462  3.2546047845410229 28.6327538495249954
 62.0092123448698445  3.2546047845410229 28.6327538495249954
 59.1905579729098434  3.2546047845410229 28.6327538495249954
 53.5534183448698329  3.2546047845410229 28.6327538495249954
 50.7347639729098461  3.2546047845410229 28.6327538495249954
 36.6418303448698452  3.2546047845410229 28.6327538495249954
 33.8231759729098371  3.2546047845410229 28.6327538495249954
 16.9115879729098388  3.2546047845410229 28.6327538495249954
 -0.0000000270901599  3.2546047845410229 28.6327538495249954
 80.3300852721974650  0.8136511961352557 28.6327538495249954
 71.8742912721974676  0.8136511961352557 28.6327538495249954
 57.7812730862174604  0.8136511961352557 28.6327538495249954
 54.9627032721974516  0.8136511961352557 28.6327538495249954
 52.1440489002374647  0.8136511961352557 28.6327538495249954
 38.0511152721974639  0.8136511961352557 28.6327538495249954
 26.7766669002374584  0.8136511961352557 28.6327538495249954
 15.5023030862174611  0.8136511961352557 28.6327538495249954
 12.6837332721974576  0.8136511961352557 28.6327538495249954
  7.0464667666116103  5.6956316022867357 28.6327538495249954
 71.8742488306846781 20.3414995914012344 28.6327538495249954
 18.3209151385716105  5.6956316022867357 28.6327538495249954
 23.9580547666116068  5.6956316022867357 28.6327538495249954
 26.7767090979363651 10.5775387790982709 28.6327538495249954
 23.9581392839163634 10.5775387790982709 28.6327538495249954
 12.6836909119563703 10.5775387790982709 28.6327538495249954
  1.4093270979363695 10.5775387790982709 28.6327538495249954
 78.9207580252639929  8.1365851906925037 28.6327538495249954
 76.1021882112439840  8.1365851906925037 28.6327538495249954
 73.2835338392839901  8.1365851906925037 28.6327538495249954
 59.1906002112439964  8.1365851906925037 28.6327538495249954
 50.7348062112439848  8.1365851906925037 28.6327538495249954
 45.0975820252639821  8.1365851906925037 28.6327538495249954
 42.2790122112439946  8.1365851906925037 28.6327538495249954
 28.1859940252639873  8.1365851906925037 28.6327538495249954
 16.9116302112439918  8.1365851906925037 28.6327538495249954
 14.0929758392839890  8.1365851906925037 28.6327538495249954
 -2.8186121607160102  8.1365851906925037 28.6327538495249954
 71.8742489525916284  5.6956316022867357 28.6327538495249954
 60.5998851385716151  5.6956316022867357 28.6327538495249954
 54.9626609525916123  5.6956316022867357 28.6327538495249954
 43.6882971385716132  5.6956316022867357 28.6327538495249954
 35.2325031385716159  5.6956316022867357 28.6327538495249954
 32.4138487666116077  5.6956316022867357 28.6327538495249954
 21.1394849525916122  5.6956316022867357 28.6327538495249954
 -11.2744062826229499 22.7824531798069998 28.6327538495249954
  0.0000420893370479 22.7824531798069998 28.6327538495249954
 14.0929757173770476 22.7824531798069998 28.6327538495249954
 -12.6836913318575100 39.8692747573272612 28.6327538495249954
 -18.3208309598975099 39.8692747573272612 28.6327538495249954
 -21.1394853318575109 39.8692747573272612 28.6327538495249954
 56.3719455954701161 37.4283211689214923 28.6327538495249954
 53.5533757814501215 37.4283211689214923 28.6327538495249954
 39.4603575954701142 37.4283211689214923 28.6327538495249954
 36.6417877814501125 37.4283211689214923 28.6327538495249954
 22.5487695954701017 37.4283211689214923 28.6327538495249954
 19.7301997814501142 37.4283211689214923 28.6327538495249954
  8.4558359674301080 37.4283211689214923 28.6327538495249954
 -14.0929762185498877 37.4283211689214923 28.6327538495249954
 -19.7302004045298887 37.4283211689214923 28.6327538495249954
 57.7812305227977419 34.9873675805157234 28.6327538495249954
 31.0046055899903834 71.6020375533019688 28.6327538495249954
 54.9626607087777472 34.9873675805157234 28.6327538495249954
 46.5068667087777357 34.9873675805157234 28.6327538495249954
 43.6882968947577410 34.9873675805157234 28.6327538495249954
 38.0510727087777383 34.9873675805157234 28.6327538495249954
 23.9580545227977240 34.9873675805157234 28.6327538495249954
 21.1394847087777364 34.9873675805157234 28.6327538495249954
 18.3209148947577418 34.9873675805157234 28.6327538495249954
 -4.2278973318575099 39.8692747573272612 28.6327538495249954
 -12.6836912912222672 34.9873675805157234 28.6327538495249954
  7.0465510401024849 39.8692747573272612 28.6327538495249954
 32.4139330401024850 39.8692747573272612 28.6327538495249954
 18.3208725345166314 44.7512551634787386 28.6327538495249954
 15.5023027204966439 44.7512551634787386 28.6327538495249954
  4.2279389064766386 44.7512551634787386 28.6327538495249954
  1.4092845345166412 44.7512551634787386 28.6327538495249954
 -12.6836490935233588 44.7512551634787386 28.6327538495249954
 50.7347636478242734 42.3103015750729767 28.6327538495249954
 47.9161938338042646 42.3103015750729767 28.6327538495249954
 45.0975394618442706 42.3103015750729767 28.6327538495249954
 42.2789696478242618 42.3103015750729767 28.6327538495249954
 31.0046058338042556 42.3103015750729767 28.6327538495249954
 28.1859514618442688 42.3103015750729767 28.6327538495249954
 16.9115876478242626 42.3103015750729767 28.6327538495249954
 14.0930178338042680 42.3103015750729767 28.6327538495249954
  5.6372238338042564 42.3103015750729767 28.6327538495249954
  2.8185694618442589 42.3103015750729767 28.6327538495249954
 -0.0000003521757358 42.3103015750729767 28.6327538495249954
 -2.8185701661957374 42.3103015750729767 28.6327538495249954
 -11.2743641661957401 42.3103015750729767 28.6327538495249954
 -19.7301581661957393 42.3103015750729767 28.6327538495249954
 60.5998848541225001 39.8692747573272612 28.6327538495249954
 35.2325028541224938 39.8692747573272612 28.6327538495249954
  9.8651208541224857 39.8692747573272612 28.6327538495249954
 26.7766665345166501 44.7512551634787386 28.6327538495249954
 47.9161939150759579 32.5463407627700150 28.6327538495249954
 36.6418301010559517 32.5463407627700150 28.6327538495249954
 16.9115877697311987 27.6644335859584807 28.6327538495249954
  5.6372239557112023 27.6644335859584807 28.6327538495249954
  2.8185695837512008 27.6644335859584807 28.6327538495249954
 -11.2743640442888005 27.6644335859584807 28.6327538495249954
 57.7813151620094345 25.2234067682127652 28.6327538495249954
 54.9626607900494406 25.2234067682127652 28.6327538495249954
 49.3255211620094371 25.2234067682127652 28.6327538495249954
 46.5068667900494361 25.2234067682127652 28.6327538495249954
 43.6882969760294344 25.2234067682127652 28.6327538495249954
  7.0465511620094325 25.2234067682127652 28.6327538495249954
 -9.8650368379905675 25.2234067682127652 28.6327538495249954
 -12.6836912099505668 25.2234067682127652 28.6327538495249954
 70.4649639033570594 22.7824531798069998 28.6327538495249954
 64.8277397173770566 22.7824531798069998 28.6327538495249954
 53.5533759033570504 22.7824531798069998 28.6327538495249954
 47.9161517173770548 22.7824531798069998 28.6327538495249954
 45.0975819033570531 22.7824531798069998 28.6327538495249954
 42.2790120893370442 22.7824531798069998 28.6327538495249954
 39.4603577173770574 22.7824531798069998 28.6327538495249954
 28.1859939033570512 22.7824531798069998 28.6327538495249954
 25.3674240893370566 22.7824531798069998 28.6327538495249954
 28.1859515837511907 27.6644335859584807 28.6327538495249954
 42.2789697290959623 32.5463407627700150 28.6327538495249954
 45.0975395837512067 27.6644335859584807 28.6327538495249954
 59.1905577697312140 27.6644335859584807 28.6327538495249954
 28.1860361010559650 32.5463407627700150 28.6327538495249954
 22.5488119150759623 32.5463407627700150 28.6327538495249954
 16.9115877290959595 32.5463407627700150 28.6327538495249954
 11.2744481010559561 32.5463407627700150 28.6327538495249954
  8.4557937290959586 32.5463407627700150 28.6327538495249954
 -0.0000002709040391 32.5463407627700150 28.6327538495249954
 -2.8185700849240374 32.5463407627700150 28.6327538495249954
 -5.6371398989440404 32.5463407627700150 28.6327538495249954
 -11.2743640849240396 32.5463407627700150 28.6327538495249954
 66.2370668424035927 30.1053871743642461 28.6327538495249954
 63.4184970283835838 30.1053871743642461 28.6327538495249954
 35.2324606564235907 30.1053871743642461 28.6327538495249954
 32.4138908424035748 30.1053871743642461 28.6327538495249954
 29.5953210283835837 30.1053871743642461 28.6327538495249954
 12.6837330283835765 30.1053871743642461 28.6327538495249954
  9.8650786564235791 30.1053871743642461 28.6327538495249954
  1.4092846564235810 30.1053871743642461 28.6327538495249954
 -1.4092851575964171 30.1053871743642461 28.6327538495249954
 -4.2278549716164209 30.1053871743642461 28.6327538495249954
 -12.6836489716164174 30.1053871743642461 28.6327538495249954
 62.0091275837512086 27.6644335859584807 28.6327538495249954
 47.9161939557112078 27.6644335859584807 28.6327538495249954
 39.4603995899903808 71.6020375533019688 28.6327538495249954
