 H  O 
 1.0000000000000000
    84.5579400000000021    0.0000000000000000    0.0000000000000000
   -42.2789706095346958   73.2293399455724767    0.0000000000000000
     0.0000000000000000    0.0000000000000000   46.9039550000000034
 H   O  
 178 446
Cartesian
 15.5023026121347893 57.7698207603227232 28.1128704123049964
 -1.4092853878652121 57.7698207603227232 28.1128704123049964
 32.4138486176145122 23.5961043759422537 28.1128704123049964
 -26.7766673878652135 57.7698207603227232 28.1128704123049964
 38.0510728035945078 23.5961043759422537 28.1128704123049964
 54.9626608035945097 23.5961043759422537 28.1128704123049964
 47.9161091675023982 55.3288671719169614 28.1128704123049964
 60.5998849895745124 23.5961043759422537 28.1128704123049964
 -11.2744485886837182 26.0371311936879657 28.1128704123049964
 36.6417453534824062 55.3288671719169614 28.1128704123049964
 -2.8186545886837178 26.0371311936879657 28.1128704123049964
  2.8185695972962814 26.0371311936879657 28.1128704123049964
 25.3673815394624036 55.3288671719169614 28.1128704123049964
 15.5022606176145086 23.5961043759422537 28.1128704123049964
 16.9115877832762855 26.0371311936879657 28.1128704123049964
 19.7301575972962873 26.0371311936879657 28.1128704123049964
 28.1859515972962846 26.0371311936879657 28.1128704123049964
  2.8185693534824074 55.3288671719169614 28.1128704123049964
 42.2789697832762812 26.0371311936879657 28.1128704123049964
 45.0975395972962758 26.0371311936879657 28.1128704123049964
 -0.0000004605375943 55.3288671719169614 28.1128704123049964
 56.3719034113162749 26.0371311936879657 28.1128704123049964
 -8.4557944605375948 55.3288671719169614 28.1128704123049964
 -15.5023033300313369 28.4780847820937346 28.1128704123049964
 -25.3673824605375984 55.3288671719169614 28.1128704123049964
 49.3254363738006276 52.8878403541712458 28.1128704123049964
  7.0465088559486642 28.4780847820937346 28.1128704123049964
 19.7301573534824009 55.3288671719169614 28.1128704123049964
 38.0510725597806356 52.8878403541712458 28.1128704123049964
  1.4092844261547897 57.7698207603227232 28.1128704123049964
  1.4093269895745080 23.5961043759422537 28.1128704123049964
 29.5952784785089271 62.6518011664742076 28.1128704123049964
 15.5022602925289341 62.6518011664742076 28.1128704123049964
 16.9115878645479825 16.2731703813850075 28.1128704123049964
 19.7301576785679771 16.2731703813850075 28.1128704123049964
 25.3673818645479834 16.2731703813850075 28.1128704123049964
 -9.8651217074710615 62.6518011664742076 28.1128704123049964
 28.1859516785679780 16.2731703813850075 28.1128704123049964
 -18.3209157074710660 62.6518011664742076 28.1128704123049964
 56.3719880505279747 16.2731703813850075 28.1128704123049964
 47.9161936848071619 60.2107743487284921 28.1128704123049964
 62.0091276785679781 16.2731703813850075 28.1128704123049964
 18.3208304722697477 18.7141971991307194 28.1128704123049964
  4.2278968035945095 23.5961043759422537 28.1128704123049964
 -5.6372246871528393 60.2107743487284921 28.1128704123049964
 -14.0930186871528367 60.2107743487284921 28.1128704123049964
 -25.3673825011728376 60.2107743487284921 28.1128704123049964
 49.3254366582497497 18.7141971991307194 28.1128704123049964
 46.5068242401747796 57.7698207603227232 28.1128704123049964
  8.4557515449421317 21.1551507875364884 28.1128704123049964
 43.6882544261547849 57.7698207603227232 28.1128704123049964
 25.3673395449421299 21.1551507875364884 28.1128704123049964
 29.5952362401747777 57.7698207603227232 28.1128704123049964
 45.0975819169021293 21.1551507875364884 28.1128704123049964
 70.4649639169021356 21.1551507875364884 28.1128704123049964
  9.8650784261547866 57.7698207603227232 28.1128704123049964
 -7.0464670104254905 23.5961043759422537 28.1128704123049964
 35.2324184722697566 18.7141971991307194 28.1128704123049964
 35.2324181065489270 62.6518011664742076 28.1128704123049964
 18.3208726699686650 28.4780847820937346 28.1128704123049964
 23.9580968559486607 28.4780847820937346 28.1128704123049964
 -9.8651215855641290 48.0059331773597151 28.1128704123049964
 53.5533757949951976 35.8010187766509844 28.1128704123049964
 62.0091697949951950 35.8010187766509844 28.1128704123049964
 -21.1394853995841281 48.0059331773597151 28.1128704123049964
 -15.5022611323324266 38.2419723650567462 28.1128704123049964
 -7.0464671323324293 38.2419723650567462 28.1128704123049964
 53.5533334347540944 45.5649063596139996 28.1128704123049964
  1.4093268676675752 38.2419723650567462 28.1128704123049964
  4.2278966816875769 38.2419723650567462 28.1128704123049964
 12.6836906816875779 38.2419723650567462 28.1128704123049964
 23.9580544957075787 38.2419723650567462 28.1128704123049964
 22.5488118067141059 45.5649063596139996 28.1128704123049964
  1.4092422284558699 48.0059331773597151 28.1128704123049964
 29.5952786816875744 38.2419723650567462 28.1128704123049964
  8.4557936207341040 45.5649063596139996 28.1128704123049964
 -22.5488125246106605 40.6829991828024689 28.1128704123049964
  8.4557936613693432 40.6829991828024689 28.1128704123049964
 54.9626183620817130 43.1239527712082307 28.1128704123049964
 52.1440485480617184 43.1239527712082307 28.1128704123049964
 46.5068243620817157 43.1239527712082307 28.1128704123049964
 36.6417454753893352 40.6829991828024689 28.1128704123049964
 42.2789696613693309 40.6829991828024689 28.1128704123049964
 -18.3208732659582765 43.1239527712082307 28.1128704123049964
 32.4138907340417219 43.1239527712082307 28.1128704123049964
 26.7766665480617228 43.1239527712082307 28.1128704123049964
 -7.0465094519382783 43.1239527712082307 28.1128704123049964
 49.3254364957075708 38.2419723650567462 28.1128704123049964
 35.2325027457606268 52.8878403541712458 28.1128704123049964
 28.1859937949951949 35.8010187766509844 28.1128704123049964
  9.8650362284558710 48.0059331773597151 28.1128704123049964
 40.8696848559486625 28.4780847820937346 28.1128704123049964
 43.6882546699686571 28.4780847820937346 28.1128704123049964
 52.1440486699686616 28.4780847820937346 28.1128704123049964
  9.8651207457606311 52.8878403541712458 28.1128704123049964
 54.9626184839886562 28.4780847820937346 28.1128704123049964
 28.1859515566610455 30.9190383704995000 28.1128704123049964
 36.6417455566610357 30.9190383704995000 28.1128704123049964
 36.6417876730882455 50.4468867657654769 28.1128704123049964
 42.2789697426410385 30.9190383704995000 28.1128704123049964
 22.5487694871082525 50.4468867657654769 28.1128704123049964
 45.0975395566610331 30.9190383704995000 28.1128704123049964
 53.5533335566610376 30.9190383704995000 28.1128704123049964
 16.9115454230351894 35.8010187766509844 28.1128704123049964
 11.2744056730882534 50.4468867657654769 28.1128704123049964
 -18.3209154636571903 33.3600651882452155 28.1128704123049964
  8.4557513011282524 50.4468867657654769 28.1128704123049964
 -4.2278972776771910 33.3600651882452155 28.1128704123049964
 -1.4093274636571897 33.3600651882452155 28.1128704123049964
  1.4092423503628120 33.3600651882452155 28.1128704123049964
  9.8650363503628089 33.3600651882452155 28.1128704123049964
 -5.6371823269117440 50.4468867657654769 28.1128704123049964
 -16.9116306988717469 50.4468867657654769 28.1128704123049964
 -19.7302005128917450 50.4468867657654769 28.1128704123049964
 49.3254364144358703 48.0059331773597151 28.1128704123049964
 -2.8186123909848098 35.8010187766509844 28.1128704123049964
 -0.0000425769648080 35.8010187766509844 28.1128704123049964
 56.3719879286210457 30.9190383704995000 28.1128704123049964
 71.8742066058955942 13.8322167929792403 28.1128704123049964
 18.3208725480617254 43.1239527712082307 28.1128704123049964
 62.0091700388090601  6.5092827984219914 28.1128704123049964
 11.2743632315754621 69.9747351610314468 28.1128704123049964
 40.8696427395214528  8.9502363868277595 28.1128704123049964
 43.6882971114814538  8.9502363868277595 28.1128704123049964
 -4.2278975621263015 67.5337083432857384 28.1128704123049964
 49.3254367395214430  8.9502363868277595 28.1128704123049964
 49.3254367801566929  4.0683292100162243 28.1128704123049964
 42.2789694175554729 69.9747351610314468 28.1128704123049964
 -23.9580553761463051 67.5337083432857384 28.1128704123049964
 14.0929335332232206 11.3912632045734714 28.1128704123049964
 40.8696427801566955  4.0683292100162243 28.1128704123049964
 38.0510729661366938  4.0683292100162243 28.1128704123049964
 -40.8696856957521533 72.4156887494372228 28.1128704123049964
 19.7301995511813146 65.0927547548799765 28.1128704123049964
 23.9580547801566937  4.0683292100162243 28.1128704123049964
 59.1905579051832120 11.3912632045734714 28.1128704123049964
 64.8276975332232155 11.3912632045734714 28.1128704123049964
  8.4557511792213162 65.0927547548799765 28.1128704123049964
 26.7767091114814519  8.9502363868277595 28.1128704123049964
 -0.0000428207786890 65.0927547548799765 28.1128704123049964
 77.5113885941766796  4.0683292100162243 28.1128704123049964
 21.1394849255014528  8.9502363868277595 28.1128704123049964
 -28.1860369544045355 69.9747351610314468 28.1128704123049964
 39.4603578528290697  6.5092827984219914 28.1128704123049964
 36.6417880388090680  6.5092827984219914 28.1128704123049964
 56.3719458528290644  6.5092827984219914 28.1128704123049964
 -39.4604007684245346 69.9747351610314468 28.1128704123049964
 -16.9115885824445336 69.9747351610314468 28.1128704123049964
 -36.6417886347986865 65.0927547548799765 28.1128704123049964
 40.8696422518936870 67.5337083432857384 28.1128704123049964
 70.4649640388090717  6.5092827984219914 28.1128704123049964
 16.9115456668490722  6.5092827984219914 28.1128704123049964
 38.0510724378736924 67.5337083432857384 28.1128704123049964
 11.2744060388090670  6.5092827984219914 28.1128704123049964
  2.8185692315754580 69.9747351610314468 28.1128704123049964
  1.4093271114814494  8.9502363868277595 28.1128704123049964
 -2.8186121471709296  6.5092827984219914 28.1128704123049964
 23.9580542518936852 67.5337083432857384 28.1128704123049964
  8.4557934175554603 69.9747351610314468 28.1128704123049964
 21.1394844378736906 67.5337083432857384 28.1128704123049964
 73.2834915332232129 11.3912632045734714 28.1128704123049964
  5.6371395332232206 11.3912632045734714 28.1128704123049964
 -4.2279393941043990 13.8322167929792403 28.1128704123049964
 50.7347639864549222  1.6273023922705114 28.1128704123049964
  7.0465084902278479 72.4156887494372228 28.1128704123049964
 29.5952366058956002 13.8322167929792403 28.1128704123049964
 64.8277821724349081  1.6273023922705114 28.1128704123049964
  9.8650787918756002 13.8322167929792403 28.1128704123049964
 70.4649218004749116  1.6273023922705114 28.1128704123049964
 38.0510306058956047 13.8322167929792403 28.1128704123049964
 11.2743638004749194  1.6273023922705114 28.1128704123049964
 -31.0045644488186873 65.0927547548799765 28.1128704123049964
  1.4092847918756004 13.8322167929792403 28.1128704123049964
 18.3208723042478390 72.4156887494372228 28.1128704123049964
 52.1440487918755977 13.8322167929792403 28.1128704123049964
 -12.6837338817321594 72.4156887494372228 28.1128704123049964
  8.4557939864549194  1.6273023922705114 28.1128704123049964
 73.2835761724349197  1.6273023922705114 28.1128704123049964
 35.2325027728508005 49.6332355696302230 28.6327538495249954
 46.5068665868708067 49.6332355696302230 28.6327538495249954
 16.9115874040103833 71.6020375533019688 28.6327538495249954
  7.0465507962886189 69.1610107355562462 28.6327538495249954
 45.0975394618442706 42.3103015750729767 28.6327538495249954
  8.4557934040103735 71.6020375533019688 28.6327538495249954
 -9.8651215991092069 49.6332355696302230 28.6327538495249954
 53.5533334618442680 42.3103015750729767 28.6327538495249954
 -15.5022612271492086 49.6332355696302230 28.6327538495249954
 49.3254364008908013 49.6332355696302230 28.6327538495249954
  5.6372235899903860 71.6020375533019688 28.6327538495249954
 -18.3209155991092061 49.6332355696302230 28.6327538495249954
  9.8651206103086064 69.1610107355562462 28.6327538495249954
 -21.1394854131292078 49.6332355696302230 28.6327538495249954
 -7.0464672271492059 49.6332355696302230 28.6327538495249954
  1.4093267728507877 49.6332355696302230 28.6327538495249954
  1.4093266103086164 69.1610107355562462 28.6327538495249954
 38.0510725868707951 49.6332355696302230 28.6327538495249954
 31.0046058338042556 42.3103015750729767 28.6327538495249954
 -18.3208312037113821 69.1610107355562462 28.6327538495249954
 28.1859512180303895 71.6020375533019688 28.6327538495249954
 -15.5022613896913821 69.1610107355562462 28.6327538495249954
 12.6836905868707941 49.6332355696302230 28.6327538495249954
 19.7301572180303850 71.6020375533019688 28.6327538495249954
 42.2789696478242618 42.3103015750729767 28.6327538495249954
 -21.1394855756713831 69.1610107355562462 28.6327538495249954
 33.8231756478242644 42.3103015750729767 28.6327538495249954
 22.5488118338042653 42.3103015750729767 28.6327538495249954
 -4.2278975756713866 69.1610107355562462 28.6327538495249954
  9.8651207728507995 49.6332355696302230 28.6327538495249954
 -1.4092432037113782 69.1610107355562462 28.6327538495249954
 36.6417454618442662 42.3103015750729767 28.6327538495249954
 -12.6836915756713875 69.1610107355562462 28.6327538495249954
 -23.9580552271492060 49.6332355696302230 28.6327538495249954
 56.3719878338042619 42.3103015750729767 28.6327538495249954
 35.2324605345166475 44.7512551634787386 28.6327538495249954
 43.6882966103086261 69.1610107355562462 28.6327538495249954
 -19.7301582068309784 47.1922087518845075 28.6327538495249954
 18.3208725345166314 44.7512551634787386 28.6327538495249954
 21.1395269064766467 44.7512551634787386 28.6327538495249954
 -22.5487280208509766 47.1922087518845075 28.6327538495249954
 -39.4604007819696179 71.6020375533019688 28.6327538495249954
 -25.3673823928109776 47.1922087518845075 28.6327538495249954
 54.9627029064766432 44.7512551634787386 28.6327538495249954
 -11.2743642068309775 47.1922087518845075 28.6327538495249954
 -5.6372247819696195 71.6020375533019688 28.6327538495249954
 52.1440485345166493 44.7512551634787386 28.6327538495249954
 23.9580967204966342 44.7512551634787386 28.6327538495249954
 -28.1859524100096195 71.6020375533019688 28.6327538495249954
 49.3254787204966547 44.7512551634787386 28.6327538495249954
 -16.9115885959896168 71.6020375533019688 28.6327538495249954
 46.5069089064766459 44.7512551634787386 28.6327538495249954
 -11.2743644100096230 71.6020375533019688 28.6327538495249954
 38.0511149064766485 44.7512551634787386 28.6327538495249954
 -31.0046067819696169 71.6020375533019688 28.6327538495249954
  9.8650785345166412 44.7512551634787386 28.6327538495249954
 -8.4557943928109793 47.1922087518845075 28.6327538495249954
 -28.1859945264368292 52.0741891580359919 28.6327538495249954
 47.9161937931690360 47.1922087518845075 28.6327538495249954
 45.0976239791490272 47.1922087518845075 28.6327538495249954
 31.0046057931690235 47.1922087518845075 28.6327538495249954
 -23.9580974654833554 44.7512551634787386 28.6327538495249954
 21.1394844243286215 69.1610107355562462 28.6327538495249954
 25.3673816071890279 47.1922087518845075 28.6327538495249954
 23.9581387962886225 69.1610107355562462 28.6327538495249954
 -18.3208732795033562 44.7512551634787386 28.6327538495249954
 -7.0465094654833562 44.7512551634787386 28.6327538495249954
 22.5488117931690120 47.1922087518845075 28.6327538495249954
 19.7302419791490244 47.1922087518845075 28.6327538495249954
 29.5952784243286260 69.1610107355562462 28.6327538495249954
  8.4557936071890190 47.1922087518845075 28.6327538495249954
 40.8697267962886173 69.1610107355562462 28.6327538495249954
 -1.4092852795033535 44.7512551634787386 28.6327538495249954
  2.8186539791490159 47.1922087518845075 28.6327538495249954
 -2.8185704100096114 71.6020375533019688 28.6327538495249954
 -0.0000003928109814 47.1922087518845075 28.6327538495249954
 -2.8185702068309761 47.1922087518845075 28.6327538495249954
 50.7347636071890307 47.1922087518845075 28.6327538495249954
 -25.3673401544768282 52.0741891580359919 28.6327538495249954
 -35.2325037210161440 64.2791035587447084 28.6327538495249954
 -16.9115461544768308 52.0741891580359919 28.6327538495249954
  1.4092844126096999 59.3971231525932382 28.6327538495249954
 -1.4092854014103018 59.3971231525932382 28.6327538495249954
 -4.2278552154303037 59.3971231525932382 28.6327538495249954
 -7.0464673490561447 64.2791035587447084 28.6327538495249954
 -7.0465095873903012 59.3971231525932382 28.6327538495249954
 -9.8650794014102949 59.3971231525932382 28.6327538495249954
 -12.6836492154302967 59.3971231525932382 28.6327538495249954
 -23.9580975873902986 59.3971231525932382 28.6327538495249954
 -26.7766674014102968 59.3971231525932382 28.6327538495249954
 47.9161937118973214 56.9561695641874692 28.6327538495249954
  9.8650784126096909 59.3971231525932382 28.6327538495249954
  9.8651206509438563 64.2791035587447084 28.6327538495249954
 18.3209146509438554 64.2791035587447084 28.6327538495249954
 42.2789695259173328 56.9561695641874692 28.6327538495249954
 31.0046057118973302 56.9561695641874692 28.6327538495249954
 28.1859513399373292 56.9561695641874692 28.6327538495249954
 21.1394844649638500 64.2791035587447084 28.6327538495249954
 25.3673815259173274 56.9561695641874692 28.6327538495249954
 19.7301573399373318 56.9561695641874692 28.6327538495249954
 16.9115875259173158 56.9561695641874692 28.6327538495249954
 19.7301574618442501 42.3103015750729767 28.6327538495249954
 29.5952784649638616 64.2791035587447084 28.6327538495249954
 45.0975393399373274 56.9561695641874692 28.6327538495249954
 15.5023025985896936 59.3971231525932382 28.6327538495249954
 18.3208724126097096 59.3971231525932382 28.6327538495249954
 26.7766664126097069 59.3971231525932382 28.6327538495249954
 47.9161936712620928 61.8380767409990000 28.6327538495249954
 36.6418298572420866 61.8380767409990000 28.6327538495249954
 31.0046056712620839 61.8380767409990000 28.6327538495249954
 -32.4138493490561430 64.2791035587447084 28.6327538495249954
 14.0930176712620749 61.8380767409990000 28.6327538495249954
 11.2744478572420874 61.8380767409990000 28.6327538495249954
  8.4557934852820722 61.8380767409990000 28.6327538495249954
 -29.5952795350361448 64.2791035587447084 28.6327538495249954
 -5.6371401427579215 61.8380767409990000 28.6327538495249954
 -21.1394855350361439 64.2791035587447084 28.6327538495249954
 -18.3209157210161457 64.2791035587447084 28.6327538495249954
 -14.0929341427579153 61.8380767409990000 28.6327538495249954
 -16.9115885147179164 61.8380767409990000 28.6327538495249954
 -15.5022613490561429 64.2791035587447084 28.6327538495249954
 -19.7301583287379145 61.8380767409990000 28.6327538495249954
 -28.1859523287379155 61.8380767409990000 28.6327538495249954
 -31.0045221427579136 61.8380767409990000 28.6327538495249954
 49.3254785985897115 59.3971231525932382 28.6327538495249954
 -12.6836915350361448 64.2791035587447084 28.6327538495249954
 -9.8651217210161430 64.2791035587447084 28.6327538495249954
 46.5069087845697027 59.3971231525932382 28.6327538495249954
 43.6882544126097088 59.3971231525932382 28.6327538495249954
 29.5953207845697079 59.3971231525932382 28.6327538495249954
 35.2325026509438644 64.2791035587447084 28.6327538495249954
 -31.0045644623637671 66.7200571471504844 28.6327538495249954
  2.8185693399373224 56.9561695641874692 28.6327538495249954
 -28.1859946483437653 66.7200571471504844 28.6327538495249954
 25.3674237236162377 66.7200571471504844 28.6327538495249954
 28.1859935376362323 66.7200571471504844 28.6327538495249954
 -9.8650370818044468 54.5151427464417537 28.6327538495249954
 -12.6836914537644478 54.5151427464417537 28.6327538495249954
 31.0045633516562411 66.7200571471504844 28.6327538495249954
 -23.9580552677844487 54.5151427464417537 28.6327538495249954
 36.6417875376362474 66.7200571471504844 28.6327538495249954
 -26.7766250818044469 54.5151427464417537 28.6327538495249954
 50.7348058455231694 52.0741891580359919 28.6327538495249954
 39.4603573516562420 66.7200571471504844 28.6327538495249954
 39.4603574735631781 52.0741891580359919 28.6327538495249954
 36.6417876595431693 52.0741891580359919 28.6327538495249954
 42.2790117236162359 66.7200571471504844 28.6327538495249954
 33.8232178455231747 52.0741891580359919 28.6327538495249954
 22.5487694735631763 52.0741891580359919 28.6327538495249954
 16.9116298455231728 52.0741891580359919 28.6327538495249954
 11.2744056595431719 52.0741891580359919 28.6327538495249954
 -38.0510735756713814 69.1610107355562462 28.6327538495249954
 -29.5952795756713840 69.1610107355562462 28.6327538495249954
  8.4558358455231772 52.0741891580359919 28.6327538495249954
  0.0000418455231652 52.0741891580359919 28.6327538495249954
 -11.2744065264368292 52.0741891580359919 28.6327538495249954
 -14.0929763404568273 52.0741891580359919 28.6327538495249954
  1.4093267322155492 54.5151427464417537 28.6327538495249954
 -19.7302005264368283 52.0741891580359919 28.6327538495249954
 22.5487693516562366 66.7200571471504844 28.6327538495249954
 15.5023449181955559 54.5151427464417537 28.6327538495249954
 -0.0000004740826793 56.9561695641874692 28.6327538495249954
 -25.3673402763837679 66.7200571471504844 28.6327538495249954
 -2.8185702881026811 56.9561695641874692 28.6327538495249954
 -25.3673824740826745 56.9561695641874692 28.6327538495249954
 -22.5487704623637697 66.7200571471504844 28.6327538495249954
 -19.7302006483437680 66.7200571471504844 28.6327538495249954
 -11.2744066483437688 66.7200571471504844 28.6327538495249954
 -28.1859522881026763 56.9561695641874692 28.6327538495249954
 49.3255209181955507 54.5151427464417537 28.6327538495249954
 -5.6371824623637705 66.7200571471504844 28.6327538495249954
 46.5068665462355568 54.5151427464417537 28.6327538495249954
 -2.8186126483437688 66.7200571471504844 28.6327538495249954
 38.0510725462355595 54.5151427464417537 28.6327538495249954
  0.0000417236162395 66.7200571471504844 28.6327538495249954
 35.2325027322155506 54.5151427464417537 28.6327538495249954
 29.5952785462355585 54.5151427464417537 28.6327538495249954
 26.7767087322155568 54.5151427464417537 28.6327538495249954
  5.6371813516562215 66.7200571471504844 28.6327538495249954
 23.9581389181955480 54.5151427464417537 28.6327538495249954
 21.1394845462355612 54.5151427464417537 28.6327538495249954
  8.4558357236162376 66.7200571471504844 28.6327538495249954
 19.7301995376362349 66.7200571471504844 28.6327538495249954
 18.3209147322155452 54.5151427464417537 28.6327538495249954
  4.2278965462355513 54.5151427464417537 28.6327538495249954
  7.0465090862174584  0.8136511961352557 28.6327538495249954
 52.1440908947577384 34.9873675805157234 28.6327538495249954
 11.2743634618442599 42.3103015750729767 28.6327538495249954
 23.9580969643105171 15.4595191852497500 28.6327538495249954
 18.3208727783305179 15.4595191852497500 28.6327538495249954
  9.8650787783305205 15.4595191852497500 28.6327538495249954
  7.0465089643105223 15.4595191852497500 28.6327538495249954
  1.4092847783305213 15.4595191852497500 28.6327538495249954
 -1.4092850356894804 15.4595191852497500 28.6327538495249954
 -4.2278548497094786 15.4595191852497500 28.6327538495249954
 -7.0465092216694787 15.4595191852497500 28.6327538495249954
 76.1021458916381448 13.0185655968439828 28.6327538495249954
 73.2835760776181360 13.0185655968439828 28.6327538495249954
 70.4649217056581421 13.0185655968439828 28.6327538495249954
 64.8277820776181386 13.0185655968439828 28.6327538495249954
 50.7347638916381456 13.0185655968439828 28.6327538495249954
 26.7766667783305188 15.4595191852497500 28.6327538495249954
 47.9161940776181368 13.0185655968439828 28.6327538495249954
 31.0046060776181456 13.0185655968439828 28.6327538495249954
 28.1859517056581375 13.0185655968439828 28.6327538495249954
 11.2743637056581409 13.0185655968439828 28.6327538495249954
  5.6372240776181393 13.0185655968439828 28.6327538495249954
  2.8185697056581414 13.0185655968439828 28.6327538495249954
 -2.8185699223818586 13.0185655968439828 28.6327538495249954
 71.8742489119563714 10.5775387790982709 28.6327538495249954
 69.0556790979363768 10.5775387790982709 28.6327538495249954
 66.2371092839163680 10.5775387790982709 28.6327538495249954
 63.4184549119563812 10.5775387790982709 28.6327538495249954
 49.3255212839163661 10.5775387790982709 28.6327538495249954
 43.6882970979363634 10.5775387790982709 28.6327538495249954
 29.5952789119563668 10.5775387790982709 28.6327538495249954
 33.8231758916381438 13.0185655968439828 28.6327538495249954
 29.5953211502905269 15.4595191852497500 28.6327538495249954
 32.4138909643105251 15.4595191852497500 28.6327538495249954
 35.2324607783305126 15.4595191852497500 28.6327538495249954
 35.2325030166646727 20.3414995914012344 28.6327538495249954
 18.3209150166646637 20.3414995914012344 28.6327538495249954
  9.8651210166646699 20.3414995914012344 28.6327538495249954
 73.2835760369829075 17.9004727736555189 28.6327538495249954
 62.0092122229629013 17.9004727736555189 28.6327538495249954
 59.1905578510029073 17.9004727736555189 28.6327538495249954
 50.7347638510029029 17.9004727736555189 28.6327538495249954
 47.9161940369829011 17.9004727736555189 28.6327538495249954
 45.0976242229628923 17.9004727736555189 28.6327538495249954
 42.2789698510029055 17.9004727736555189 28.6327538495249954
 36.6418302229629020 17.9004727736555189 28.6327538495249954
 33.8231758510028868 17.9004727736555189 28.6327538495249954
 31.0046060369829029 17.9004727736555189 28.6327538495249954
 28.1860362229629082 17.9004727736555189 28.6327538495249954
 19.7302422229628966 17.9004727736555189 28.6327538495249954
 16.9115878510028992 17.9004727736555189 28.6327538495249954
 11.2744482229629011 17.9004727736555189 28.6327538495249954
 -0.0000001489970986 17.9004727736555189 28.6327538495249954
 -2.8185699630171004 17.9004727736555189 28.6327538495249954
 -5.6371397770370981 17.9004727736555189 28.6327538495249954
 74.6928609643105261 15.4595191852497500 28.6327538495249954
 71.8742911502905173 15.4595191852497500 28.6327538495249954
 66.2370669643105288 15.4595191852497500 28.6327538495249954
 63.4184971502905270 15.4595191852497500 28.6327538495249954
 60.5998427783305331 15.4595191852497500 28.6327538495249954
 57.7812729643105243 15.4595191852497500 28.6327538495249954
 54.9627031502905297 15.4595191852497500 28.6327538495249954
 52.1440487783305286 15.4595191852497500 28.6327538495249954
 38.0511151502905278 15.4595191852497500 28.6327538495249954
 26.7767090979363651 10.5775387790982709 28.6327538495249954
 40.8696426447046761 20.3414995914012344 28.6327538495249954
 18.3209150979363713 10.5775387790982709 28.6327538495249954
  4.2278969119563712 10.5775387790982709 28.6327538495249954
  1.4093271385716108  5.6956316022867357 28.6327538495249954
 -1.4093272333883895  5.6956316022867357 28.6327538495249954
 81.7393701588898551  3.2546047845410229 28.6327538495249954
 78.9208003448698463  3.2546047845410229 28.6327538495249954
 76.1021459729098524  3.2546047845410229 28.6327538495249954
 73.2835761588898578  3.2546047845410229 28.6327538495249954
 64.8277821588898462  3.2546047845410229 28.6327538495249954
 62.0092123448698445  3.2546047845410229 28.6327538495249954
 59.1905579729098434  3.2546047845410229 28.6327538495249954
 50.7347639729098461  3.2546047845410229 28.6327538495249954
 42.2789699729098274  3.2546047845410229 28.6327538495249954
 39.4604001588898399  3.2546047845410229 28.6327538495249954
 36.6418303448698452  3.2546047845410229 28.6327538495249954
 12.6836909525916113  5.6956316022867357 28.6327538495249954
 25.3673819729098362  3.2546047845410229 28.6327538495249954
 14.0930181588898407  3.2546047845410229 28.6327538495249954
 11.2744483448698372  3.2546047845410229 28.6327538495249954
  8.4557939729098397  3.2546047845410229 28.6327538495249954
 74.6928610862174764  0.8136511961352557 28.6327538495249954
 71.8742912721974676  0.8136511961352557 28.6327538495249954
 60.5998429002374621  0.8136511961352557 28.6327538495249954
 52.1440489002374647  0.8136511961352557 28.6327538495249954
 49.3254790862174488  0.8136511961352557 28.6327538495249954
 38.0511152721974639  0.8136511961352557 28.6327538495249954
 29.5953212721974559  0.8136511961352557 28.6327538495249954
 23.9580970862174638  0.8136511961352557 28.6327538495249954
 12.6837332721974576  0.8136511961352557 28.6327538495249954
  9.8650789002374601  0.8136511961352557 28.6327538495249954
 19.7302423448698399  3.2546047845410229 28.6327538495249954
 15.5022607666116095  5.6956316022867357 28.6327538495249954
 18.3209151385716105  5.6956316022867357 28.6327538495249954
 21.1394849525916122  5.6956316022867357 28.6327538495249954
  1.4093270979363695 10.5775387790982709 28.6327538495249954
 67.6463942112439867  8.1365851906925037 28.6327538495249954
 64.8277398392839928  8.1365851906925037 28.6327538495249954
 56.3719458392839954  8.1365851906925037 28.6327538495249954
 50.7348062112439848  8.1365851906925037 28.6327538495249954
 47.9161518392839980  8.1365851906925037 28.6327538495249954
 45.0975820252639821  8.1365851906925037 28.6327538495249954
 42.2790122112439946  8.1365851906925037 28.6327538495249954
 39.4603578392839793  8.1365851906925037 28.6327538495249954
 31.0045638392839891  8.1365851906925037 28.6327538495249954
 28.1859940252639873  8.1365851906925037 28.6327538495249954
 25.3674242112439856  8.1365851906925037 28.6327538495249954
 22.5487698392839881  8.1365851906925037 28.6327538495249954
 19.7302000252639935  8.1365851906925037 28.6327538495249954
 16.9116302112439918  8.1365851906925037 28.6327538495249954
  2.8186120252639890  8.1365851906925037 28.6327538495249954
  0.0000422112439907  8.1365851906925037 28.6327538495249954
 -2.8186121607160102  8.1365851906925037 28.6327538495249954
 80.3300429525916257  5.6956316022867357 28.6327538495249954
 71.8742489525916284  5.6956316022867357 28.6327538495249954
 66.2370247666116256  5.6956316022867357 28.6327538495249954
 60.5998851385716151  5.6956316022867357 28.6327538495249954
 57.7812307666116141  5.6956316022867357 28.6327538495249954
 54.9626609525916123  5.6956316022867357 28.6327538495249954
 52.1440911385716035  5.6956316022867357 28.6327538495249954
 40.8696427666115980  5.6956316022867357 28.6327538495249954
 38.0510729525916105  5.6956316022867357 28.6327538495249954
 29.5952789525916060  5.6956316022867357 28.6327538495249954
 23.9580547666116068  5.6956316022867357 28.6327538495249954
  7.0465512839163686 10.5775387790982709 28.6327538495249954
 16.9115876478242626 42.3103015750729767 28.6327538495249954
 43.6882970166646629 20.3414995914012344 28.6327538495249954
 49.3254366447046735 20.3414995914012344 28.6327538495249954
 63.4184547087777446 34.9873675805157234 28.6327538495249954
 60.5998848947577358 34.9873675805157234 28.6327538495249954
 31.0046055899903834 71.6020375533019688 28.6327538495249954
 49.3254365227977445 34.9873675805157234 28.6327538495249954
 46.5068667087777357 34.9873675805157234 28.6327538495249954
 43.6882968947577410 34.9873675805157234 28.6327538495249954
 35.2325028947577295 34.9873675805157234 28.6327538495249954
 32.4138485227977426 34.9873675805157234 28.6327538495249954
 29.5952787087777267 34.9873675805157234 28.6327538495249954
 15.5022605227977337 34.9873675805157234 28.6327538495249954
 12.6836907087777320 34.9873675805157234 28.6327538495249954
  9.8651208947577302 34.9873675805157234 28.6327538495249954
  1.4093268947577322 34.9873675805157234 28.6327538495249954
 -16.9115460325698876 37.4283211689214923 28.6327538495249954
 -1.4093274772022688 34.9873675805157234 28.6327538495249954
 -12.6836912912222672 34.9873675805157234 28.6327538495249954
 -18.3209154772022664 34.9873675805157234 28.6327538495249954
 64.8277819150759740 32.5463407627700150 28.6327538495249954
 62.0092121010559580 32.5463407627700150 28.6327538495249954
 50.7347637290959668 32.5463407627700150 28.6327538495249954
 47.9161939150759579 32.5463407627700150 28.6327538495249954
 42.2789697290959623 32.5463407627700150 28.6327538495249954
 36.6418301010559517 32.5463407627700150 28.6327538495249954
 33.8231757290959649 32.5463407627700150 28.6327538495249954
 31.0046059150759525 32.5463407627700150 28.6327538495249954
 28.1860361010559650 32.5463407627700150 28.6327538495249954
 25.3673817290959498 32.5463407627700150 28.6327538495249954
 11.2744481010559561 32.5463407627700150 28.6327538495249954
 -4.2278972912222672 34.9873675805157234 28.6327538495249954
 -11.2744064045298860 37.4283211689214923 28.6327538495249954
 -8.4557520325698885 37.4283211689214923 28.6327538495249954
 -5.6371822185498859 37.4283211689214923 28.6327538495249954
  8.4557936478242581 42.3103015750729767 28.6327538495249954
 -5.6372245381557384 42.3103015750729767 28.6327538495249954
 -8.4557943521757366 42.3103015750729767 28.6327538495249954
 -11.2743641661957401 42.3103015750729767 28.6327538495249954
 -14.0930185381557376 42.3103015750729767 28.6327538495249954
 60.5998848541225001 39.8692747573272612 28.6327538495249954
 40.8697270401024966 39.8692747573272612 28.6327538495249954
 38.0510726681424956 39.8692747573272612 28.6327538495249954
 35.2325028541224938 39.8692747573272612 28.6327538495249954
 23.9581390401024947 39.8692747573272612 28.6327538495249954
 21.1394846681424795 39.8692747573272612 28.6327538495249954
 12.6836906681424875 39.8692747573272612 28.6327538495249954
  9.8651208541224857 39.8692747573272612 28.6327538495249954
  7.0465510401024849 39.8692747573272612 28.6327538495249954
  4.2278966681424874 39.8692747573272612 28.6327538495249954
 -7.0464671458775081 39.8692747573272612 28.6327538495249954
 -9.8650369598975125 39.8692747573272612 28.6327538495249954
 -12.6836913318575100 39.8692747573272612 28.6327538495249954
 62.0091697814501188 37.4283211689214923 28.6327538495249954
 53.5533757814501215 37.4283211689214923 28.6327538495249954
 45.0975817814501099 37.4283211689214923 28.6327538495249954
 33.8232179674301037 37.4283211689214923 28.6327538495249954
 28.1859937814501045 37.4283211689214923 28.6327538495249954
 25.3674239674301170 37.4283211689214923 28.6327538495249954
 11.2744057814501097 37.4283211689214923 28.6327538495249954
  8.4558359674301080 37.4283211689214923 28.6327538495249954
  5.6371815954701097 37.4283211689214923 28.6327538495249954
  2.8186117814501150 37.4283211689214923 28.6327538495249954
  0.0000419674301133 37.4283211689214923 28.6327538495249954
 -0.0000002709040391 32.5463407627700150 28.6327538495249954
 46.5068668306846718 20.3414995914012344 28.6327538495249954
 -16.9115882709040370 32.5463407627700150 28.6327538495249954
 54.9627030283835865 30.1053871743642461 28.6327538495249954
 43.6882969760294344 25.2234067682127652 28.6327538495249954
 32.4139331620094353 25.2234067682127652 28.6327538495249954
 29.5952787900494201 25.2234067682127652 28.6327538495249954
 26.7767089760294326 25.2234067682127652 28.6327538495249954
 21.1394847900494298 25.2234067682127652 28.6327538495249954
 18.3209149760294281 25.2234067682127652 28.6327538495249954
 15.5023451620094264 25.2234067682127652 28.6327538495249954
  9.8651209760294343 25.2234067682127652 28.6327538495249954
  7.0465511620094325 25.2234067682127652 28.6327538495249954
  4.2278967900494315 25.2234067682127652 28.6327538495249954
  1.4093269760294336 25.2234067682127652 28.6327538495249954
 -1.4092428379905699 25.2234067682127652 28.6327538495249954
 -4.2278972099505676 25.2234067682127652 28.6327538495249954
 54.9626607900494406 25.2234067682127652 28.6327538495249954
 -7.0464670239705693 25.2234067682127652 28.6327538495249954
 59.1906000893370532 22.7824531798069998 28.6327538495249954
 45.0975819033570531 22.7824531798069998 28.6327538495249954
 42.2790120893370442 22.7824531798069998 28.6327538495249954
 36.6417879033570415 22.7824531798069998 28.6327538495249954
 31.0045637173770388 22.7824531798069998 28.6327538495249954
 19.7301999033570468 22.7824531798069998 28.6327538495249954
 16.9116300893370450 22.7824531798069998 28.6327538495249954
  8.4558360893370512 22.7824531798069998 28.6327538495249954
  5.6371817173770493 22.7824531798069998 28.6327538495249954
 -5.6371820966429516 22.7824531798069998 28.6327538495249954
 71.8742488306846781 20.3414995914012344 28.6327538495249954
 66.2370246447046753 20.3414995914012344 28.6327538495249954
 63.4184548306846807 20.3414995914012344 28.6327538495249954
 -12.6836912099505668 25.2234067682127652 28.6327538495249954
 60.5998849760294434 25.2234067682127652 28.6327538495249954
 63.4184547900494380 25.2234067682127652 28.6327538495249954
 66.2371091620094319 25.2234067682127652 28.6327538495249954
 52.1440486564235925 30.1053871743642461 28.6327538495249954
 43.6882546564235881 30.1053871743642461 28.6327538495249954
 40.8696848424035863 30.1053871743642461 28.6327538495249954
 38.0511150283835775 30.1053871743642461 28.6327538495249954
 26.7766666564235685 30.1053871743642461 28.6327538495249954
 23.9580968424035810 30.1053871743642461 28.6327538495249954
 21.1395270283835863 30.1053871743642461 28.6327538495249954
 12.6837330283835765 30.1053871743642461 28.6327538495249954
  9.8650786564235791 30.1053871743642461 28.6327538495249954
 -4.2278549716164209 30.1053871743642461 28.6327538495249954
 -7.0465093435764183 30.1053871743642461 28.6327538495249954
 -15.5023033435764184 30.1053871743642461 28.6327538495249954
 67.6463517697312113 27.6644335859584807 28.6327538495249954
 64.8277819557112025 27.6644335859584807 28.6327538495249954
 56.3719879557112051 27.6644335859584807 28.6327538495249954
 53.5533335837512112 27.6644335859584807 28.6327538495249954
 50.7347637697312024 27.6644335859584807 28.6327538495249954
 42.2789697697312050 27.6644335859584807 28.6327538495249954
 28.1859515837511907 27.6644335859584807 28.6327538495249954
 25.3673817697312032 27.6644335859584807 28.6327538495249954
 22.5488119557112086 27.6644335859584807 28.6327538495249954
 19.7301575837512004 27.6644335859584807 28.6327538495249954
 11.2743635837511977 27.6644335859584807 28.6327538495249954
  8.4557937697312031 27.6644335859584807 28.6327538495249954
 -0.0000002302687971 27.6644335859584807 28.6327538495249954
 -2.8185700442888009 27.6644335859584807 28.6327538495249954
 -5.6372244162487979 27.6644335859584807 28.6327538495249954
 -11.2743640442888005 27.6644335859584807 28.6327538495249954
 -14.0930184162487979 27.6644335859584807 28.6327538495249954
 66.2370668424035927 30.1053871743642461 28.6327538495249954
 42.2789694040103896 71.6020375533019688 28.6327538495249954
