 H  O 
 1.0000000000000000
    84.5579400000000021    0.0000000000000000    0.0000000000000000
   -42.2789706095346958   73.2293399455724767    0.0000000000000000
     0.0000000000000000    0.0000000000000000   46.9039550000000034
 H   O  
 200 323
Cartesian
 50.7347214230351895 35.8010187766509844 28.1128704123049964
 -19.7302427105906588 40.6829991828024689 28.1128704123049964
 54.9626606816875736 38.2419723650567462 28.1128704123049964
 52.1440908676675789 38.2419723650567462 28.1128704123049964
 29.5952786816875744 38.2419723650567462 28.1128704123049964
 -4.2278973183124275 38.2419723650567462 28.1128704123049964
 -15.5022611323324266 38.2419723650567462 28.1128704123049964
 -8.4557943386306622 40.6829991828024689 28.1128704123049964
 -18.3209155042924259 38.2419723650567462 28.1128704123049964
 28.1859937949951949 35.8010187766509844 28.1128704123049964
 25.3673394230351938 35.8010187766509844 28.1128704123049964
 16.9115454230351894 35.8010187766509844 28.1128704123049964
 11.2744057949951930 35.8010187766509844 28.1128704123049964
  5.6371816090151947 35.8010187766509844 28.1128704123049964
  2.8186117949951930 35.8010187766509844 28.1128704123049964
 42.2789274230351850 35.8010187766509844 28.1128704123049964
 -11.2744063909848098 35.8010187766509844 28.1128704123049964
 -2.8186547105906588 40.6829991828024689 28.1128704123049964
 39.4603152894093299 40.6829991828024689 28.1128704123049964
 50.7347636207340997 45.5649063596139996 28.1128704123049964
 45.0975394347540970 45.5649063596139996 28.1128704123049964
 39.4603998067140935 45.5649063596139996 28.1128704123049964
 22.5488118067141059 45.5649063596139996 28.1128704123049964
  5.6372238067141032 45.5649063596139996 28.1128704123049964
  2.8185694347540982 45.5649063596139996 28.1128704123049964
 22.5487272894093422 40.6829991828024689 28.1128704123049964
 -2.8185701932858982 45.5649063596139996 28.1128704123049964
 -22.5488125652458997 45.5649063596139996 28.1128704123049964
 38.0510303620817112 43.1239527712082307 28.1128704123049964
 32.4138907340417219 43.1239527712082307 28.1128704123049964
 15.5023027340417219 43.1239527712082307 28.1128704123049964
 -15.5023034519382783 43.1239527712082307 28.1128704123049964
 50.7347636613693425 40.6829991828024689 28.1128704123049964
 -11.2743641932859031 45.5649063596139996 28.1128704123049964
 -18.3209155855641299 48.0059331773597151 28.1128704123049964
 52.1440063503628082 33.3600651882452155 28.1128704123049964
 29.5952787223228171 33.3600651882452155 28.1128704123049964
 14.0929334113162810 26.0371311936879657 28.1128704123049964
 -2.8186545886837178 26.0371311936879657 28.1128704123049964
 -8.4557942167237172 26.0371311936879657 28.1128704123049964
 -11.2744485886837182 26.0371311936879657 28.1128704123049964
 -14.0930184027037182 26.0371311936879657 28.1128704123049964
 60.5998849895745124 23.5961043759422537 28.1128704123049964
 39.4603154113162731 26.0371311936879657 28.1128704123049964
 52.1440909895745008 23.5961043759422537 28.1128704123049964
 -1.4093273823854895 23.5961043759422537 28.1128704123049964
 50.7347215449421185 21.1551507875364884 28.1128704123049964
 47.9161517309221239 21.1551507875364884 28.1128704123049964
 42.2789275449421211 21.1551507875364884 28.1128704123049964
 22.5487697309221353 21.1551507875364884 28.1128704123049964
 14.0929757309221344 21.1551507875364884 28.1128704123049964
 29.5952788035945140 23.5961043759422537 28.1128704123049964
 32.4138485363428117 33.3600651882452155 28.1128704123049964
 45.0975395972962758 26.0371311936879657 28.1128704123049964
 62.0091275972962777 26.0371311936879657 28.1128704123049964
 21.1394847223228126 33.3600651882452155 28.1128704123049964
 47.9161939286210341 30.9190383704995000 28.1128704123049964
 33.8231757426410411 30.9190383704995000 28.1128704123049964
 28.1859515566610455 30.9190383704995000 28.1128704123049964
 14.0930179286210446 30.9190383704995000 28.1128704123049964
  8.4557937426410454 30.9190383704995000 28.1128704123049964
 59.1905577832762830 26.0371311936879657 28.1128704123049964
 -2.8185700713789608 30.9190383704995000 28.1128704123049964
 60.5998426699686590 28.4780847820937346 28.1128704123049964
 57.7812728559486644 28.4780847820937346 28.1128704123049964
 21.1394424839886597 28.4780847820937346 28.1128704123049964
  4.2278544839886631 28.4780847820937346 28.1128704123049964
 -9.8650791440513395 28.4780847820937346 28.1128704123049964
 -12.6837335160113369 28.4780847820937346 28.1128704123049964
 -16.9115882573589573 30.9190383704995000 28.1128704123049964
  8.4557515449421317 21.1551507875364884 28.1128704123049964
  4.2278966004158747 48.0059331773597151 28.1128704123049964
 21.1394846004158765 48.0059331773597151 28.1128704123049964
 25.3673391792213039 65.0927547548799765 28.1128704123049964
  2.8186115511813119 65.0927547548799765 28.1128704123049964
 -11.2744066347986838 65.0927547548799765 28.1128704123049964
 -14.0929764488186855 65.0927547548799765 28.1128704123049964
 -28.1859946347986892 65.0927547548799765 28.1128704123049964
 -33.8232188207786848 65.0927547548799765 28.1128704123049964
 39.4603573652013111 65.0927547548799765 28.1128704123049964
 35.2324181065489270 62.6518011664742076 28.1128704123049964
 12.6836904785089395 62.6518011664742076 28.1128704123049964
  7.0464662925289359 62.6518011664742076 28.1128704123049964
  4.2278964785089341 62.6518011664742076 28.1128704123049964
 -1.4093277074710613 62.6518011664742076 28.1128704123049964
 -12.6836915214910633 62.6518011664742076 28.1128704123049964
 -32.4139338934510661 62.6518011664742076 28.1128704123049964
 32.4138482925289324 62.6518011664742076 28.1128704123049964
 -35.2325037074710679 62.6518011664742076 28.1128704123049964
 -32.4138493761463025 67.5337083432857384 28.1128704123049964
 -21.1394855621263069 67.5337083432857384 28.1128704123049964
 12.6836481182678362 72.4156887494372228 28.1128704123049964
 -9.8650795097721549 72.4156887494372228 28.1128704123049964
 -12.6837338817321594 72.4156887494372228 28.1128704123049964
 -26.7766675097721567 72.4156887494372228 28.1128704123049964
 -40.8696856957521533 72.4156887494372228 28.1128704123049964
 39.4603150455954648 69.9747351610314468 28.1128704123049964
 -23.9580553761463051 67.5337083432857384 28.1128704123049964
 25.3673814175554639 69.9747351610314468 28.1128704123049964
 -0.0000005824445366 69.9747351610314468 28.1128704123049964
 -5.6372247684245327 69.9747351610314468 28.1128704123049964
 -19.7302429544045346 69.9747351610314468 28.1128704123049964
 35.2325026238536978 67.5337083432857384 28.1128704123049964
 23.9580542518936852 67.5337083432857384 28.1128704123049964
 21.1394844378736906 67.5337083432857384 28.1128704123049964
 14.0929330455954638 69.9747351610314468 28.1128704123049964
  7.0464664144358764 48.0059331773597151 28.1128704123049964
 42.2789694988271592 60.2107743487284921 28.1128704123049964
 31.0046056848071565 60.2107743487284921 28.1128704123049964
 15.5022603738006346 52.8878403541712458 28.1128704123049964
 -1.4093276261993704 52.8878403541712458 28.1128704123049964
 -7.0464672542393672 52.8878403541712458 28.1128704123049964
 39.4603574871082543 50.4468867657654769 28.1128704123049964
 36.6417876730882455 50.4468867657654769 28.1128704123049964
 28.1859936730882552 50.4468867657654769 28.1128704123049964
 32.4138483738006258 52.8878403541712458 28.1128704123049964
 25.3673393011282471 50.4468867657654769 28.1128704123049964
 -2.8186125128917427 50.4468867657654769 28.1128704123049964
 -5.6371823269117440 50.4468867657654769 28.1128704123049964
 -22.5487703269117468 50.4468867657654769 28.1128704123049964
 54.9626606004158731 48.0059331773597151 28.1128704123049964
 26.7766242284558658 48.0059331773597151 28.1128704123049964
 23.9580544144358711 48.0059331773597151 28.1128704123049964
 11.2744056730882534 50.4468867657654769 28.1128704123049964
 33.8231754988271618 60.2107743487284921 28.1128704123049964
 43.6882967457606384 52.8878403541712458 28.1128704123049964
 -22.5488126465175966 55.3288671719169614 28.1128704123049964
 16.9115874988271635 60.2107743487284921 28.1128704123049964
 -5.6372246871528393 60.2107743487284921 28.1128704123049964
 -11.2743643151928357 60.2107743487284921 28.1128704123049964
 -22.5488126871528358 60.2107743487284921 28.1128704123049964
 46.5068242401747796 57.7698207603227232 28.1128704123049964
 21.1394422401747804 57.7698207603227232 28.1128704123049964
 -28.1860368324975958 55.3288671719169614 28.1128704123049964
  9.8650784261547866 57.7698207603227232 28.1128704123049964
 -12.6837337598252144 57.7698207603227232 28.1128704123049964
 -32.4138915738452127 57.7698207603227232 28.1128704123049964
 50.7347635394624064 55.3288671719169614 28.1128704123049964
 25.3673815394624036 55.3288671719169614 28.1128704123049964
 -11.2744488324975958 55.3288671719169614 28.1128704123049964
 -16.9115884605376010 55.3288671719169614 28.1128704123049964
  4.2278542401747847 57.7698207603227232 28.1128704123049964
 -11.2744062690778684 21.1551507875364884 28.1128704123049964
 35.2324603042478444 72.4156887494372228 28.1128704123049964
 31.0046060505279790 16.2731703813850075 28.1128704123049964
 18.3208304722697477 18.7141971991307194 28.1128704123049964
  7.0464667395214500  8.9502363868277595 28.1128704123049964
 45.0975820388090725  6.5092827984219914 28.1128704123049964
 43.6882125941766972  4.0683292100162243 28.1128704123049964
  7.0464666582497495 18.7141971991307194 28.1128704123049964
 -0.0000001354520196 16.2731703813850075 28.1128704123049964
 39.4604000505279870 16.2731703813850075 28.1128704123049964
 16.9115456668490722  6.5092827984219914 28.1128704123049964
 28.1859517192032243 11.3912632045734714 28.1128704123049964
  4.2278968442297478 18.7141971991307194 28.1128704123049964
 40.8696427801566955  4.0683292100162243 28.1128704123049964
  8.4557938645479798 16.2731703813850075 28.1128704123049964
 78.9207580388090690  6.5092827984219914 28.1128704123049964
 53.5533337192032164 11.3912632045734714 28.1128704123049964
 19.7301576785679771 16.2731703813850075 28.1128704123049964
 62.0091700388090601  6.5092827984219914 28.1128704123049964
 22.5487698528290750  6.5092827984219914 28.1128704123049964
 64.8277821724349081  1.6273023922705114 28.1128704123049964
 62.0091276785679781 16.2731703813850075 28.1128704123049964
 67.6463519864549170  1.6273023922705114 28.1128704123049964
 73.2835760505279836 16.2731703813850075 28.1128704123049964
 73.2835761724349197  1.6273023922705114 28.1128704123049964
 29.5952789661366928  4.0683292100162243 28.1128704123049964
 22.5488120505279817 16.2731703813850075 28.1128704123049964
 64.8277820505279863 16.2731703813850075 28.1128704123049964
 47.9161941724349276  1.6273023922705114 28.1128704123049964
 76.1021459864549144  1.6273023922705114 28.1128704123049964
 21.1394849661366919  4.0683292100162243 28.1128704123049964
 -0.0000000948167802 11.3912632045734714 28.1128704123049964
 39.4603578528290697  6.5092827984219914 28.1128704123049964
 52.1440911114814512  8.9502363868277595 28.1128704123049964
 69.0555945941766822  4.0683292100162243 28.1128704123049964
 35.2325031114814493  8.9502363868277595 28.1128704123049964
 -7.0465092081243990 13.8322167929792403 28.1128704123049964
  5.6372241724349186  1.6273023922705114 28.1128704123049964
 54.9626609255014458  8.9502363868277595 28.1128704123049964
 46.5068246058955950 13.8322167929792403 28.1128704123049964
 -1.4092850221444004 13.8322167929792403 28.1128704123049964
 66.2370247395214449  8.9502363868277595 28.1128704123049964
 63.4184126058955968 13.8322167929792403 28.1128704123049964
  9.8651211114814483  8.9502363868277595 28.1128704123049964
 21.1394849255014528  8.9502363868277595 28.1128704123049964
 26.7766244722697486 18.7141971991307194 28.1128704123049964
 11.2743638004749194  1.6273023922705114 28.1128704123049964
 71.8742489255014476  8.9502363868277595 28.1128704123049964
  5.6371818528290705  6.5092827984219914 28.1128704123049964
 12.6836909661366875  4.0683292100162243 28.1128704123049964
 52.1440065941766875  4.0683292100162243 28.1128704123049964
 -2.8186544667767790 11.3912632045734714 28.1128704123049964
 31.0046061724349222  1.6273023922705114 28.1128704123049964
 69.0556367918755996 13.8322167929792403 28.1128704123049964
 21.1394848442297523 18.7141971991307194 28.1128704123049964
 59.1905578645479835 16.2731703813850075 28.1128704123049964
 -1.4093272198433096  4.0683292100162243 28.1128704123049964
 35.2324184722697566 18.7141971991307194 28.1128704123049964
 -22.5488126600626764 56.9561695641874692 28.6327538495249954
 38.0510729525916105  5.6956316022867357 28.6327538495249954
 73.2835760369829075 17.9004727736555189 28.6327538495249954
 25.3673815259173274 56.9561695641874692 28.6327538495249954
 23.9580547666116068  5.6956316022867357 28.6327538495249954
 -11.2743642881026744 56.9561695641874692 28.6327538495249954
  5.6372237118973310 56.9561695641874692 28.6327538495249954
 21.1394849525916122  5.6956316022867357 28.6327538495249954
 19.7301573399373318 56.9561695641874692 28.6327538495249954
 45.0975393399373274 56.9561695641874692 28.6327538495249954
  7.0464667666116103  5.6956316022867357 28.6327538495249954
 50.7347635259173302 56.9561695641874692 28.6327538495249954
 -32.4138915873902960 59.3971231525932382 28.6327538495249954
 -23.9580975873902986 59.3971231525932382 28.6327538495249954
 -21.1394432154303011 59.3971231525932382 28.6327538495249954
 -12.6836492154302967 59.3971231525932382 28.6327538495249954
  4.2278969525916086  5.6956316022867357 28.6327538495249954
 81.7393701588898551  3.2546047845410229 28.6327538495249954
 -14.0930186600626755 56.9561695641874692 28.6327538495249954
 43.6882967322155622 54.5151427464417537 28.6327538495249954
 69.0556791385716195  5.6956316022867357 28.6327538495249954
 40.8696427666115980  5.6956316022867357 28.6327538495249954
 -25.3673401544768282 52.0741891580359919 28.6327538495249954
 52.1440907728507952 49.6332355696302230 28.6327538495249954
 49.3254364008908013 49.6332355696302230 28.6327538495249954
 38.0510725868707951 49.6332355696302230 28.6327538495249954
 16.9116302112439918  8.1365851906925037 28.6327538495249954
 26.7767087728507853 49.6332355696302230 28.6327538495249954
 19.7302000252639935  8.1365851906925037 28.6327538495249954
 23.9580544008907985 49.6332355696302230 28.6327538495249954
 15.5022604008907816 49.6332355696302230 28.6327538495249954
 12.6836905868707941 49.6332355696302230 28.6327538495249954
  9.8651207728507995 49.6332355696302230 28.6327538495249954
  7.0464664008907913 49.6332355696302230 28.6327538495249954
 -1.4093275991092098 49.6332355696302230 28.6327538495249954
 22.5487698392839881  8.1365851906925037 28.6327538495249954
 -4.2278974131292042 49.6332355696302230 28.6327538495249954
 -7.0464672271492059 49.6332355696302230 28.6327538495249954
 -21.1394854131292078 49.6332355696302230 28.6327538495249954
 -22.5487703404568300 52.0741891580359919 28.6327538495249954
 32.4139329181955560 54.5151427464417537 28.6327538495249954
  5.6371818392839907  8.1365851906925037 28.6327538495249954
 -2.8186125264368322 52.0741891580359919 28.6327538495249954
 15.5023449181955559 54.5151427464417537 28.6327538495249954
  4.2278965462355513 54.5151427464417537 28.6327538495249954
 -1.4092430818044526 54.5151427464417537 28.6327538495249954
 43.6882971385716132  5.6956316022867357 28.6327538495249954
 -12.6836914537644478 54.5151427464417537 28.6327538495249954
 -21.1394854537644470 54.5151427464417537 28.6327538495249954
 -23.9580552677844487 54.5151427464417537 28.6327538495249954
 63.4184549525916097  5.6956316022867357 28.6327538495249954
  4.2279387845697078 59.3971231525932382 28.6327538495249954
 39.4603574735631781 52.0741891580359919 28.6327538495249954
 33.8232178455231747 52.0741891580359919 28.6327538495249954
 71.8742489525916284  5.6956316022867357 28.6327538495249954
 31.0045634735631737 52.0741891580359919 28.6327538495249954
 28.1859936595431719 52.0741891580359919 28.6327538495249954
 74.6928187666116230  5.6956316022867357 28.6327538495249954
 14.0929754735631594 52.0741891580359919 28.6327538495249954
 11.2744056595431719 52.0741891580359919 28.6327538495249954
 -5.6371823404568273 52.0741891580359919 28.6327538495249954
 15.5023025985896936 59.3971231525932382 28.6327538495249954
 -2.8185703287379194 61.8380767409990000 28.6327538495249954
 18.3208724126097096 59.3971231525932382 28.6327538495249954
 46.5069092721974613  0.8136511961352557 28.6327538495249954
 -18.3208312037113821 69.1610107355562462 28.6327538495249954
 -21.1394855756713831 69.1610107355562462 28.6327538495249954
 -23.9580553896913813 69.1610107355562462 28.6327538495249954
 -38.0510735756713814 69.1610107355562462 28.6327538495249954
 45.0975815376362448 66.7200571471504844 28.6327538495249954
 36.6417875376362474 66.7200571471504844 28.6327538495249954
 49.3254790862174488  0.8136511961352557 28.6327538495249954
 25.3674237236162377 66.7200571471504844 28.6327538495249954
 52.1440489002374647  0.8136511961352557 28.6327538495249954
 22.5487693516562366 66.7200571471504844 28.6327538495249954
 54.9627032721974516  0.8136511961352557 28.6327538495249954
  2.8186115376362340 66.7200571471504844 28.6327538495249954
  0.0000417236162395 66.7200571471504844 28.6327538495249954
 -2.8186126483437688 66.7200571471504844 28.6327538495249954
 -11.2744066483437688 66.7200571471504844 28.6327538495249954
 -19.7302006483437680 66.7200571471504844 28.6327538495249954
 -4.2278975756713866 69.1610107355562462 28.6327538495249954
 -22.5487704623637697 66.7200571471504844 28.6327538495249954
 -1.4092432037113782 69.1610107355562462 28.6327538495249954
  9.8651206103086064 69.1610107355562462 28.6327538495249954
 16.9115874040103833 71.6020375533019688 28.6327538495249954
 14.0930175899903762 71.6020375533019688 28.6327538495249954
  4.2279392721974602  0.8136511961352557 28.6327538495249954
 11.2743632180303894 71.6020375533019688 28.6327538495249954
 -0.0000005959896168 71.6020375533019688 28.6327538495249954
 -11.2743644100096230 71.6020375533019688 28.6327538495249954
  7.0465090862174584  0.8136511961352557 28.6327538495249954
 -19.7301584100096186 71.6020375533019688 28.6327538495249954
 -22.5488127819696196 71.6020375533019688 28.6327538495249954
  9.8650789002374601  0.8136511961352557 28.6327538495249954
 -36.6417464100096169 71.6020375533019688 28.6327538495249954
 -39.4604007819696179 71.6020375533019688 28.6327538495249954
 43.6882966103086261 69.1610107355562462 28.6327538495249954
 15.5023030862174611  0.8136511961352557 28.6327538495249954
 26.7767086103086172 69.1610107355562462 28.6327538495249954
 29.5953212721974559  0.8136511961352557 28.6327538495249954
 23.9581387962886225 69.1610107355562462 28.6327538495249954
 32.4138910862174541  0.8136511961352557 28.6327538495249954
 -33.8231342763837688 66.7200571471504844 28.6327538495249954
 40.8696422789838678 64.2791035587447084 28.6327538495249954
 38.0510724649638732 64.2791035587447084 28.6327538495249954
 16.9115874852820909 61.8380767409990000 28.6327538495249954
 14.0930176712620749 61.8380767409990000 28.6327538495249954
 31.0046061588898354  3.2546047845410229 28.6327538495249954
 11.2744478572420874 61.8380767409990000 28.6327538495249954
  5.6372236712620847 61.8380767409990000 28.6327538495249954
 42.2789699729098274  3.2546047845410229 28.6327538495249954
 36.6417880252639918  8.1365851906925037 28.6327538495249954
 -11.2743643287379136 61.8380767409990000 28.6327538495249954
 50.7347639729098461  3.2546047845410229 28.6327538495249954
 -22.5487281427579163 61.8380767409990000 28.6327538495249954
 -33.8231765147179146 61.8380767409990000 28.6327538495249954
 53.5534183448698329  3.2546047845410229 28.6327538495249954
 49.3254785985897115 59.3971231525932382 28.6327538495249954
 64.8277821588898462  3.2546047845410229 28.6327538495249954
 67.6463519729098550  3.2546047845410229 28.6327538495249954
 32.4138905985897026 59.3971231525932382 28.6327538495249954
 21.1395267845696964 59.3971231525932382 28.6327538495249954
 31.0046056712620839 61.8380767409990000 28.6327538495249954
 33.8231754852820927 61.8380767409990000 28.6327538495249954
 36.6418298572420866 61.8380767409990000 28.6327538495249954
 39.4603996712620955 61.8380767409990000 28.6327538495249954
 35.2325026509438644 64.2791035587447084 28.6327538495249954
 26.7767086509438528 64.2791035587447084 28.6327538495249954
 77.5114309002374711  0.8136511961352557 28.6327538495249954
 23.9580542789838589 64.2791035587447084 28.6327538495249954
 15.5022602789838597 64.2791035587447084 28.6327538495249954
 12.6836904649638509 64.2791035587447084 28.6327538495249954
  4.2278964649638544 64.2791035587447084 28.6327538495249954
  1.4093266509438596 64.2791035587447084 28.6327538495249954
 78.9208003448698463  3.2546047845410229 28.6327538495249954
 -1.4093277210161486 64.2791035587447084 28.6327538495249954
 -0.0000000270901599  3.2546047845410229 28.6327538495249954
 -12.6836915350361448 64.2791035587447084 28.6327538495249954
  8.4557939729098397  3.2546047845410229 28.6327538495249954
 -23.9580553490561456 64.2791035587447084 28.6327538495249954
 -26.7767097210161431 64.2791035587447084 28.6327538495249954
 11.2744483448698372  3.2546047845410229 28.6327538495249954
 -29.5952795350361448 64.2791035587447084 28.6327538495249954
 -32.4138493490561430 64.2791035587447084 28.6327538495249954
 -4.2278975350361501 64.2791035587447084 28.6327538495249954
 -23.9580552271492060 49.6332355696302230 28.6327538495249954
 -8.4557943928109793 47.1922087518845075 28.6327538495249954
 50.7347636071890307 47.1922087518845075 28.6327538495249954
 46.5069091502905181 15.4595191852497500 28.6327538495249954
 62.0091275837512086 27.6644335859584807 28.6327538495249954
 57.7812729643105243 15.4595191852497500 28.6327538495249954
 59.1905577697312140 27.6644335859584807 28.6327538495249954
 39.4603999557111962 27.6644335859584807 28.6327538495249954
 36.6417455837512094 27.6644335859584807 28.6327538495249954
 25.3673817697312032 27.6644335859584807 28.6327538495249954
 22.5488119557112086 27.6644335859584807 28.6327538495249954
 -15.5023033435764184 30.1053871743642461 28.6327538495249954
 60.5998427783305331 15.4595191852497500 28.6327538495249954
  2.8185695837512008 27.6644335859584807 28.6327538495249954
 -8.4557942302688005 27.6644335859584807 28.6327538495249954
 63.4184971502905270 15.4595191852497500 28.6327538495249954
 -11.2743640442888005 27.6644335859584807 28.6327538495249954
 -14.0930184162487979 27.6644335859584807 28.6327538495249954
 71.8742911502905173 15.4595191852497500 28.6327538495249954
 60.5998849760294434 25.2234067682127652 28.6327538495249954
 57.7813151620094345 25.2234067682127652 28.6327538495249954
 19.7301575837512004 27.6644335859584807 28.6327538495249954
 49.3255211620094371 25.2234067682127652 28.6327538495249954
 -12.6836489716164174 30.1053871743642461 28.6327538495249954
 40.8696849643105153 15.4595191852497500 28.6327538495249954
 -9.8651214772022673 34.9873675805157234 28.6327538495249954
 53.5534181010559607 32.5463407627700150 28.6327538495249954
  4.2279391502905188 15.4595191852497500 28.6327538495249954
 50.7347637290959668 32.5463407627700150 28.6327538495249954
 31.0046059150759525 32.5463407627700150 28.6327538495249954
 28.1860361010559650 32.5463407627700150 28.6327538495249954
 21.1395271502905153 15.4595191852497500 28.6327538495249954
  8.4557937290959586 32.5463407627700150 28.6327538495249954
 -4.2278549716164209 30.1053871743642461 28.6327538495249954
 -2.8185700849240374 32.5463407627700150 28.6327538495249954
 66.2370668424035927 30.1053871743642461 28.6327538495249954
 63.4184970283835838 30.1053871743642461 28.6327538495249954
 52.1440486564235925 30.1053871743642461 28.6327538495249954
 46.5069090283835891 30.1053871743642461 28.6327538495249954
 32.4138909643105251 15.4595191852497500 28.6327538495249954
 15.5023028424035783 30.1053871743642461 28.6327538495249954
 38.0511151502905278 15.4595191852497500 28.6327538495249954
 12.6837330283835765 30.1053871743642461 28.6327538495249954
 -16.9115882709040370 32.5463407627700150 28.6327538495249954
 -1.4092850356894804 15.4595191852497500 28.6327538495249954
 46.5068667900494361 25.2234067682127652 28.6327538495249954
 40.8697271620094256 25.2234067682127652 28.6327538495249954
 22.5488120369828984 17.9004727736555189 28.6327538495249954
 -2.8186122826229494 22.7824531798069998 28.6327538495249954
 71.8742488306846781 20.3414995914012344 28.6327538495249954
 69.0556790166646692 20.3414995914012344 28.6327538495249954
 52.1440910166646745 20.3414995914012344 28.6327538495249954
 36.6418302229629020 17.9004727736555189 28.6327538495249954
 38.0510728306846602 20.3414995914012344 28.6327538495249954
 32.4138486447046574 20.3414995914012344 28.6327538495249954
  0.0000420893370479 22.7824531798069998 28.6327538495249954
 26.7767090166646753 20.3414995914012344 28.6327538495249954
 21.1394848306846654 20.3414995914012344 28.6327538495249954
 15.5022606447046662 20.3414995914012344 28.6327538495249954
 42.2789698510029055 17.9004727736555189 28.6327538495249954
 12.6836908306846716 20.3414995914012344 28.6327538495249954
 59.1905578510029073 17.9004727736555189 28.6327538495249954
  7.0464666447046698 20.3414995914012344 28.6327538495249954
  4.2278968306846716 20.3414995914012344 28.6327538495249954
 62.0092122229629013 17.9004727736555189 28.6327538495249954
 39.4604000369828896 17.9004727736555189 28.6327538495249954
 74.6928609643105261 15.4595191852497500 28.6327538495249954
 11.2744059033570529 22.7824531798069998 28.6327538495249954
 31.0045637173770388 22.7824531798069998 28.6327538495249954
 -8.4557941489970982 17.9004727736555189 28.6327538495249954
 38.0510727900494388 25.2234067682127652 28.6327538495249954
 35.2325029760294228 25.2234067682127652 28.6327538495249954
 29.5952787900494201 25.2234067682127652 28.6327538495249954
 26.7767089760294326 25.2234067682127652 28.6327538495249954
 15.5023451620094264 25.2234067682127652 28.6327538495249954
 12.6836907900494289 25.2234067682127652 28.6327538495249954
 -1.4092428379905699 25.2234067682127652 28.6327538495249954
 14.0929757173770476 22.7824531798069998 28.6327538495249954
  5.6372240369829028 17.9004727736555189 28.6327538495249954
 -9.8650368379905675 25.2234067682127652 28.6327538495249954
  8.4557938510029000 17.9004727736555189 28.6327538495249954
 16.9115878510028992 17.9004727736555189 28.6327538495249954
 19.7302422229628966 17.9004727736555189 28.6327538495249954
 50.7348060893370558 22.7824531798069998 28.6327538495249954
 47.9161517173770548 22.7824531798069998 28.6327538495249954
 36.6417879033570415 22.7824531798069998 28.6327538495249954
 33.8232180893370540 22.7824531798069998 28.6327538495249954
 -4.2278972099505676 25.2234067682127652 28.6327538495249954
 39.4603578392839793  8.1365851906925037 28.6327538495249954
  4.2278967087777302 34.9873675805157234 28.6327538495249954
  7.0464665227977319 34.9873675805157234 28.6327538495249954
 23.9581392839163634 10.5775387790982709 28.6327538495249954
 -12.6836490935233588 44.7512551634787386 28.6327538495249954
 -23.9580974654833554 44.7512551634787386 28.6327538495249954
 59.1905576478242708 42.3103015750729767 28.6327538495249954
 50.7347636478242734 42.3103015750729767 28.6327538495249954
 29.5952789119563668 10.5775387790982709 28.6327538495249954
 36.6417454618442662 42.3103015750729767 28.6327538495249954
 33.8231756478242644 42.3103015750729767 28.6327538495249954
 -9.8650792795033553 44.7512551634787386 28.6327538495249954
 32.4139332839163785 10.5775387790982709 28.6327538495249954
 49.3255212839163661 10.5775387790982709 28.6327538495249954
 -2.8185701661957374 42.3103015750729767 28.6327538495249954
 -11.2743641661957401 42.3103015750729767 28.6327538495249954
 52.1440910979363750 10.5775387790982709 28.6327538495249954
 -16.9115883521757375 42.3103015750729767 28.6327538495249954
 -22.5488125381557367 42.3103015750729767 28.6327538495249954
 60.5998848541225001 39.8692747573272612 28.6327538495249954
 52.1440908541225028 39.8692747573272612 28.6327538495249954
 16.9115876478242626 42.3103015750729767 28.6327538495249954
 49.3255210401024939 39.8692747573272612 28.6327538495249954
 21.1394849119563659 10.5775387790982709 28.6327538495249954
  4.2279389064766386 44.7512551634787386 28.6327538495249954
 45.0976239791490272 47.1922087518845075 28.6327538495249954
 31.0046057931690235 47.1922087518845075 28.6327538495249954
 25.3673816071890279 47.1922087518845075 28.6327538495249954
 53.5533760252639937  8.1365851906925037 28.6327538495249954
 22.5488117931690120 47.1922087518845075 28.6327538495249954
  8.4557936071890190 47.1922087518845075 28.6327538495249954
 62.0091700252639910  8.1365851906925037 28.6327538495249954
  5.6372237931690181 47.1922087518845075 28.6327538495249954
  9.8651210979363722 10.5775387790982709 28.6327538495249954
  2.8186539791490159 47.1922087518845075 28.6327538495249954
 -22.5487280208509766 47.1922087518845075 28.6327538495249954
 -25.3673823928109776 47.1922087518845075 28.6327538495249954
 76.1021882112439840  8.1365851906925037 28.6327538495249954
 40.8696847204966431 44.7512551634787386 28.6327538495249954
 -1.4092427160836287 10.5775387790982709 28.6327538495249954
 38.0511149064766485 44.7512551634787386 28.6327538495249954
 15.5023027204966439 44.7512551634787386 28.6327538495249954
  7.0465512839163686 10.5775387790982709 28.6327538495249954
 70.4650062229628986 17.9004727736555189 28.6327538495249954
 -7.0465092216694787 15.4595191852497500 28.6327538495249954
 40.8697270401024966 39.8692747573272612 28.6327538495249954
 38.0510726681424956 39.8692747573272612 28.6327538495249954
  5.6371815954701097 37.4283211689214923 28.6327538495249954
  2.8186117814501150 37.4283211689214923 28.6327538495249954
 -2.8186124045298877 37.4283211689214923 28.6327538495249954
 47.9161940776181368 13.0185655968439828 28.6327538495249954
 -16.9115460325698876 37.4283211689214923 28.6327538495249954
 50.7347638916381456 13.0185655968439828 28.6327538495249954
 52.1440908947577384 34.9873675805157234 28.6327538495249954
 31.0046055899903834 71.6020375533019688 28.6327538495249954
 16.9116299674301196 37.4283211689214923 28.6327538495249954
 49.3254365227977445 34.9873675805157234 28.6327538495249954
 40.8696425227977400 34.9873675805157234 28.6327538495249954
 38.0510727087777383 34.9873675805157234 28.6327538495249954
 29.5952787087777267 34.9873675805157234 28.6327538495249954
 62.0091277056581518 13.0185655968439828 28.6327538495249954
 26.7767088947577392 34.9873675805157234 28.6327538495249954
 67.6463518916381474 13.0185655968439828 28.6327538495249954
 15.5022605227977337 34.9873675805157234 28.6327538495249954
 12.6836907087777320 34.9873675805157234 28.6327538495249954
 59.1905578916381430 13.0185655968439828 28.6327538495249954
 54.9626609119563767 10.5775387790982709 28.6327538495249954
 22.5487695954701017 37.4283211689214923 28.6327538495249954
 28.1859937814501045 37.4283211689214923 28.6327538495249954
 23.9581390401024947 39.8692747573272612 28.6327538495249954
 21.1394846681424795 39.8692747573272612 28.6327538495249954
 15.5023450401024956 39.8692747573272612 28.6327538495249954
  7.0465510401024849 39.8692747573272612 28.6327538495249954
 -1.4092429598975091 39.8692747573272612 28.6327538495249954
 -2.8185699223818586 13.0185655968439828 28.6327538495249954
 -4.2278973318575099 39.8692747573272612 28.6327538495249954
 -18.3208309598975099 39.8692747573272612 28.6327538495249954
 25.3674239674301170 37.4283211689214923 28.6327538495249954
 14.0930180776181420 13.0185655968439828 28.6327538495249954
 28.1859517056581375 13.0185655968439828 28.6327538495249954
 53.5533757814501215 37.4283211689214923 28.6327538495249954
 42.2789698916381340 13.0185655968439828 28.6327538495249954
 50.7348059674301126 37.4283211689214923 28.6327538495249954
 42.2790119674301152 37.4283211689214923 28.6327538495249954
 39.4603575954701142 37.4283211689214923 28.6327538495249954
 36.6417877814501125 37.4283211689214923 28.6327538495249954
 45.0975397056581500 13.0185655968439828 28.6327538495249954
 -21.1394853318575109 39.8692747573272612 28.6327538495249954
  1.4092849002374601  0.8136511961352557 28.6327538495249954
