 H  O 
 1.0000000000000000
    84.5579400000000021    0.0000000000000000    0.0000000000000000
   -42.2789706095346958   73.2293399455724767    0.0000000000000000
     0.0000000000000000    0.0000000000000000   46.9039550000000034
 H   O  
 239 396
Cartesian
 -0.0000000135450799  1.6273023922705114 28.1128704123049964
 52.1440908676675789 38.2419723650567462 28.1128704123049964
 49.3254364957075708 38.2419723650567462 28.1128704123049964
 40.8696424957075664 38.2419723650567462 28.1128704123049964
 38.0510726816875717 38.2419723650567462 28.1128704123049964
 35.2325028676675771 38.2419723650567462 28.1128704123049964
 62.0091697949951950 35.8010187766509844 28.1128704123049964
 56.3719456090151922 35.8010187766509844 28.1128704123049964
 50.7347214230351895 35.8010187766509844 28.1128704123049964
 31.0045636090151895 35.8010187766509844 28.1128704123049964
 28.1859937949951949 35.8010187766509844 28.1128704123049964
 19.7301997949951904 35.8010187766509844 28.1128704123049964
 11.2744057949951930 35.8010187766509844 28.1128704123049964
 -2.8186123909848098 35.8010187766509844 28.1128704123049964
 -8.4558365769648098 35.8010187766509844 28.1128704123049964
 54.9626607223228163 33.3600651882452155 28.1128704123049964
 46.5068667223228047 33.3600651882452155 28.1128704123049964
 40.8696425363428091 33.3600651882452155 28.1128704123049964
 54.9626606816875736 38.2419723650567462 28.1128704123049964
 -16.9115883386306614 40.6829991828024689 28.1128704123049964
 -14.0930185246106596 40.6829991828024689 28.1128704123049964
 11.2743634753893449 40.6829991828024689 28.1128704123049964
 31.0046058067141033 45.5649063596139996 28.1128704123049964
 19.7301574347541049 45.5649063596139996 28.1128704123049964
 -11.2743641932859031 45.5649063596139996 28.1128704123049964
 -19.7301581932858987 45.5649063596139996 28.1128704123049964
 -25.3673823792659014 45.5649063596139996 28.1128704123049964
 54.9626183620817130 43.1239527712082307 28.1128704123049964
 52.1440485480617184 43.1239527712082307 28.1128704123049964
 35.2324605480617166 43.1239527712082307 28.1128704123049964
 29.5952787223228171 33.3600651882452155 28.1128704123049964
 23.9580967340417281 43.1239527712082307 28.1128704123049964
  1.4092845480617260 43.1239527712082307 28.1128704123049964
 -4.2279396379182765 43.1239527712082307 28.1128704123049964
 -7.0465094519382783 43.1239527712082307 28.1128704123049964
 59.1905576613693398 40.6829991828024689 28.1128704123049964
 53.5533334753893371 40.6829991828024689 28.1128704123049964
 45.0975394753893397 40.6829991828024689 28.1128704123049964
 28.1859514753893379 40.6829991828024689 28.1128704123049964
 16.9115876613693388 40.6829991828024689 28.1128704123049964
 15.5023027340417219 43.1239527712082307 28.1128704123049964
 23.9580545363428143 33.3600651882452155 28.1128704123049964
  7.0464665363428152 33.3600651882452155 28.1128704123049964
 -9.8651214636571893 33.3600651882452155 28.1128704123049964
  7.0465088559486642 28.4780847820937346 28.1128704123049964
 64.8276974113162794 26.0371311936879657 28.1128704123049964
 56.3719034113162749 26.0371311936879657 28.1128704123049964
 53.5533335972962803 26.0371311936879657 28.1128704123049964
 25.3673817832762829 26.0371311936879657 28.1128704123049964
 22.5487274113162819 26.0371311936879657 28.1128704123049964
 16.9115877832762855 26.0371311936879657 28.1128704123049964
 14.0929334113162810 26.0371311936879657 28.1128704123049964
 12.6836484839886605 28.4780847820937346 28.1128704123049964
 11.2743635972962863 26.0371311936879657 28.1128704123049964
 60.5998849895745124 23.5961043759422537 28.1128704123049964
 57.7812306176145043 23.5961043759422537 28.1128704123049964
 46.5068668035945052 23.5961043759422537 28.1128704123049964
 40.8696426176145025 23.5961043759422537 28.1128704123049964
 26.7767089895745123 23.5961043759422537 28.1128704123049964
 23.9580546176145113 23.5961043759422537 28.1128704123049964
  1.4093269895745080 23.5961043759422537 28.1128704123049964
 -7.0464670104254905 23.5961043759422537 28.1128704123049964
 -14.0930184027037182 26.0371311936879657 28.1128704123049964
 45.0975394347540970 45.5649063596139996 28.1128704123049964
 23.9580968559486607 28.4780847820937346 28.1128704123049964
 29.5952364839886641 28.4780847820937346 28.1128704123049964
 -18.3209154636571903 33.3600651882452155 28.1128704123049964
 62.0091275566610349 30.9190383704995000 28.1128704123049964
 59.1905577426410403 30.9190383704995000 28.1128704123049964
 42.2789697426410385 30.9190383704995000 28.1128704123049964
 36.6417455566610357 30.9190383704995000 28.1128704123049964
 25.3673817426410437 30.9190383704995000 28.1128704123049964
 22.5488119286210420 30.9190383704995000 28.1128704123049964
 19.7301575566610410 30.9190383704995000 28.1128704123049964
 26.7766666699686624 28.4780847820937346 28.1128704123049964
 16.9115877426410464 30.9190383704995000 28.1128704123049964
 11.2743635566610401 30.9190383704995000 28.1128704123049964
 -0.0000002573589589 30.9190383704995000 28.1128704123049964
 -14.0930184433389574 30.9190383704995000 28.1128704123049964
 66.2370668559486688 28.4780847820937346 28.1128704123049964
 60.5998426699686590 28.4780847820937346 28.1128704123049964
 52.1440486699686616 28.4780847820937346 28.1128704123049964
 43.6882546699686571 28.4780847820937346 28.1128704123049964
 32.4138908559486651 28.4780847820937346 28.1128704123049964
 14.0930179286210446 30.9190383704995000 28.1128704123049964
 12.6836906004158720 48.0059331773597151 28.1128704123049964
 15.5022604144358738 48.0059331773597151 28.1128704123049964
 26.7766242284558658 48.0059331773597151 28.1128704123049964
 -1.4093277481063067 67.5337083432857384 28.1128704123049964
 -26.7767097481063061 67.5337083432857384 28.1128704123049964
 42.2789271792213057 65.0927547548799765 28.1128704123049964
 39.4603573652013111 65.0927547548799765 28.1128704123049964
 31.0045633652013137 65.0927547548799765 28.1128704123049964
  2.8186115511813119 65.0927547548799765 28.1128704123049964
 -2.8186126347986837 65.0927547548799765 28.1128704123049964
 -11.2744066347986838 65.0927547548799765 28.1128704123049964
  9.8651206238536986 67.5337083432857384 28.1128704123049964
 35.2324181065489270 62.6518011664742076 28.1128704123049964
 23.9580542925289315 62.6518011664742076 28.1128704123049964
  7.0464662925289359 62.6518011664742076 28.1128704123049964
 -12.6836915214910633 62.6518011664742076 28.1128704123049964
 -35.2325037074710679 62.6518011664742076 28.1128704123049964
 45.0975393128471538 60.2107743487284921 28.1128704123049964
 36.6417453128471564 60.2107743487284921 28.1128704123049964
 28.1859513128471555 60.2107743487284921 28.1128704123049964
 25.3673814988271609 60.2107743487284921 28.1128704123049964
 26.7766241065489261 62.6518011664742076 28.1128704123049964
  8.4557934988271644 60.2107743487284921 28.1128704123049964
 12.6836904378736932 67.5337083432857384 28.1128704123049964
 26.7767086238536862 67.5337083432857384 28.1128704123049964
  1.4092843042478451 72.4156887494372228 28.1128704123049964
 -1.4092855097721566 72.4156887494372228 28.1128704123049964
 -4.2279398817321576 72.4156887494372228 28.1128704123049964
 -7.0465096957521522 72.4156887494372228 28.1128704123049964
 -9.8650795097721549 72.4156887494372228 28.1128704123049964
 -32.4138916957521559 72.4156887494372228 28.1128704123049964
 42.2789694175554729 69.9747351610314468 28.1128704123049964
 33.8231754175554755 69.9747351610314468 28.1128704123049964
 23.9580542518936852 67.5337083432857384 28.1128704123049964
 31.0045210455954674 69.9747351610314468 28.1128704123049964
 19.7301572315754683 69.9747351610314468 28.1128704123049964
 14.0929330455954638 69.9747351610314468 28.1128704123049964
 11.2743632315754621 69.9747351610314468 28.1128704123049964
 -0.0000005824445366 69.9747351610314468 28.1128704123049964
 -5.6372247684245327 69.9747351610314468 28.1128704123049964
 -11.2744489544045354 69.9747351610314468 28.1128704123049964
 -16.9115885824445336 69.9747351610314468 28.1128704123049964
 -19.7302429544045346 69.9747351610314468 28.1128704123049964
 25.3673814175554639 69.9747351610314468 28.1128704123049964
 62.0091699169021311 21.1551507875364884 28.1128704123049964
 -5.6372246871528393 60.2107743487284921 28.1128704123049964
 -22.5488126871528358 60.2107743487284921 28.1128704123049964
 -15.5022612542393716 52.8878403541712458 28.1128704123049964
 -18.3209156261993691 52.8878403541712458 28.1128704123049964
 -29.5952794402193682 52.8878403541712458 28.1128704123049964
 47.9161514871082517 50.4468867657654769 28.1128704123049964
 42.2789273011282489 50.4468867657654769 28.1128704123049964
 33.8231333011282445 50.4468867657654769 28.1128704123049964
 28.1859936730882552 50.4468867657654769 28.1128704123049964
 25.3673393011282471 50.4468867657654769 28.1128704123049964
 -9.8651216261993682 52.8878403541712458 28.1128704123049964
 19.7301996730882578 50.4468867657654769 28.1128704123049964
 14.0929754871082551 50.4468867657654769 28.1128704123049964
 11.2744056730882534 50.4468867657654769 28.1128704123049964
  5.6371814871082586 50.4468867657654769 28.1128704123049964
 -0.0000426988717480 50.4468867657654769 28.1128704123049964
 -5.6371823269117440 50.4468867657654769 28.1128704123049964
 -25.3674246988717442 50.4468867657654769 28.1128704123049964
 49.3254364144358703 48.0059331773597151 28.1128704123049964
 43.6882122284558676 48.0059331773597151 28.1128704123049964
 16.9115453011282568 50.4468867657654769 28.1128704123049964
 -19.7301583151928384 60.2107743487284921 28.1128704123049964
 23.9580543738006249 52.8878403541712458 28.1128704123049964
 -25.3673824605375984 55.3288671719169614 28.1128704123049964
 -28.1859523151928357 60.2107743487284921 28.1128704123049964
 46.5068242401747796 57.7698207603227232 28.1128704123049964
 43.6882544261547849 57.7698207603227232 28.1128704123049964
 38.0510302401747822 57.7698207603227232 28.1128704123049964
 26.7766664261547831 57.7698207603227232 28.1128704123049964
  7.0465086121347857 57.7698207603227232 28.1128704123049964
 -1.4092853878652121 57.7698207603227232 28.1128704123049964
 50.7347635394624064 55.3288671719169614 28.1128704123049964
 49.3254363738006276 52.8878403541712458 28.1128704123049964
 45.0975393534824036 55.3288671719169614 28.1128704123049964
 25.3673815394624036 55.3288671719169614 28.1128704123049964
 22.5487271675023955 55.3288671719169614 28.1128704123049964
 19.7301573534824009 55.3288671719169614 28.1128704123049964
 16.9115875394624062 55.3288671719169614 28.1128704123049964
 11.2743633534824053 55.3288671719169614 28.1128704123049964
 -2.8186548324975988 55.3288671719169614 28.1128704123049964
 -8.4557944605375948 55.3288671719169614 28.1128704123049964
 -16.9115884605376010 55.3288671719169614 28.1128704123049964
 39.4603151675024009 55.3288671719169614 28.1128704123049964
 59.1905155449421230 21.1551507875364884 28.1128704123049964
 -1.4093275042924258 38.2419723650567462 28.1128704123049964
  4.2278969255014500  8.9502363868277595 28.1128704123049964
 70.4649217192032182 11.3912632045734714 28.1128704123049964
 50.7347638645479790 16.2731703813850075 28.1128704123049964
 64.8276975332232155 11.3912632045734714 28.1128704123049964
 62.0091277192032209 11.3912632045734714 28.1128704123049964
 29.5952789661366928  4.0683292100162243 28.1128704123049964
 73.2835338528290663  6.5092827984219914 28.1128704123049964
 -9.8651213417502497 18.7141971991307194 28.1128704123049964
 18.3208305941766909  4.0683292100162243 28.1128704123049964
 53.5533337192032164 11.3912632045734714 28.1128704123049964
 -1.4093272604785494  8.9502363868277595 28.1128704123049964
 36.6417457192032217 11.3912632045734714 28.1128704123049964
 15.5022606582497549 18.7141971991307194 28.1128704123049964
  9.8651211114814483  8.9502363868277595 28.1128704123049964
 -1.4093272198433096  4.0683292100162243 28.1128704123049964
 81.7393701724349171  1.6273023922705114 28.1128704123049964
 31.0045215332232189 11.3912632045734714 28.1128704123049964
 12.6836909255014501  8.9502363868277595 28.1128704123049964
 42.2789698645479817 16.2731703813850075 28.1128704123049964
 62.0091700388090601  6.5092827984219914 28.1128704123049964
 31.0046060505279790 16.2731703813850075 28.1128704123049964
 56.3719458528290644  6.5092827984219914 28.1128704123049964
 38.0510306058956047 13.8322167929792403 28.1128704123049964
 11.2744060388090670  6.5092827984219914 28.1128704123049964
 22.5487698528290750  6.5092827984219914 28.1128704123049964
 28.1859940388090742  6.5092827984219914 28.1128704123049964
 36.6417880388090680  6.5092827984219914 28.1128704123049964
 57.7812729778555934 13.8322167929792403 28.1128704123049964
 26.7766667918756056 13.8322167929792403 28.1128704123049964
 -2.8186121471709296  6.5092827984219914 28.1128704123049964
 35.2324184722697566 18.7141971991307194 28.1128704123049964
 74.6928609778556023 13.8322167929792403 28.1128704123049964
 74.6928187801566850  4.0683292100162243 28.1128704123049964
 15.5023029778556030 13.8322167929792403 28.1128704123049964
 12.6836486058956019 13.8322167929792403 28.1128704123049964
 -2.8185699494720202 16.2731703813850075 28.1128704123049964
  9.8650787918756002 13.8322167929792403 28.1128704123049964
  7.0465089778555976 13.8322167929792403 28.1128704123049964
 11.2743636785679815 16.2731703813850075 28.1128704123049964
  1.4092847918756004 13.8322167929792403 28.1128704123049964
 18.3208727918756047 13.8322167929792403 28.1128704123049964
 43.6882124722697469 18.7141971991307194 28.1128704123049964
 14.0929758528290687  6.5092827984219914 28.1128704123049964
  8.4557939051832172 11.3912632045734714 28.1128704123049964
 77.5114731114814504  8.9502363868277595 28.1128704123049964
 45.0975398004749266  1.6273023922705114 28.1128704123049964
 21.1394849255014528  8.9502363868277595 28.1128704123049964
  8.4557939864549194  1.6273023922705114 28.1128704123049964
 23.9580547395214474  8.9502363868277595 28.1128704123049964
 50.7347639864549222  1.6273023922705114 28.1128704123049964
 29.5952789255014537  8.9502363868277595 28.1128704123049964
 28.1859939169021310 21.1551507875364884 28.1128704123049964
 11.2743637192032189 11.3912632045734714 28.1128704123049964
 57.7812307395214404  8.9502363868277595 28.1128704123049964
 -0.0000424550578693 21.1551507875364884 28.1128704123049964
 69.0555944722697461 18.7141971991307194 28.1128704123049964
 36.6417879169021319 21.1551507875364884 28.1128704123049964
 42.2789699864549249  1.6273023922705114 28.1128704123049964
 63.4184549255014502  8.9502363868277595 28.1128704123049964
 19.7301578004749203  1.6273023922705114 28.1128704123049964
 59.1905579864549196  1.6273023922705114 28.1128704123049964
 57.7812306582497541 18.7141971991307194 28.1128704123049964
 14.0930181724349168  1.6273023922705114 28.1128704123049964
 54.9626609255014458  8.9502363868277595 28.1128704123049964
  2.8185693399373224 56.9561695641874692 28.6327538495249954
  5.6372237118973310 56.9561695641874692 28.6327538495249954
 52.1440911385716035  5.6956316022867357 28.6327538495249954
 -11.2743642881026744 56.9561695641874692 28.6327538495249954
 45.0975820252639821  8.1365851906925037 28.6327538495249954
 42.2790122112439946  8.1365851906925037 28.6327538495249954
 -14.0930186600626755 56.9561695641874692 28.6327538495249954
 -19.7301582881026789 56.9561695641874692 28.6327538495249954
 -25.3673824740826745 56.9561695641874692 28.6327538495249954
 -28.1859522881026763 56.9561695641874692 28.6327538495249954
 -5.6372246600626781 56.9561695641874692 28.6327538495249954
 23.9580544008907985 49.6332355696302230 28.6327538495249954
  8.4558358455231772 52.0741891580359919 28.6327538495249954
 21.1394845868707826 49.6332355696302230 28.6327538495249954
  4.2278965868707896 49.6332355696302230 28.6327538495249954
 -12.6836492154302967 59.3971231525932382 28.6327538495249954
  7.0464664008907913 49.6332355696302230 28.6327538495249954
 23.9580547666116068  5.6956316022867357 28.6327538495249954
 -29.5952372154302985 59.3971231525932382 28.6327538495249954
 47.9161937118973214 56.9561695641874692 28.6327538495249954
 35.2325031385716159  5.6956316022867357 28.6327538495249954
 46.5068669525916008  5.6956316022867357 28.6327538495249954
  9.8651207728507995 49.6332355696302230 28.6327538495249954
 38.0510729525916105  5.6956316022867357 28.6327538495249954
 59.1906002112439964  8.1365851906925037 28.6327538495249954
 33.8231755259173212 56.9561695641874692 28.6327538495249954
 31.0046057118973302 56.9561695641874692 28.6327538495249954
 28.1859513399373292 56.9561695641874692 28.6327538495249954
 -31.0046066600626737 56.9561695641874692 28.6327538495249954
 50.7348062112439848  8.1365851906925037 28.6327538495249954
 42.2789695259173328 56.9561695641874692 28.6327538495249954
 43.6882971385716132  5.6956316022867357 28.6327538495249954
 38.0510725868707951 49.6332355696302230 28.6327538495249954
 43.6882967322155622 54.5151427464417537 28.6327538495249954
 -23.9580552677844487 54.5151427464417537 28.6327538495249954
  8.4558362112439873  8.1365851906925037 28.6327538495249954
 53.5533756595431782 52.0741891580359919 28.6327538495249954
 50.7348058455231694 52.0741891580359919 28.6327538495249954
 16.9116302112439918  8.1365851906925037 28.6327538495249954
 -5.6371823404568273 52.0741891580359919 28.6327538495249954
  0.0000418455231652 52.0741891580359919 28.6327538495249954
 47.9161514735631755 52.0741891580359919 28.6327538495249954
 45.0975816595431809 52.0741891580359919 28.6327538495249954
 39.4603574735631781 52.0741891580359919 28.6327538495249954
 36.6417876595431693 52.0741891580359919 28.6327538495249954
 31.0045634735631737 52.0741891580359919 28.6327538495249954
  2.8186116595431669 52.0741891580359919 28.6327538495249954
 22.5487694735631763 52.0741891580359919 28.6327538495249954
 19.7301996595431604 52.0741891580359919 28.6327538495249954
 16.9116298455231728 52.0741891580359919 28.6327538495249954
 14.0929754735631594 52.0741891580359919 28.6327538495249954
 -21.1394854537644470 54.5151427464417537 28.6327538495249954
 57.7812307666116141  5.6956316022867357 28.6327538495249954
  5.6371818392839907  8.1365851906925037 28.6327538495249954
 -7.0464672677844442 54.5151427464417537 28.6327538495249954
 40.8697269181955534 54.5151427464417537 28.6327538495249954
 39.4603578392839793  8.1365851906925037 28.6327538495249954
  5.6371814735631682 52.0741891580359919 28.6327538495249954
 35.2325027322155506 54.5151427464417537 28.6327538495249954
 29.5952785462355585 54.5151427464417537 28.6327538495249954
 26.7767087322155568 54.5151427464417537 28.6327538495249954
 33.8232182112439972  8.1365851906925037 28.6327538495249954
 66.2370247666116256  5.6956316022867357 28.6327538495249954
 49.3254364008908013 49.6332355696302230 28.6327538495249954
 69.0556791385716195  5.6956316022867357 28.6327538495249954
 25.3674242112439856  8.1365851906925037 28.6327538495249954
 71.8742489525916284  5.6956316022867357 28.6327538495249954
 -25.3673401544768282 52.0741891580359919 28.6327538495249954
 77.5114731385716169  5.6956316022867357 28.6327538495249954
 -19.7302005264368283 52.0741891580359919 28.6327538495249954
  7.0465509181955595 54.5151427464417537 28.6327538495249954
  1.4093267322155492 54.5151427464417537 28.6327538495249954
 -9.8650794014102949 59.3971231525932382 28.6327538495249954
 43.6882970166646629 20.3414995914012344 28.6327538495249954
  4.2278969525916086  5.6956316022867357 28.6327538495249954
  1.4092844126096999 59.3971231525932382 28.6327538495249954
 15.5023447962886092 69.1610107355562462 28.6327538495249954
 54.9627032721974516  0.8136511961352557 28.6327538495249954
  7.0465507962886189 69.1610107355562462 28.6327538495249954
  4.2278964243286037 69.1610107355562462 28.6327538495249954
  1.4093266103086164 69.1610107355562462 28.6327538495249954
 60.5998429002374621  0.8136511961352557 28.6327538495249954
 66.2370670862174649  0.8136511961352557 28.6327538495249954
 71.8742912721974676  0.8136511961352557 28.6327538495249954
 74.6928610862174764  0.8136511961352557 28.6327538495249954
 80.3300852721974650  0.8136511961352557 28.6327538495249954
 -21.1394855756713831 69.1610107355562462 28.6327538495249954
 -32.4138493896913857 69.1610107355562462 28.6327538495249954
 -35.2324192037113804 69.1610107355562462 28.6327538495249954
 45.0975815376362448 66.7200571471504844 28.6327538495249954
 36.6417875376362474 66.7200571471504844 28.6327538495249954
 14.0929753516562410 66.7200571471504844 28.6327538495249954
  2.8186543448698407  3.2546047845410229 28.6327538495249954
  5.6372241588898389  3.2546047845410229 28.6327538495249954
  2.8186115376362340 66.7200571471504844 28.6327538495249954
 11.2744483448698372  3.2546047845410229 28.6327538495249954
 -5.6371824623637705 66.7200571471504844 28.6327538495249954
 -8.4557522763837714 66.7200571471504844 28.6327538495249954
 -14.0929764623637634 66.7200571471504844 28.6327538495249954
 18.3209146103086198 69.1610107355562462 28.6327538495249954
 -16.9115462763837670 66.7200571471504844 28.6327538495249954
 46.5069092721974613  0.8136511961352557 28.6327538495249954
 38.0510724243286234 69.1610107355562462 28.6327538495249954
 31.0046055899903834 71.6020375533019688 28.6327538495249954
 28.1859512180303895 71.6020375533019688 28.6327538495249954
 25.3673814040103807 71.6020375533019688 28.6327538495249954
 22.5488115899903860 71.6020375533019688 28.6327538495249954
 19.7301572180303850 71.6020375533019688 28.6327538495249954
 16.9115874040103833 71.6020375533019688 28.6327538495249954
 14.0930175899903762 71.6020375533019688 28.6327538495249954
 11.2743632180303894 71.6020375533019688 28.6327538495249954
  8.4557934040103735 71.6020375533019688 28.6327538495249954
  5.6372235899903860 71.6020375533019688 28.6327538495249954
  2.8185692180303707 71.6020375533019688 28.6327538495249954
 12.6837332721974576  0.8136511961352557 28.6327538495249954
 -2.8185704100096114 71.6020375533019688 28.6327538495249954
 21.1395272721974621  0.8136511961352557 28.6327538495249954
 -16.9115885959896168 71.6020375533019688 28.6327538495249954
 -19.7301584100096186 71.6020375533019688 28.6327538495249954
 -22.5488127819696196 71.6020375533019688 28.6327538495249954
 -25.3673825959896213 71.6020375533019688 28.6327538495249954
 -28.1859524100096195 71.6020375533019688 28.6327538495249954
 -31.0046067819696169 71.6020375533019688 28.6327538495249954
 23.9580970862174638  0.8136511961352557 28.6327538495249954
 -36.6417464100096169 71.6020375533019688 28.6327538495249954
 26.7766669002374584  0.8136511961352557 28.6327538495249954
 29.5952784243286260 69.1610107355562462 28.6327538495249954
 -7.0465095873903012 59.3971231525932382 28.6327538495249954
 -19.7302006483437680 66.7200571471504844 28.6327538495249954
 -31.0045644623637671 66.7200571471504844 28.6327538495249954
 16.9115874852820909 61.8380767409990000 28.6327538495249954
 14.0930176712620749 61.8380767409990000 28.6327538495249954
 11.2744478572420874 61.8380767409990000 28.6327538495249954
 67.6463519729098550  3.2546047845410229 28.6327538495249954
 -2.8185703287379194 61.8380767409990000 28.6327538495249954
 -5.6371401427579215 61.8380767409990000 28.6327538495249954
 -8.4557945147179190 61.8380767409990000 28.6327538495249954
 -16.9115885147179164 61.8380767409990000 28.6327538495249954
 -28.1859523287379155 61.8380767409990000 28.6327538495249954
 -33.8231765147179146 61.8380767409990000 28.6327538495249954
  1.4093271385716108  5.6956316022867357 28.6327538495249954
 40.8696845985897141 59.3971231525932382 28.6327538495249954
  1.4093267728507877 49.6332355696302230 28.6327538495249954
 32.4138905985897026 59.3971231525932382 28.6327538495249954
 29.5953207845697079 59.3971231525932382 28.6327538495249954
  7.0464667666116103  5.6956316022867357 28.6327538495249954
  9.8651211385716078  5.6956316022867357 28.6327538495249954
 23.9580965985897052 59.3971231525932382 28.6327538495249954
 21.1395267845696964 59.3971231525932382 28.6327538495249954
 18.3208724126097096 59.3971231525932382 28.6327538495249954
 15.5023025985896936 59.3971231525932382 28.6327538495249954
 12.6837327845697061 59.3971231525932382 28.6327538495249954
  4.2279387845697078 59.3971231525932382 28.6327538495249954
 62.0092123448698445  3.2546047845410229 28.6327538495249954
 14.0930181588898407  3.2546047845410229 28.6327538495249954
 53.5534183448698329  3.2546047845410229 28.6327538495249954
 47.9161941588898301  3.2546047845410229 28.6327538495249954
 -33.8231342763837688 66.7200571471504844 28.6327538495249954
 43.6882966509438617 64.2791035587447084 28.6327538495249954
 40.8696422789838678 64.2791035587447084 28.6327538495249954
 22.5488121588898416  3.2546047845410229 28.6327538495249954
 32.4138482789838704 64.2791035587447084 28.6327538495249954
 26.7767086509438528 64.2791035587447084 28.6327538495249954
 21.1394844649638500 64.2791035587447084 28.6327538495249954
 18.3209146509438554 64.2791035587447084 28.6327538495249954
 15.5022602789838597 64.2791035587447084 28.6327538495249954
 12.6836904649638509 64.2791035587447084 28.6327538495249954
 33.8231759729098371  3.2546047845410229 28.6327538495249954
 36.6418303448698452  3.2546047845410229 28.6327538495249954
 -7.0464673490561447 64.2791035587447084 28.6327538495249954
 39.4604001588898399  3.2546047845410229 28.6327538495249954
 -18.3209157210161457 64.2791035587447084 28.6327538495249954
 -21.1394855350361439 64.2791035587447084 28.6327538495249954
 -23.9580553490561456 64.2791035587447084 28.6327538495249954
 -29.5952795350361448 64.2791035587447084 28.6327538495249954
 -32.4138493490561430 64.2791035587447084 28.6327538495249954
 47.9161936712620928 61.8380767409990000 28.6327538495249954
 45.0976238572420840 61.8380767409990000 28.6327538495249954
 42.2789694852820901 61.8380767409990000 28.6327538495249954
 39.4603996712620955 61.8380767409990000 28.6327538495249954
 33.8231754852820927 61.8380767409990000 28.6327538495249954
 67.6463942112439867  8.1365851906925037 28.6327538495249954
 22.5488117931690120 47.1922087518845075 28.6327538495249954
 -7.0464672271492059 49.6332355696302230 28.6327538495249954
 35.2324607783305126 15.4595191852497500 28.6327538495249954
 46.5069091502905181 15.4595191852497500 28.6327538495249954
 60.5998427783305331 15.4595191852497500 28.6327538495249954
 63.4184971502905270 15.4595191852497500 28.6327538495249954
 66.2370669643105288 15.4595191852497500 28.6327538495249954
 -4.2278549716164209 30.1053871743642461 28.6327538495249954
 -7.0465093435764183 30.1053871743642461 28.6327538495249954
 69.0556367783305234 15.4595191852497500 28.6327538495249954
 -15.5023033435764184 30.1053871743642461 28.6327538495249954
 71.8742911502905173 15.4595191852497500 28.6327538495249954
 32.4138908424035748 30.1053871743642461 28.6327538495249954
 -8.4557941489970982 17.9004727736555189 28.6327538495249954
 -5.6371397770370981 17.9004727736555189 28.6327538495249954
 36.6417455837512094 27.6644335859584807 28.6327538495249954
 -0.0000001489970986 17.9004727736555189 28.6327538495249954
  2.8186542229628988 17.9004727736555189 28.6327538495249954
  5.6372240369829028 17.9004727736555189 28.6327538495249954
  8.4557938510029000 17.9004727736555189 28.6327538495249954
 19.7301575837512004 27.6644335859584807 28.6327538495249954
 16.9115877697311987 27.6644335859584807 28.6327538495249954
 14.0930179557111952 27.6644335859584807 28.6327538495249954
 14.0930180369829028 17.9004727736555189 28.6327538495249954
 47.9161939557112078 27.6644335859584807 28.6327538495249954
 32.4138909643105251 15.4595191852497500 28.6327538495249954
 38.0511150283835775 30.1053871743642461 28.6327538495249954
 43.6882546564235881 30.1053871743642461 28.6327538495249954
 -15.5022611052422672 34.9873675805157234 28.6327538495249954
 -18.3209154772022664 34.9873675805157234 28.6327538495249954
 64.8277819150759740 32.5463407627700150 28.6327538495249954
 59.1905577290959641 32.5463407627700150 28.6327538495249954
 76.1021458916381448 13.0185655968439828 28.6327538495249954
 50.7347637290959668 32.5463407627700150 28.6327538495249954
 47.9161939150759579 32.5463407627700150 28.6327538495249954
 -7.0465092216694787 15.4595191852497500 28.6327538495249954
 -4.2278548497094786 15.4595191852497500 28.6327538495249954
 36.6418301010559517 32.5463407627700150 28.6327538495249954
 33.8231757290959649 32.5463407627700150 28.6327538495249954
 28.1860361010559650 32.5463407627700150 28.6327538495249954
  4.2279391502905188 15.4595191852497500 28.6327538495249954
  8.4557937290959586 32.5463407627700150 28.6327538495249954
  2.8186541010559618 32.5463407627700150 28.6327538495249954
 -5.6371398989440404 32.5463407627700150 28.6327538495249954
 12.6837331502905215 15.4595191852497500 28.6327538495249954
 -14.0929338989440378 32.5463407627700150 28.6327538495249954
 18.3208727783305179 15.4595191852497500 28.6327538495249954
 63.4184970283835838 30.1053871743642461 28.6327538495249954
 21.1395271502905153 15.4595191852497500 28.6327538495249954
 29.5953211502905269 15.4595191852497500 28.6327538495249954
 46.5069090283835891 30.1053871743642461 28.6327538495249954
  8.4557937697312031 27.6644335859584807 28.6327538495249954
  5.6372239557112023 27.6644335859584807 28.6327538495249954
 -2.8185700442888009 27.6644335859584807 28.6327538495249954
 -5.6372244162487979 27.6644335859584807 28.6327538495249954
  4.2278968306846716 20.3414995914012344 28.6327538495249954
 39.4603577173770574 22.7824531798069998 28.6327538495249954
 33.8232180893370540 22.7824531798069998 28.6327538495249954
 31.0045637173770388 22.7824531798069998 28.6327538495249954
  9.8651210166646699 20.3414995914012344 28.6327538495249954
 23.9580546447046672 20.3414995914012344 28.6327538495249954
 22.5487697173770485 22.7824531798069998 28.6327538495249954
 19.7301999033570468 22.7824531798069998 28.6327538495249954
 16.9116300893370450 22.7824531798069998 28.6327538495249954
 14.0929757173770476 22.7824531798069998 28.6327538495249954
 11.2744059033570529 22.7824531798069998 28.6327538495249954
  5.6371817173770493 22.7824531798069998 28.6327538495249954
  2.8186119033570516 22.7824531798069998 28.6327538495249954
 26.7767090166646753 20.3414995914012344 28.6327538495249954
 -2.8186122826229494 22.7824531798069998 28.6327538495249954
 -11.2744062826229499 22.7824531798069998 28.6327538495249954
 69.0556790166646692 20.3414995914012344 28.6327538495249954
 66.2370246447046753 20.3414995914012344 28.6327538495249954
 63.4184548306846807 20.3414995914012344 28.6327538495249954
 32.4138486447046574 20.3414995914012344 28.6327538495249954
 54.9626608306846691 20.3414995914012344 28.6327538495249954
 49.3254366447046735 20.3414995914012344 28.6327538495249954
 46.5068668306846718 20.3414995914012344 28.6327538495249954
 45.0975819033570531 22.7824531798069998 28.6327538495249954
 59.1905578916381430 13.0185655968439828 28.6327538495249954
 47.9161517173770548 22.7824531798069998 28.6327538495249954
 53.5533759033570504 22.7824531798069998 28.6327538495249954
 -8.4557942302688005 27.6644335859584807 28.6327538495249954
 16.9115878510028992 17.9004727736555189 28.6327538495249954
 60.5998849760294434 25.2234067682127652 28.6327538495249954
 22.5488120369828984 17.9004727736555189 28.6327538495249954
 54.9626607900494406 25.2234067682127652 28.6327538495249954
 25.3673818510029001 17.9004727736555189 28.6327538495249954
 52.1440909760294318 25.2234067682127652 28.6327538495249954
 49.3255211620094371 25.2234067682127652 28.6327538495249954
 38.0510727900494388 25.2234067682127652 28.6327538495249954
 35.2325029760294228 25.2234067682127652 28.6327538495249954
 32.4139331620094353 25.2234067682127652 28.6327538495249954
 29.5952787900494201 25.2234067682127652 28.6327538495249954
 21.1394847900494298 25.2234067682127652 28.6327538495249954
 47.9161940369829011 17.9004727736555189 28.6327538495249954
 12.6836907900494289 25.2234067682127652 28.6327538495249954
 62.0092122229629013 17.9004727736555189 28.6327538495249954
  4.2278967900494315 25.2234067682127652 28.6327538495249954
 -4.2278972099505676 25.2234067682127652 28.6327538495249954
 -7.0464670239705693 25.2234067682127652 28.6327538495249954
 67.6463518510029047 17.9004727736555189 28.6327538495249954
 70.4649639033570594 22.7824531798069998 28.6327538495249954
 67.6463940893370506 22.7824531798069998 28.6327538495249954
 70.4650062229628986 17.9004727736555189 28.6327538495249954
 50.7348060893370558 22.7824531798069998 28.6327538495249954
 73.2835338392839901  8.1365851906925037 28.6327538495249954
  1.4093268947577322 34.9873675805157234 28.6327538495249954
  7.0464665227977319 34.9873675805157234 28.6327538495249954
 21.1394849119563659 10.5775387790982709 28.6327538495249954
 40.8696847204966431 44.7512551634787386 28.6327538495249954
 38.0511149064766485 44.7512551634787386 28.6327538495249954
 35.2324605345166475 44.7512551634787386 28.6327538495249954
 23.9581392839163634 10.5775387790982709 28.6327538495249954
 29.5953209064766369 44.7512551634787386 28.6327538495249954
 26.7766665345166501 44.7512551634787386 28.6327538495249954
 26.7767090979363651 10.5775387790982709 28.6327538495249954
 12.6837329064766493 44.7512551634787386 28.6327538495249954
  7.0465087204966403 44.7512551634787386 28.6327538495249954
 57.7812727204966521 44.7512551634787386 28.6327538495249954
  4.2279389064766386 44.7512551634787386 28.6327538495249954
 -15.5023034654833562 44.7512551634787386 28.6327538495249954
 -23.9580974654833554 44.7512551634787386 28.6327538495249954
 43.6882970979363634 10.5775387790982709 28.6327538495249954
 59.1905576478242708 42.3103015750729767 28.6327538495249954
 56.3719878338042619 42.3103015750729767 28.6327538495249954
 46.5068669119563793 10.5775387790982709 28.6327538495249954
 49.3255212839163661 10.5775387790982709 28.6327538495249954
 50.7347636478242734 42.3103015750729767 28.6327538495249954
 39.4603998338042672 42.3103015750729767 28.6327538495249954
 36.6417454618442662 42.3103015750729767 28.6327538495249954
 -12.6836490935233588 44.7512551634787386 28.6327538495249954
 -22.5487280208509766 47.1922087518845075 28.6327538495249954
 -16.9115883928109767 47.1922087518845075 28.6327538495249954
 -14.0929340208509810 47.1922087518845075 28.6327538495249954
 -9.8651215991092069 49.6332355696302230 28.6327538495249954
 -12.6836914131292051 49.6332355696302230 28.6327538495249954
 -15.5022612271492086 49.6332355696302230 28.6327538495249954
 -18.3209155991092061 49.6332355696302230 28.6327538495249954
 -23.9580552271492060 49.6332355696302230 28.6327538495249954
 56.3719877931690334 47.1922087518845075 28.6327538495249954
 53.5534179791490246 47.1922087518845075 28.6327538495249954
 -4.2278970880436288 10.5775387790982709 28.6327538495249954
 47.9161937931690360 47.1922087518845075 28.6327538495249954
  4.2278969119563712 10.5775387790982709 28.6327538495249954
 39.4603997931690245 47.1922087518845075 28.6327538495249954
 33.8231756071890288 47.1922087518845075 28.6327538495249954
 38.0510728306846602 20.3414995914012344 28.6327538495249954
 16.9115876071890092 47.1922087518845075 28.6327538495249954
 18.3209150979363713 10.5775387790982709 28.6327538495249954
 11.2744479791490271 47.1922087518845075 28.6327538495249954
  8.4557936071890190 47.1922087518845075 28.6327538495249954
  5.6372237931690181 47.1922087518845075 28.6327538495249954
  2.8186539791490159 47.1922087518845075 28.6327538495249954
 -0.0000003928109814 47.1922087518845075 28.6327538495249954
 -2.8185702068309761 47.1922087518845075 28.6327538495249954
 -5.6371400208509774 47.1922087518845075 28.6327538495249954
 -8.4557943928109793 47.1922087518845075 28.6327538495249954
 33.8231756478242644 42.3103015750729767 28.6327538495249954
 31.0046058338042556 42.3103015750729767 28.6327538495249954
 60.5998850979363723 10.5775387790982709 28.6327538495249954
 19.7301574618442501 42.3103015750729767 28.6327538495249954
 16.9116299674301196 37.4283211689214923 28.6327538495249954
 14.0929755954701115 37.4283211689214923 28.6327538495249954
  8.4558359674301080 37.4283211689214923 28.6327538495249954
  5.6371815954701097 37.4283211689214923 28.6327538495249954
  2.8186117814501150 37.4283211689214923 28.6327538495249954
 36.6417452180303869 71.6020375533019688 28.6327538495249954
 -5.6371822185498859 37.4283211689214923 28.6327538495249954
 -8.4557520325698885 37.4283211689214923 28.6327538495249954
 -14.0929762185498877 37.4283211689214923 28.6327538495249954
 63.4184547087777446 34.9873675805157234 28.6327538495249954
 33.8231758916381438 13.0185655968439828 28.6327538495249954
 60.5998848947577358 34.9873675805157234 28.6327538495249954
 54.9626607087777472 34.9873675805157234 28.6327538495249954
 42.2789698916381340 13.0185655968439828 28.6327538495249954
 46.5068667087777357 34.9873675805157234 28.6327538495249954
 43.6882968947577410 34.9873675805157234 28.6327538495249954
 38.0510727087777383 34.9873675805157234 28.6327538495249954
 45.0975397056581500 13.0185655968439828 28.6327538495249954
 50.7347638916381456 13.0185655968439828 28.6327538495249954
 21.1394847087777364 34.9873675805157234 28.6327538495249954
 56.3719880776181483 13.0185655968439828 28.6327538495249954
 18.3209148947577418 34.9873675805157234 28.6327538495249954
 12.6836907087777320 34.9873675805157234 28.6327538495249954
 19.7301997814501142 37.4283211689214923 28.6327538495249954
  4.2278967087777302 34.9873675805157234 28.6327538495249954
 25.3674239674301170 37.4283211689214923 28.6327538495249954
 25.3673818916381357 13.0185655968439828 28.6327538495249954
  5.6372238338042564 42.3103015750729767 28.6327538495249954
 -2.8185701661957374 42.3103015750729767 28.6327538495249954
 74.6929032839163654 10.5775387790982709 28.6327538495249954
 -22.5488125381557367 42.3103015750729767 28.6327538495249954
 77.5114730979363742 10.5775387790982709 28.6327538495249954
 54.9626606681424974 39.8692747573272612 28.6327538495249954
 -5.6372242943418591 13.0185655968439828 28.6327538495249954
 49.3255210401024939 39.8692747573272612 28.6327538495249954
 46.5068666681425000 39.8692747573272612 28.6327538495249954
 -2.8185699223818586 13.0185655968439828 28.6327538495249954
 35.2325028541224938 39.8692747573272612 28.6327538495249954
 29.5952786681424982 39.8692747573272612 28.6327538495249954
 23.9581390401024947 39.8692747573272612 28.6327538495249954
 21.1394846681424795 39.8692747573272612 28.6327538495249954
 18.3209148541224920 39.8692747573272612 28.6327538495249954
  1.4093268541224926 39.8692747573272612 28.6327538495249954
 -4.2278973318575099 39.8692747573272612 28.6327538495249954
 -7.0464671458775081 39.8692747573272612 28.6327538495249954
 -9.8650369598975125 39.8692747573272612 28.6327538495249954
 11.2743637056581409 13.0185655968439828 28.6327538495249954
 -21.1394853318575109 39.8692747573272612 28.6327538495249954
 53.5533757814501215 37.4283211689214923 28.6327538495249954
 22.5488120776181340 13.0185655968439828 28.6327538495249954
 28.1859517056581375 13.0185655968439828 28.6327538495249954
 42.2789694040103896 71.6020375533019688 28.6327538495249954
