 H  O 
 1.0000000000000000
    84.5579400000000021    0.0000000000000000    0.0000000000000000
   -42.2789706095346958   73.2293399455724767    0.0000000000000000
     0.0000000000000000    0.0000000000000000   46.9039550000000034
 H   O  
 226 301
Cartesian
  8.4557939864549194  1.6273023922705114 28.1128704123049964
 -25.3673823792659014 45.5649063596139996 28.1128704123049964
 29.5952363620817174 43.1239527712082307 28.1128704123049964
 26.7766665480617228 43.1239527712082307 28.1128704123049964
 21.1394423620817271 43.1239527712082307 28.1128704123049964
 15.5023027340417219 43.1239527712082307 28.1128704123049964
  1.4092845480617260 43.1239527712082307 28.1128704123049964
 -23.9580974519382757 43.1239527712082307 28.1128704123049964
 42.2789696613693309 40.6829991828024689 28.1128704123049964
 39.4603152894093299 40.6829991828024689 28.1128704123049964
 31.0045212894093325 40.6829991828024689 28.1128704123049964
 -2.8186547105906588 40.6829991828024689 28.1128704123049964
 -8.4557943386306622 40.6829991828024689 28.1128704123049964
 60.5998848676675763 38.2419723650567462 28.1128704123049964
 57.7812304957075682 38.2419723650567462 28.1128704123049964
 40.8696424957075664 38.2419723650567462 28.1128704123049964
 -8.4557943792659014 45.5649063596139996 28.1128704123049964
 -5.6372245652458988 45.5649063596139996 28.1128704123049964
 14.0930178067140996 45.5649063596139996 28.1128704123049964
 16.9115876207341032 45.5649063596139996 28.1128704123049964
 46.5068666004158757 48.0059331773597151 28.1128704123049964
 29.5952786004158739 48.0059331773597151 28.1128704123049964
 21.1394846004158765 48.0059331773597151 28.1128704123049964
 15.5022604144358738 48.0059331773597151 28.1128704123049964
 12.6836906004158720 48.0059331773597151 28.1128704123049964
  9.8650362284558710 48.0059331773597151 28.1128704123049964
  1.4092422284558699 48.0059331773597151 28.1128704123049964
 18.3209148676675753 38.2419723650567462 28.1128704123049964
 -7.0465517715441273 48.0059331773597151 28.1128704123049964
 -15.5023457715441282 48.0059331773597151 28.1128704123049964
 -21.1394853995841281 48.0059331773597151 28.1128704123049964
 56.3719878067141025 45.5649063596139996 28.1128704123049964
 45.0975394347540970 45.5649063596139996 28.1128704123049964
 33.8231756207340979 45.5649063596139996 28.1128704123049964
 28.1859514347540951 45.5649063596139996 28.1128704123049964
 25.3673816207341005 45.5649063596139996 28.1128704123049964
 -9.8651215855641290 48.0059331773597151 28.1128704123049964
 -4.2278973183124275 38.2419723650567462 28.1128704123049964
 -9.8651215042924267 38.2419723650567462 28.1128704123049964
 -15.5022611323324266 38.2419723650567462 28.1128704123049964
 54.9626184839886562 28.4780847820937346 28.1128704123049964
 52.1440486699686616 28.4780847820937346 28.1128704123049964
 43.6882546699686571 28.4780847820937346 28.1128704123049964
 35.2324606699686598 28.4780847820937346 28.1128704123049964
 26.7766666699686624 28.4780847820937346 28.1128704123049964
  7.0465088559486642 28.4780847820937346 28.1128704123049964
 -9.8650791440513395 28.4780847820937346 28.1128704123049964
 66.2370668559486688 28.4780847820937346 28.1128704123049964
 62.0091275972962777 26.0371311936879657 28.1128704123049964
 25.3673817832762829 26.0371311936879657 28.1128704123049964
 -2.8186545886837178 26.0371311936879657 28.1128704123049964
 66.2370246176145088 23.5961043759422537 28.1128704123049964
 57.7812306176145043 23.5961043759422537 28.1128704123049964
 49.3254366176144998 23.5961043759422537 28.1128704123049964
 38.0510728035945078 23.5961043759422537 28.1128704123049964
 35.2325029895745132 23.5961043759422537 28.1128704123049964
 28.1859515972962846 26.0371311936879657 28.1128704123049964
 54.9626606004158731 48.0059331773597151 28.1128704123049964
  8.4557937426410454 30.9190383704995000 28.1128704123049964
 47.9161939286210341 30.9190383704995000 28.1128704123049964
 53.5533757949951976 35.8010187766509844 28.1128704123049964
 39.4603576090151904 35.8010187766509844 28.1128704123049964
 31.0045636090151895 35.8010187766509844 28.1128704123049964
 19.7301997949951904 35.8010187766509844 28.1128704123049964
  8.4557514230351885 35.8010187766509844 28.1128704123049964
  2.8186117949951930 35.8010187766509844 28.1128704123049964
 -14.0929762050048097 35.8010187766509844 28.1128704123049964
 22.5488119286210420 30.9190383704995000 28.1128704123049964
 -16.9116305769648072 35.8010187766509844 28.1128704123049964
 54.9626607223228163 33.3600651882452155 28.1128704123049964
 21.1394847223228126 33.3600651882452155 28.1128704123049964
  7.0464665363428152 33.3600651882452155 28.1128704123049964
 -7.0465516496371885 33.3600651882452155 28.1128704123049964
 62.0091275566610349 30.9190383704995000 28.1128704123049964
 59.1905577426410403 30.9190383704995000 28.1128704123049964
 56.3719879286210457 30.9190383704995000 28.1128704123049964
 63.4184547223228137 33.3600651882452155 28.1128704123049964
 29.5952788035945140 23.5961043759422537 28.1128704123049964
 -8.4558366988717459 50.4468867657654769 28.1128704123049964
 31.0045634871082498 50.4468867657654769 28.1128704123049964
 -1.4093277481063067 67.5337083432857384 28.1128704123049964
 -12.6836915621263024 67.5337083432857384 28.1128704123049964
 -38.0510735621263052 67.5337083432857384 28.1128704123049964
 28.1859935511813049 65.0927547548799765 28.1128704123049964
 25.3673391792213039 65.0927547548799765 28.1128704123049964
  8.4557511792213162 65.0927547548799765 28.1128704123049964
  5.6371813652013136 65.0927547548799765 28.1128704123049964
  2.8186115511813119 65.0927547548799765 28.1128704123049964
 -0.0000428207786890 65.0927547548799765 28.1128704123049964
 -5.6371824488186855 65.0927547548799765 28.1128704123049964
 -8.4558368207786891 65.0927547548799765 28.1128704123049964
 -19.7302006347986882 65.0927547548799765 28.1128704123049964
 46.5068664785089325 62.6518011664742076 28.1128704123049964
 40.8696422925289298 62.6518011664742076 28.1128704123049964
 38.0510724785089351 62.6518011664742076 28.1128704123049964
  4.2278964378736958 67.5337083432857384 28.1128704123049964
 21.1394844378736906 67.5337083432857384 28.1128704123049964
 26.7767086238536862 67.5337083432857384 28.1128704123049964
 35.2325026238536978 67.5337083432857384 28.1128704123049964
 21.1394421182678336 72.4156887494372228 28.1128704123049964
  9.8650783042478416 72.4156887494372228 28.1128704123049964
 -1.4092855097721566 72.4156887494372228 28.1128704123049964
 -7.0465096957521522 72.4156887494372228 28.1128704123049964
 -12.6837338817321594 72.4156887494372228 28.1128704123049964
 -15.5023036957521541 72.4156887494372228 28.1128704123049964
 -21.1395278817321568 72.4156887494372228 28.1128704123049964
 32.4138482925289324 62.6518011664742076 28.1128704123049964
 -32.4138916957521559 72.4156887494372228 28.1128704123049964
 31.0045210455954674 69.9747351610314468 28.1128704123049964
  8.4557934175554603 69.9747351610314468 28.1128704123049964
 -8.4557945824445344 69.9747351610314468 28.1128704123049964
 -19.7302429544045346 69.9747351610314468 28.1128704123049964
 -22.5488127684245363 69.9747351610314468 28.1128704123049964
 -31.0046067684245337 69.9747351610314468 28.1128704123049964
 -33.8231765824445318 69.9747351610314468 28.1128704123049964
 39.4603150455954648 69.9747351610314468 28.1128704123049964
 12.6836904785089395 62.6518011664742076 28.1128704123049964
  7.0464662925289359 62.6518011664742076 28.1128704123049964
 -4.2278975214910632 62.6518011664742076 28.1128704123049964
 14.0929331675024070 55.3288671719169614 28.1128704123049964
 -2.8186548324975988 55.3288671719169614 28.1128704123049964
 -8.4557944605375948 55.3288671719169614 28.1128704123049964
 -28.1860368324975958 55.3288671719169614 28.1128704123049964
 52.1440907457606357 52.8878403541712458 28.1128704123049964
 43.6882967457606384 52.8878403541712458 28.1128704123049964
 32.4138483738006258 52.8878403541712458 28.1128704123049964
 22.5487271675023955 55.3288671719169614 28.1128704123049964
 29.5952785597806276 52.8878403541712458 28.1128704123049964
 23.9580543738006249 52.8878403541712458 28.1128704123049964
 21.1394845597806302 52.8878403541712458 28.1128704123049964
  9.8651207457606311 52.8878403541712458 28.1128704123049964
  7.0464663738006301 52.8878403541712458 28.1128704123049964
 -7.0464672542393672 52.8878403541712458 28.1128704123049964
 -9.8651216261993682 52.8878403541712458 28.1128704123049964
 -21.1394854402193673 52.8878403541712458 28.1128704123049964
 26.7767087457606330 52.8878403541712458 28.1128704123049964
 25.3673393011282471 50.4468867657654769 28.1128704123049964
 28.1859513534823982 55.3288671719169614 28.1128704123049964
 -12.6837337598252144 57.7698207603227232 28.1128704123049964
 -23.9581398934510652 62.6518011664742076 28.1128704123049964
 -29.5952795214910651 62.6518011664742076 28.1128704123049964
 -35.2325037074710679 62.6518011664742076 28.1128704123049964
 47.9161936848071619 60.2107743487284921 28.1128704123049964
 45.0975393128471538 60.2107743487284921 28.1128704123049964
 39.4603996848071645 60.2107743487284921 28.1128704123049964
 14.0930176848071671 60.2107743487284921 28.1128704123049964
 42.2789695394624090 55.3288671719169614 28.1128704123049964
 11.2743633128471661 60.2107743487284921 28.1128704123049964
 -8.4557945011728339 60.2107743487284921 28.1128704123049964
 -16.9115885011728366 60.2107743487284921 28.1128704123049964
 46.5068242401747796 57.7698207603227232 28.1128704123049964
 35.2324604261547876 57.7698207603227232 28.1128704123049964
 29.5952362401747777 57.7698207603227232 28.1128704123049964
  7.0465086121347857 57.7698207603227232 28.1128704123049964
 -4.2279397598252162 57.7698207603227232 28.1128704123049964
  2.8185693128471621 60.2107743487284921 28.1128704123049964
 18.3209149895745149 23.5961043759422537 28.1128704123049964
 26.7767088676675797 38.2419723650567462 28.1128704123049964
 46.5068668442297550 18.7141971991307194 28.1128704123049964
 46.5068669255014484  8.9502363868277595 28.1128704123049964
 49.3254367395214430  8.9502363868277595 28.1128704123049964
 21.1394849661366919  4.0683292100162243 28.1128704123049964
 18.3208305941766909  4.0683292100162243 28.1128704123049964
 74.6928609778556023 13.8322167929792403 28.1128704123049964
 15.5022607801566892  4.0683292100162243 28.1128704123049964
 47.9161940505279844 16.2731703813850075 28.1128704123049964
 63.4184548442297569 18.7141971991307194 28.1128704123049964
  9.8650365941766900  4.0683292100162243 28.1128704123049964
 71.8742488442297542 18.7141971991307194 28.1128704123049964
  7.0464667801566900  4.0683292100162243 28.1128704123049964
 -9.8651213417502497 18.7141971991307194 28.1128704123049964
 57.7812307395214404  8.9502363868277595 28.1128704123049964
  9.8650787918756002 13.8322167929792403 28.1128704123049964
 12.6836909661366875  4.0683292100162243 28.1128704123049964
 23.9580547801566937  4.0683292100162243 28.1128704123049964
 26.7766245941766883  4.0683292100162243 28.1128704123049964
 49.3254366582497497 18.7141971991307194 28.1128704123049964
 54.9626609661366956  4.0683292100162243 28.1128704123049964
 49.3254367801566929  4.0683292100162243 28.1128704123049964
 73.2835760505279836 16.2731703813850075 28.1128704123049964
 70.4649216785679755 16.2731703813850075 28.1128704123049964
 63.4184126058955968 13.8322167929792403 28.1128704123049964
 12.6836908442297531 18.7141971991307194 28.1128704123049964
 35.2324607918756030 13.8322167929792403 28.1128704123049964
  5.6371818528290705  6.5092827984219914 28.1128704123049964
 26.7766667918756056 13.8322167929792403 28.1128704123049964
 32.4138486582497549 18.7141971991307194 28.1128704123049964
 33.8231336668490670  6.5092827984219914 28.1128704123049964
 70.4649640388090717  6.5092827984219914 28.1128704123049964
 53.5533336785679737 16.2731703813850075 28.1128704123049964
 71.8742066058955942 13.8322167929792403 28.1128704123049964
 29.5952789661366928  4.0683292100162243 28.1128704123049964
  4.2278969255014500  8.9502363868277595 28.1128704123049964
 -0.0000424550578693 21.1551507875364884 28.1128704123049964
 -8.4558364550578684 21.1551507875364884 28.1128704123049964
  1.4092847918756004 13.8322167929792403 28.1128704123049964
 59.1905579051832120 11.3912632045734714 28.1128704123049964
 28.1859516785679780 16.2731703813850075 28.1128704123049964
 39.4604000505279870 16.2731703813850075 28.1128704123049964
 31.0045637309221327 21.1551507875364884 28.1128704123049964
 19.7301576785679771 16.2731703813850075 28.1128704123049964
 59.1905156668490591  6.5092827984219914 28.1128704123049964
 31.0046061724349222  1.6273023922705114 28.1128704123049964
 33.8231759051832199 11.3912632045734714 28.1128704123049964
 39.4603577309221265 21.1551507875364884 28.1128704123049964
 56.3719457309221283 21.1551507875364884 28.1128704123049964
 67.6463095449421274 21.1551507875364884 28.1128704123049964
 22.5488121724349213  1.6273023922705114 28.1128704123049964
  5.6372240505279780 16.2731703813850075 28.1128704123049964
 70.4649639169021356 21.1551507875364884 28.1128704123049964
 47.9161095332232136 11.3912632045734714 28.1128704123049964
 53.5533337192032164 11.3912632045734714 28.1128704123049964
 -2.8185699494720202 16.2731703813850075 28.1128704123049964
 28.1859517192032243 11.3912632045734714 28.1128704123049964
 78.9207580388090690  6.5092827984219914 28.1128704123049964
 67.6463519864549170  1.6273023922705114 28.1128704123049964
 47.9161518528290671  6.5092827984219914 28.1128704123049964
  2.8186119169021282 21.1551507875364884 28.1128704123049964
 78.9207158004749090  1.6273023922705114 28.1128704123049964
  8.4557515449421317 21.1551507875364884 28.1128704123049964
 56.3719458528290644  6.5092827984219914 28.1128704123049964
 11.2744059169021327 21.1551507875364884 28.1128704123049964
 -7.0465515277302488 18.7141971991307194 28.1128704123049964
 50.7347216668490617  6.5092827984219914 28.1128704123049964
 14.0929757309221344 21.1551507875364884 28.1128704123049964
 53.5533760388090698  6.5092827984219914 28.1128704123049964
 19.7301573399373318 56.9561695641874692 28.6327538495249954
 25.3673815259173274 56.9561695641874692 28.6327538495249954
 16.9116302112439918  8.1365851906925037 28.6327538495249954
 -18.3208734014102959 59.3971231525932382 28.6327538495249954
  7.0465085985897025 59.3971231525932382 28.6327538495249954
 -1.4092854014103018 59.3971231525932382 28.6327538495249954
 -4.2278552154303037 59.3971231525932382 28.6327538495249954
 14.0929758392839890  8.1365851906925037 28.6327538495249954
  2.8186120252639890  8.1365851906925037 28.6327538495249954
  0.0000422112439907  8.1365851906925037 28.6327538495249954
 11.2744060252639908  8.1365851906925037 28.6327538495249954
 -32.4138915873902960 59.3971231525932382 28.6327538495249954
 47.9161937118973214 56.9561695641874692 28.6327538495249954
 50.7347635259173302 56.9561695641874692 28.6327538495249954
 31.0046057118973302 56.9561695641874692 28.6327538495249954
 -26.7766674014102968 59.3971231525932382 28.6327538495249954
 -5.6371820966429516 22.7824531798069998 28.6327538495249954
 14.0930177118973283 56.9561695641874692 28.6327538495249954
 36.6417876595431693 52.0741891580359919 28.6327538495249954
 70.4649640252639955  8.1365851906925037 28.6327538495249954
 73.2835338392839901  8.1365851906925037 28.6327538495249954
 28.1859936595431719 52.0741891580359919 28.6327538495249954
 -4.2278970880436288 10.5775387790982709 28.6327538495249954
 12.6836909119563703 10.5775387790982709 28.6327538495249954
 15.5023452839163713 10.5775387790982709 28.6327538495249954
 39.4603574735631781 52.0741891580359919 28.6327538495249954
 18.3209150979363713 10.5775387790982709 28.6327538495249954
 -2.8186125264368322 52.0741891580359919 28.6327538495249954
 -14.0929763404568273 52.0741891580359919 28.6327538495249954
 40.8697272839163759 10.5775387790982709 28.6327538495249954
 -25.3673401544768282 52.0741891580359919 28.6327538495249954
 40.8696424008908039 49.6332355696302230 28.6327538495249954
 38.0510725868707951 49.6332355696302230 28.6327538495249954
 35.2325027728508005 49.6332355696302230 28.6327538495249954
 23.9581392839163634 10.5775387790982709 28.6327538495249954
 62.0091700252639910  8.1365851906925037 28.6327538495249954
 -29.5952794537644479 54.5151427464417537 28.6327538495249954
 53.5533760252639937  8.1365851906925037 28.6327538495249954
 19.7302000252639935  8.1365851906925037 28.6327538495249954
 22.5487698392839881  8.1365851906925037 28.6327538495249954
 -8.4557944740826727 56.9561695641874692 28.6327538495249954
 25.3674242112439856  8.1365851906925037 28.6327538495249954
 -16.9115884740826736 56.9561695641874692 28.6327538495249954
 -22.5488126600626764 56.9561695641874692 28.6327538495249954
 -25.3673824740826745 56.9561695641874692 28.6327538495249954
 49.3255209181955507 54.5151427464417537 28.6327538495249954
 28.1859940252639873  8.1365851906925037 28.6327538495249954
 40.8697269181955534 54.5151427464417537 28.6327538495249954
 36.6417880252639918  8.1365851906925037 28.6327538495249954
 39.4603578392839793  8.1365851906925037 28.6327538495249954
 15.5023449181955559 54.5151427464417537 28.6327538495249954
 45.0975820252639821  8.1365851906925037 28.6327538495249954
 12.6836905462355407 54.5151427464417537 28.6327538495249954
  1.4093267322155492 54.5151427464417537 28.6327538495249954
 -26.7766250818044469 54.5151427464417537 28.6327538495249954
 16.9115875259173158 56.9561695641874692 28.6327538495249954
 74.6928187666116230  5.6956316022867357 28.6327538495249954
 28.1860358572420893 61.8380767409990000 28.6327538495249954
 43.6882544126097088 59.3971231525932382 28.6327538495249954
  7.0465507962886189 69.1610107355562462 28.6327538495249954
  1.4093266103086164 69.1610107355562462 28.6327538495249954
 -4.2278975756713866 69.1610107355562462 28.6327538495249954
  2.8186543448698407  3.2546047845410229 28.6327538495249954
 -9.8650372037113900 69.1610107355562462 28.6327538495249954
 -18.3208312037113821 69.1610107355562462 28.6327538495249954
  5.6372241588898389  3.2546047845410229 28.6327538495249954
 -29.5952795756713840 69.1610107355562462 28.6327538495249954
 45.0975815376362448 66.7200571471504844 28.6327538495249954
 31.0045633516562411 66.7200571471504844 28.6327538495249954
 16.9116297236162261 66.7200571471504844 28.6327538495249954
 14.0929753516562410 66.7200571471504844 28.6327538495249954
 11.2744055376362251 66.7200571471504844 28.6327538495249954
 -14.0929764623637634 66.7200571471504844 28.6327538495249954
 -16.9115462763837670 66.7200571471504844 28.6327538495249954
 15.5023447962886092 69.1610107355562462 28.6327538495249954
 -22.5487704623637697 66.7200571471504844 28.6327538495249954
 18.3209146103086198 69.1610107355562462 28.6327538495249954
 74.6928610862174764  0.8136511961352557 28.6327538495249954
 31.0046055899903834 71.6020375533019688 28.6327538495249954
 28.1859512180303895 71.6020375533019688 28.6327538495249954
 25.3673814040103807 71.6020375533019688 28.6327538495249954
 14.0930175899903762 71.6020375533019688 28.6327538495249954
 35.2324609002374558  0.8136511961352557 28.6327538495249954
 40.8696850862174585  0.8136511961352557 28.6327538495249954
 46.5069092721974613  0.8136511961352557 28.6327538495249954
 49.3254790862174488  0.8136511961352557 28.6327538495249954
 -16.9115885959896168 71.6020375533019688 28.6327538495249954
 57.7812730862174604  0.8136511961352557 28.6327538495249954
 -25.3673825959896213 71.6020375533019688 28.6327538495249954
 -28.1859524100096195 71.6020375533019688 28.6327538495249954
 -36.6417464100096169 71.6020375533019688 28.6327538495249954
 40.8697267962886173 69.1610107355562462 28.6327538495249954
 71.8742912721974676  0.8136511961352557 28.6327538495249954
 29.5952784243286260 69.1610107355562462 28.6327538495249954
 -25.3673402763837679 66.7200571471504844 28.6327538495249954
 -28.1859946483437653 66.7200571471504844 28.6327538495249954
 -31.0045644623637671 66.7200571471504844 28.6327538495249954
 23.9580547666116068  5.6956316022867357 28.6327538495249954
 33.8231754852820927 61.8380767409990000 28.6327538495249954
 21.1394845868707826 49.6332355696302230 28.6327538495249954
 25.3673814852820882 61.8380767409990000 28.6327538495249954
 16.9115874852820909 61.8380767409990000 28.6327538495249954
 35.2325031385716159  5.6956316022867357 28.6327538495249954
 43.6882971385716132  5.6956316022867357 28.6327538495249954
  2.8186538572420905 61.8380767409990000 28.6327538495249954
 -11.2743643287379136 61.8380767409990000 28.6327538495249954
 -14.0929341427579153 61.8380767409990000 28.6327538495249954
 -16.9115885147179164 61.8380767409990000 28.6327538495249954
 -19.7301583287379145 61.8380767409990000 28.6327538495249954
 -33.8231765147179146 61.8380767409990000 28.6327538495249954
 49.3254785985897115 59.3971231525932382 28.6327538495249954
 63.4184549525916097  5.6956316022867357 28.6327538495249954
 -1.4093272333883895  5.6956316022867357 28.6327538495249954
 -32.4138493490561430 64.2791035587447084 28.6327538495249954
 -29.5952795350361448 64.2791035587447084 28.6327538495249954
 81.7393701588898551  3.2546047845410229 28.6327538495249954
 -33.8231342763837688 66.7200571471504844 28.6327538495249954
 33.8231759729098371  3.2546047845410229 28.6327538495249954
 40.8696422789838678 64.2791035587447084 28.6327538495249954
 38.0510724649638732 64.2791035587447084 28.6327538495249954
 39.4604001588898399  3.2546047845410229 28.6327538495249954
 45.0976243448698426  3.2546047845410229 28.6327538495249954
 21.1394844649638500 64.2791035587447084 28.6327538495249954
 23.9580965985897052 59.3971231525932382 28.6327538495249954
 18.3209146509438554 64.2791035587447084 28.6327538495249954
 59.1905579729098434  3.2546047845410229 28.6327538495249954
 64.8277821588898462  3.2546047845410229 28.6327538495249954
 -1.4093277210161486 64.2791035587447084 28.6327538495249954
 70.4650063448698489  3.2546047845410229 28.6327538495249954
 76.1021459729098524  3.2546047845410229 28.6327538495249954
 -15.5022613490561429 64.2791035587447084 28.6327538495249954
 -18.3209157210161457 64.2791035587447084 28.6327538495249954
  4.2278964649638544 64.2791035587447084 28.6327538495249954
 18.3209147728507951 49.6332355696302230 28.6327538495249954
 71.8742489119563714 10.5775387790982709 28.6327538495249954
  7.0464664008907913 49.6332355696302230 28.6327538495249954
  8.4557938510029000 17.9004727736555189 28.6327538495249954
 16.9115877290959595 32.5463407627700150 28.6327538495249954
 14.0930179150759578 32.5463407627700150 28.6327538495249954
 11.2744481010559561 32.5463407627700150 28.6327538495249954
  2.8186541010559618 32.5463407627700150 28.6327538495249954
 22.5488120369828984 17.9004727736555189 28.6327538495249954
 -8.4557942709040379 32.5463407627700150 28.6327538495249954
 25.3673817290959498 32.5463407627700150 28.6327538495249954
 -14.0929338989440378 32.5463407627700150 28.6327538495249954
 28.1860362229629082 17.9004727736555189 28.6327538495249954
 42.2789698510029055 17.9004727736555189 28.6327538495249954
 40.8696848424035863 30.1053871743642461 28.6327538495249954
 38.0511150283835775 30.1053871743642461 28.6327538495249954
 32.4138908424035748 30.1053871743642461 28.6327538495249954
 18.3208726564235782 30.1053871743642461 28.6327538495249954
 15.5023028424035783 30.1053871743642461 28.6327538495249954
 -16.9115882709040370 32.5463407627700150 28.6327538495249954
 33.8231757290959649 32.5463407627700150 28.6327538495249954
 36.6418301010559517 32.5463407627700150 28.6327538495249954
 45.0976241010559633 32.5463407627700150 28.6327538495249954
  2.8186117814501150 37.4283211689214923 28.6327538495249954
 49.3254789643105269 15.4595191852497500 28.6327538495249954
 57.7812305227977419 34.9873675805157234 28.6327538495249954
 54.9627031502905297 15.4595191852497500 28.6327538495249954
 46.5068667087777357 34.9873675805157234 28.6327538495249954
 57.7812729643105243 15.4595191852497500 28.6327538495249954
 66.2370669643105288 15.4595191852497500 28.6327538495249954
 26.7767088947577392 34.9873675805157234 28.6327538495249954
 69.0556367783305234 15.4595191852497500 28.6327538495249954
 15.5022605227977337 34.9873675805157234 28.6327538495249954
  1.4093268947577322 34.9873675805157234 28.6327538495249954
 -1.4093274772022688 34.9873675805157234 28.6327538495249954
 -9.8651214772022673 34.9873675805157234 28.6327538495249954
  2.8186542229628988 17.9004727736555189 28.6327538495249954
  5.6372240369829028 17.9004727736555189 28.6327538495249954
 50.7347637290959668 32.5463407627700150 28.6327538495249954
 47.9161939150759579 32.5463407627700150 28.6327538495249954
 12.6837330283835765 30.1053871743642461 28.6327538495249954
 59.1905578510029073 17.9004727736555189 28.6327538495249954
  1.4092846564235810 30.1053871743642461 28.6327538495249954
 -1.4092851575964171 30.1053871743642461 28.6327538495249954
 32.4139331620094353 25.2234067682127652 28.6327538495249954
 18.3209150166646637 20.3414995914012344 28.6327538495249954
 23.9581391620094379 25.2234067682127652 28.6327538495249954
 21.1394847900494298 25.2234067682127652 28.6327538495249954
  9.8651209760294343 25.2234067682127652 28.6327538495249954
  4.2278967900494315 25.2234067682127652 28.6327538495249954
  1.4093269760294336 25.2234067682127652 28.6327538495249954
 23.9580546447046672 20.3414995914012344 28.6327538495249954
 -12.6836912099505668 25.2234067682127652 28.6327538495249954
 62.0091699033570620 22.7824531798069998 28.6327538495249954
 35.2325030166646727 20.3414995914012344 28.6327538495249954
 50.7348060893370558 22.7824531798069998 28.6327538495249954
 52.1440910166646745 20.3414995914012344 28.6327538495249954
 25.3674240893370566 22.7824531798069998 28.6327538495249954
 22.5487697173770485 22.7824531798069998 28.6327538495249954
  5.6371817173770493 22.7824531798069998 28.6327538495249954
 -2.8186122826229494 22.7824531798069998 28.6327538495249954
 38.0510727900494388 25.2234067682127652 28.6327538495249954
 40.8696849643105153 15.4595191852497500 28.6327538495249954
 43.6882969760294344 25.2234067682127652 28.6327538495249954
 60.5998849760294434 25.2234067682127652 28.6327538495249954
 -4.2278549716164209 30.1053871743642461 28.6327538495249954
 -7.0465093435764183 30.1053871743642461 28.6327538495249954
 -9.8650791575964192 30.1053871743642461 28.6327538495249954
 -12.6836489716164174 30.1053871743642461 28.6327538495249954
 64.8277819557112025 27.6644335859584807 28.6327538495249954
 59.1905577697312140 27.6644335859584807 28.6327538495249954
 64.8277820369829101 17.9004727736555189 28.6327538495249954
 47.9161939557112078 27.6644335859584807 28.6327538495249954
 42.2789697697312050 27.6644335859584807 28.6327538495249954
 39.4603999557111962 27.6644335859584807 28.6327538495249954
 -4.2278971693153311 20.3414995914012344 28.6327538495249954
 33.8231757697311934 27.6644335859584807 28.6327538495249954
 22.5488119557112086 27.6644335859584807 28.6327538495249954
 16.9115877697311987 27.6644335859584807 28.6327538495249954
 11.2743635837511977 27.6644335859584807 28.6327538495249954
 -8.4557942302688005 27.6644335859584807 28.6327538495249954
 -14.0930184162487979 27.6644335859584807 28.6327538495249954
 46.5068667900494361 25.2234067682127652 28.6327538495249954
 25.3674239674301170 37.4283211689214923 28.6327538495249954
 33.8231754040103922 71.6020375533019688 28.6327538495249954
 36.6417877814501125 37.4283211689214923 28.6327538495249954
 -2.8185702068309761 47.1922087518845075 28.6327538495249954
 11.2743637056581409 13.0185655968439828 28.6327538495249954
 -11.2743642068309775 47.1922087518845075 28.6327538495249954
 -14.0929340208509810 47.1922087518845075 28.6327538495249954
 14.0930180776181420 13.0185655968439828 28.6327538495249954
 16.9115878916381419 13.0185655968439828 28.6327538495249954
 -22.5487280208509766 47.1922087518845075 28.6327538495249954
 25.3673818916381357 13.0185655968439828 28.6327538495249954
 52.1440485345166493 44.7512551634787386 28.6327538495249954
 49.3254787204966547 44.7512551634787386 28.6327538495249954
 46.5069089064766459 44.7512551634787386 28.6327538495249954
 43.6882545345166520 44.7512551634787386 28.6327538495249954
 38.0511149064766485 44.7512551634787386 28.6327538495249954
 35.2324605345166475 44.7512551634787386 28.6327538495249954
 31.0046060776181456 13.0185655968439828 28.6327538495249954
 39.4604000776181465 13.0185655968439828 28.6327538495249954
 18.3208725345166314 44.7512551634787386 28.6327538495249954
  5.6372240776181393 13.0185655968439828 28.6327538495249954
 42.2789698916381340 13.0185655968439828 28.6327538495249954
  8.4557936071890190 47.1922087518845075 28.6327538495249954
 -2.8185699223818586 13.0185655968439828 28.6327538495249954
  4.2278965868707896 49.6332355696302230 28.6327538495249954
  1.4093267728507877 49.6332355696302230 28.6327538495249954
 -1.4093275991092098 49.6332355696302230 28.6327538495249954
 54.9626609119563767 10.5775387790982709 28.6327538495249954
 -12.6836914131292051 49.6332355696302230 28.6327538495249954
 -15.5022612271492086 49.6332355696302230 28.6327538495249954
 -18.3209155991092061 49.6332355696302230 28.6327538495249954
 -26.7767095991092070 49.6332355696302230 28.6327538495249954
 50.7347636071890307 47.1922087518845075 28.6327538495249954
 47.9161937931690360 47.1922087518845075 28.6327538495249954
 66.2371092839163680 10.5775387790982709 28.6327538495249954
 39.4603997931690245 47.1922087518845075 28.6327538495249954
 36.6418299791490298 47.1922087518845075 28.6327538495249954
 33.8231756071890288 47.1922087518845075 28.6327538495249954
 -11.2744062826229499 22.7824531798069998 28.6327538495249954
 22.5488117931690120 47.1922087518845075 28.6327538495249954
 74.6929032839163654 10.5775387790982709 28.6327538495249954
 -0.0000001083618602 13.0185655968439828 28.6327538495249954
 15.5022604008907816 49.6332355696302230 28.6327538495249954
 45.0975397056581500 13.0185655968439828 28.6327538495249954
  9.8650785345166412 44.7512551634787386 28.6327538495249954
 49.3255210401024939 39.8692747573272612 28.6327538495249954
 15.5023029643105232 15.4595191852497500 28.6327538495249954
 26.7767088541224823 39.8692747573272612 28.6327538495249954
 15.5023450401024956 39.8692747573272612 28.6327538495249954
 12.6836906681424875 39.8692747573272612 28.6327538495249954
  7.0465510401024849 39.8692747573272612 28.6327538495249954
  1.4093268541224926 39.8692747573272612 28.6327538495249954
 -7.0464671458775081 39.8692747573272612 28.6327538495249954
 -9.8650369598975125 39.8692747573272612 28.6327538495249954
 -12.6836913318575100 39.8692747573272612 28.6327538495249954
 -18.3208309598975099 39.8692747573272612 28.6327538495249954
 -21.1394853318575109 39.8692747573272612 28.6327538495249954
 62.0091697814501188 37.4283211689214923 28.6327538495249954
 32.4138909643105251 15.4595191852497500 28.6327538495249954
 59.1905999674301100 37.4283211689214923 28.6327538495249954
 38.0511151502905278 15.4595191852497500 28.6327538495249954
 45.0975817814501099 37.4283211689214923 28.6327538495249954
 54.9626606681424974 39.8692747573272612 28.6327538495249954
 12.6837329064766493 44.7512551634787386 28.6327538495249954
 -4.2278548497094786 15.4595191852497500 28.6327538495249954
 -14.0930185381557376 42.3103015750729767 28.6327538495249954
  7.0465087204966403 44.7512551634787386 28.6327538495249954
  4.2279389064766386 44.7512551634787386 28.6327538495249954
 -1.4092852795033535 44.7512551634787386 28.6327538495249954
 53.5533337056581473 13.0185655968439828 28.6327538495249954
 62.0091277056581518 13.0185655968439828 28.6327538495249954
 -9.8650792795033553 44.7512551634787386 28.6327538495249954
 -15.5023034654833562 44.7512551634787386 28.6327538495249954
 53.5533334618442680 42.3103015750729767 28.6327538495249954
 47.9161938338042646 42.3103015750729767 28.6327538495249954
 45.0975394618442706 42.3103015750729767 28.6327538495249954
 64.8277820776181386 13.0185655968439828 28.6327538495249954
 70.4649217056581421 13.0185655968439828 28.6327538495249954
 11.2743634618442599 42.3103015750729767 28.6327538495249954
  8.4557936478242581 42.3103015750729767 28.6327538495249954
  2.8185694618442589 42.3103015750729767 28.6327538495249954
 -7.0465092216694787 15.4595191852497500 28.6327538495249954
 -11.2743641661957401 42.3103015750729767 28.6327538495249954
 -16.9115883521757375 42.3103015750729767 28.6327538495249954
 42.2789694040103896 71.6020375533019688 28.6327538495249954
