 H  O 
 1.0000000000000000
    84.5579400000000021    0.0000000000000000    0.0000000000000000
   -42.2789706095346958   73.2293399455724767    0.0000000000000000
     0.0000000000000000    0.0000000000000000   46.9039550000000034
 H   O  
 156 430
Cartesian
 67.6463095449421274 21.1551507875364884 28.1128704123049964
 -1.4093277074710613 62.6518011664742076 28.1128704123049964
 29.5952787223228171 33.3600651882452155 28.1128704123049964
 54.9626606004158731 48.0059331773597151 28.1128704123049964
 -22.5487703269117468 50.4468867657654769 28.1128704123049964
 50.7347638645479790 16.2731703813850075 28.1128704123049964
 -18.3209157074710660 62.6518011664742076 28.1128704123049964
 -21.1394855214910677 62.6518011664742076 28.1128704123049964
 67.6463518645479809 16.2731703813850075 28.1128704123049964
 25.3673818645479834 16.2731703813850075 28.1128704123049964
 -26.7767097074710669 62.6518011664742076 28.1128704123049964
 -1.4093273417502492 18.7141971991307194 28.1128704123049964
 -32.4139338934510661 62.6518011664742076 28.1128704123049964
 47.9161936848071619 60.2107743487284921 28.1128704123049964
  7.0464665363428152 33.3600651882452155 28.1128704123049964
  8.4557513011282524 50.4468867657654769 28.1128704123049964
 63.4184548442297569 18.7141971991307194 28.1128704123049964
 11.2744056730882534 50.4468867657654769 28.1128704123049964
 71.8742488442297542 18.7141971991307194 28.1128704123049964
 -4.2278971557702505 18.7141971991307194 28.1128704123049964
  1.4092421065489333 62.6518011664742076 28.1128704123049964
 16.9115878645479825 16.2731703813850075 28.1128704123049964
  9.8650361065489385 62.6518011664742076 28.1128704123049964
  1.4092422284558699 48.0059331773597151 28.1128704123049964
  7.0465089778555976 13.8322167929792403 28.1128704123049964
 19.7301997949951904 35.8010187766509844 28.1128704123049964
 15.5022604144358738 48.0059331773597151 28.1128704123049964
 -0.0000425769648080 35.8010187766509844 28.1128704123049964
 21.1394846004158765 48.0059331773597151 28.1128704123049964
 32.4138909778556012 13.8322167929792403 28.1128704123049964
 -11.2744063909848098 35.8010187766509844 28.1128704123049964
 -16.9116305769648072 35.8010187766509844 28.1128704123049964
 -36.6417886347986865 65.0927547548799765 28.1128704123049964
 54.9626186058955923 13.8322167929792403 28.1128704123049964
 52.1440063503628082 33.3600651882452155 28.1128704123049964
 63.4184126058955968 13.8322167929792403 28.1128704123049964
 32.4138482925289324 62.6518011664742076 28.1128704123049964
 46.5068667223228047 33.3600651882452155 28.1128704123049964
 -8.4557941354520185 16.2731703813850075 28.1128704123049964
 38.0510727223228145 33.3600651882452155 28.1128704123049964
 18.3208301065489287 62.6518011664742076 28.1128704123049964
  2.8185696785679806 16.2731703813850075 28.1128704123049964
 -0.0000424550578693 21.1551507875364884 28.1128704123049964
 25.3673393011282471 50.4468867657654769 28.1128704123049964
 14.0929757309221344 21.1551507875364884 28.1128704123049964
 39.4603574871082543 50.4468867657654769 28.1128704123049964
 63.4184548035945070 23.5961043759422537 28.1128704123049964
 69.0556789895745169 23.5961043759422537 28.1128704123049964
 66.2370668559486688 28.4780847820937346 28.1128704123049964
 -5.6372244027037182 26.0371311936879657 28.1128704123049964
 -7.0464672542393672 52.8878403541712458 28.1128704123049964
 57.7812728559486644 28.4780847820937346 28.1128704123049964
 11.2743633534824053 55.3288671719169614 28.1128704123049964
 52.1440486699686616 28.4780847820937346 28.1128704123049964
 43.6882546699686571 28.4780847820937346 28.1128704123049964
 26.7766666699686624 28.4780847820937346 28.1128704123049964
 -28.1860368324975958 55.3288671719169614 28.1128704123049964
 50.7347637832762715 26.0371311936879657 28.1128704123049964
 -31.0046066465175976 55.3288671719169614 28.1128704123049964
 56.3719034113162749 26.0371311936879657 28.1128704123049964
 59.1905577832762830 26.0371311936879657 28.1128704123049964
 64.8276974113162794 26.0371311936879657 28.1128704123049964
 18.3208726699686650 28.4780847820937346 28.1128704123049964
 23.9580543738006249 52.8878403541712458 28.1128704123049964
  9.8650786699686659 28.4780847820937346 28.1128704123049964
 -12.6836914402193699 52.8878403541712458 28.1128704123049964
 40.8696844902278471 72.4156887494372228 28.1128704123049964
 -11.2743640713789581 30.9190383704995000 28.1128704123049964
 46.5068668035945052 23.5961043759422537 28.1128704123049964
 28.1859939169021310 21.1551507875364884 28.1128704123049964
 31.0045637309221327 21.1551507875364884 28.1128704123049964
 49.3254786121347877 57.7698207603227232 28.1128704123049964
 43.6882544261547849 57.7698207603227232 28.1128704123049964
 38.0510302401747822 57.7698207603227232 28.1128704123049964
 47.9161514871082517 50.4468867657654769 28.1128704123049964
 29.5952362401747777 57.7698207603227232 28.1128704123049964
 -7.0465094519382783 43.1239527712082307 28.1128704123049964
 21.1394422401747804 57.7698207603227232 28.1128704123049964
 -7.0464670104254905 23.5961043759422537 28.1128704123049964
 -4.2279397598252162 57.7698207603227232 28.1128704123049964
  7.0464666176145112 23.5961043759422537 28.1128704123049964
 15.5022606176145086 23.5961043759422537 28.1128704123049964
 -9.8650793878652134 57.7698207603227232 28.1128704123049964
 21.1394848035945166 23.5961043759422537 28.1128704123049964
 29.5952788035945140 23.5961043759422537 28.1128704123049964
 32.4138486176145122 23.5961043759422537 28.1128704123049964
 -2.8185700713789608 30.9190383704995000 28.1128704123049964
 40.8696426176145025 23.5961043759422537 28.1128704123049964
 -8.4557942573589582 30.9190383704995000 28.1128704123049964
 -4.2279393941043990 13.8322167929792403 28.1128704123049964
 40.8696422925289298 62.6518011664742076 28.1128704123049964
  4.2278544839886631 28.4780847820937346 28.1128704123049964
 49.3254364957075708 38.2419723650567462 28.1128704123049964
 39.4603152894093299 40.6829991828024689 28.1128704123049964
 81.7393701724349171  1.6273023922705114 28.1128704123049964
 50.7347216668490617  6.5092827984219914 28.1128704123049964
 43.6882545480617210 43.1239527712082307 28.1128704123049964
 76.1021459864549144  1.6273023922705114 28.1128704123049964
 11.2743634347540986 45.5649063596139996 28.1128704123049964
 21.1394844378736906 67.5337083432857384 28.1128704123049964
 45.0975394753893397 40.6829991828024689 28.1128704123049964
 70.4649640388090717  6.5092827984219914 28.1128704123049964
 67.6463519864549170  1.6273023922705114 28.1128704123049964
 76.1021036668490609  6.5092827984219914 28.1128704123049964
 22.5488118067141059 45.5649063596139996 28.1128704123049964
 16.9115876613693388 40.6829991828024689 28.1128704123049964
  9.8651211114814483  8.9502363868277595 28.1128704123049964
 33.8231756613693406 40.6829991828024689 28.1128704123049964
 15.5022607395214518  8.9502363868277595 28.1128704123049964
 -2.8185701932858982 45.5649063596139996 28.1128704123049964
  7.0464667801566900  4.0683292100162243 28.1128704123049964
 -38.0511158817321586 72.4156887494372228 28.1128704123049964
 11.2743634753893449 40.6829991828024689 28.1128704123049964
 66.2370247801566876  4.0683292100162243 28.1128704123049964
  2.8186120388090696  6.5092827984219914 28.1128704123049964
  2.8185694753893440 40.6829991828024689 28.1128704123049964
 40.8696427801566955  4.0683292100162243 28.1128704123049964
 14.0929330455954638 69.9747351610314468 28.1128704123049964
 -5.6372245246106605 40.6829991828024689 28.1128704123049964
 25.3673816613693432 40.6829991828024689 28.1128704123049964
 -22.5488127684245363 69.9747351610314468 28.1128704123049964
 32.4138487801566981  4.0683292100162243 28.1128704123049964
 -14.0930185246106596 40.6829991828024689 28.1128704123049964
 52.1440485480617184 43.1239527712082307 28.1128704123049964
 73.2834915332232129 11.3912632045734714 28.1128704123049964
 43.6882966238536952 67.5337083432857384 28.1128704123049964
 39.4603578528290697  6.5092827984219914 28.1128704123049964
  7.0464662518936976 67.5337083432857384 28.1128704123049964
  7.0464667395214500  8.9502363868277595 28.1128704123049964
 62.0091278004749142  1.6273023922705114 28.1128704123049964
 42.2789699864549249  1.6273023922705114 28.1128704123049964
 -35.2325037481063035 67.5337083432857384 28.1128704123049964
 45.0975397192032190 11.3912632045734714 28.1128704123049964
 47.9161941724349276  1.6273023922705114 28.1128704123049964
 31.0046061724349222  1.6273023922705114 28.1128704123049964
 -18.3209157481063052 67.5337083432857384 28.1128704123049964
 21.1394849255014528  8.9502363868277595 28.1128704123049964
 -23.9580974519382757 43.1239527712082307 28.1128704123049964
  2.8185697192032206 11.3912632045734714 28.1128704123049964
 53.5533338004749169  1.6273023922705114 28.1128704123049964
 -5.6372242807967794 11.3912632045734714 28.1128704123049964
 -21.1395276379182775 43.1239527712082307 28.1128704123049964
 -29.5952795621263043 67.5337083432857384 28.1128704123049964
 -9.8651217481063078 67.5337083432857384 28.1128704123049964
 66.2370247395214449  8.9502363868277595 28.1128704123049964
 26.7766665480617228 43.1239527712082307 28.1128704123049964
 59.1905579864549196  1.6273023922705114 28.1128704123049964
 57.7812307395214404  8.9502363868277595 28.1128704123049964
 36.6417454347540925 45.5649063596139996 28.1128704123049964
 46.5068669255014484  8.9502363868277595 28.1128704123049964
 32.4138904902278497 72.4156887494372228 28.1128704123049964
 43.6882971114814538  8.9502363868277595 28.1128704123049964
 -18.3209155855641299 48.0059331773597151 28.1128704123049964
 18.3209148676675753 38.2419723650567462 28.1128704123049964
 26.7767091114814519  8.9502363868277595 28.1128704123049964
 25.3673819864549230  1.6273023922705114 28.1128704123049964
 56.3719878338042619 42.3103015750729767 28.6327538495249954
 -22.5487703404568300 52.0741891580359919 28.6327538495249954
 19.7301574618442501 42.3103015750729767 28.6327538495249954
 -19.7302005264368283 52.0741891580359919 28.6327538495249954
 19.7301996595431604 52.0741891580359919 28.6327538495249954
 25.3673816478242529 42.3103015750729767 28.6327538495249954
 47.9161938338042646 42.3103015750729767 28.6327538495249954
 22.5487694735631763 52.0741891580359919 28.6327538495249954
 -16.9115461544768308 52.0741891580359919 28.6327538495249954
 14.0929754735631594 52.0741891580359919 28.6327538495249954
 11.2744056595431719 52.0741891580359919 28.6327538495249954
  8.4558358455231772 52.0741891580359919 28.6327538495249954
 -11.2744065264368292 52.0741891580359919 28.6327538495249954
 42.2789696478242618 42.3103015750729767 28.6327538495249954
  5.6371814735631682 52.0741891580359919 28.6327538495249954
 31.0046058338042556 42.3103015750729767 28.6327538495249954
  2.8186116595431669 52.0741891580359919 28.6327538495249954
 22.5488118338042653 42.3103015750729767 28.6327538495249954
 -25.3673401544768282 52.0741891580359919 28.6327538495249954
 -5.6371400208509774 47.1922087518845075 28.6327538495249954
 -28.1859945264368292 52.0741891580359919 28.6327538495249954
 50.7347636071890307 47.1922087518845075 28.6327538495249954
 45.0976239791490272 47.1922087518845075 28.6327538495249954
 42.2789696071890333 47.1922087518845075 28.6327538495249954
 39.4603997931690245 47.1922087518845075 28.6327538495249954
 38.0511149064766485 44.7512551634787386 28.6327538495249954
 28.1859936595431719 52.0741891580359919 28.6327538495249954
 36.6418299791490298 47.1922087518845075 28.6327538495249954
 33.8231756071890288 47.1922087518845075 28.6327538495249954
 40.8696847204966431 44.7512551634787386 28.6327538495249954
 25.3673816071890279 47.1922087518845075 28.6327538495249954
 43.6882545345166520 44.7512551634787386 28.6327538495249954
 54.9627029064766432 44.7512551634787386 28.6327538495249954
 19.7302419791490244 47.1922087518845075 28.6327538495249954
  2.8186539791490159 47.1922087518845075 28.6327538495249954
 57.7812727204966521 44.7512551634787386 28.6327538495249954
 -22.5487280208509766 47.1922087518845075 28.6327538495249954
 -19.7301582068309784 47.1922087518845075 28.6327538495249954
 -2.8185702068309761 47.1922087518845075 28.6327538495249954
 -14.0929340208509810 47.1922087518845075 28.6327538495249954
 53.5534179791490246 47.1922087518845075 28.6327538495249954
 -23.9580974654833554 44.7512551634787386 28.6327538495249954
 32.4138907204966458 44.7512551634787386 28.6327538495249954
 18.3208725345166314 44.7512551634787386 28.6327538495249954
 52.1440907728507952 49.6332355696302230 28.6327538495249954
 -15.5023034654833562 44.7512551634787386 28.6327538495249954
 43.6882967728507978 49.6332355696302230 28.6327538495249954
 -12.6836490935233588 44.7512551634787386 28.6327538495249954
 -7.0465094654833562 44.7512551634787386 28.6327538495249954
 38.0510725868707951 49.6332355696302230 28.6327538495249954
 29.5952785868707942 49.6332355696302230 28.6327538495249954
 26.7767087728507853 49.6332355696302230 28.6327538495249954
 -4.2278550935233552 44.7512551634787386 28.6327538495249954
 15.5022604008907816 49.6332355696302230 28.6327538495249954
 12.6836905868707941 49.6332355696302230 28.6327538495249954
  1.4092845345166412 44.7512551634787386 28.6327538495249954
  4.2278965868707896 49.6332355696302230 28.6327538495249954
 -4.2278974131292042 49.6332355696302230 28.6327538495249954
 -9.8651215991092069 49.6332355696302230 28.6327538495249954
 -12.6836914131292051 49.6332355696302230 28.6327538495249954
  4.2279389064766386 44.7512551634787386 28.6327538495249954
 12.6837329064766493 44.7512551634787386 28.6327538495249954
 -21.1394854131292078 49.6332355696302230 28.6327538495249954
 23.9580967204966342 44.7512551634787386 28.6327538495249954
 23.9580544008907985 49.6332355696302230 28.6327538495249954
  1.4092849002374601  0.8136511961352557 28.6327538495249954
 45.0975816595431809 52.0741891580359919 28.6327538495249954
 19.7301995376362349 66.7200571471504844 28.6327538495249954
 16.9116297236162261 66.7200571471504844 28.6327538495249954
 11.2744055376362251 66.7200571471504844 28.6327538495249954
  8.4558357236162376 66.7200571471504844 28.6327538495249954
  0.0000417236162395 66.7200571471504844 28.6327538495249954
 -5.6371824623637705 66.7200571471504844 28.6327538495249954
 -8.4557522763837714 66.7200571471504844 28.6327538495249954
 -14.0929764623637634 66.7200571471504844 28.6327538495249954
 -22.5487704623637697 66.7200571471504844 28.6327538495249954
 -25.3673402763837679 66.7200571471504844 28.6327538495249954
 -33.8231342763837688 66.7200571471504844 28.6327538495249954
 46.5068664649638706 64.2791035587447084 28.6327538495249954
 22.5487693516562366 66.7200571471504844 28.6327538495249954
 43.6882966509438617 64.2791035587447084 28.6327538495249954
 38.0510724649638732 64.2791035587447084 28.6327538495249954
 35.2325026509438644 64.2791035587447084 28.6327538495249954
 29.5952784649638616 64.2791035587447084 28.6327538495249954
 21.1394844649638500 64.2791035587447084 28.6327538495249954
 12.6836904649638509 64.2791035587447084 28.6327538495249954
  4.2278964649638544 64.2791035587447084 28.6327538495249954
  1.4093266509438596 64.2791035587447084 28.6327538495249954
 -1.4093277210161486 64.2791035587447084 28.6327538495249954
 -4.2278975350361501 64.2791035587447084 28.6327538495249954
 -9.8651217210161430 64.2791035587447084 28.6327538495249954
 -12.6836915350361448 64.2791035587447084 28.6327538495249954
 -15.5022613490561429 64.2791035587447084 28.6327538495249954
 40.8696422789838678 64.2791035587447084 28.6327538495249954
 25.3674237236162377 66.7200571471504844 28.6327538495249954
 31.0045633516562411 66.7200571471504844 28.6327538495249954
 33.8232177236162386 66.7200571471504844 28.6327538495249954
 36.6417452180303869 71.6020375533019688 28.6327538495249954
 28.1859512180303895 71.6020375533019688 28.6327538495249954
 16.9115874040103833 71.6020375533019688 28.6327538495249954
 14.0930175899903762 71.6020375533019688 28.6327538495249954
 11.2743632180303894 71.6020375533019688 28.6327538495249954
  8.4557934040103735 71.6020375533019688 28.6327538495249954
  5.6372235899903860 71.6020375533019688 28.6327538495249954
 -0.0000005959896168 71.6020375533019688 28.6327538495249954
 -2.8185704100096114 71.6020375533019688 28.6327538495249954
 -8.4557945959896212 71.6020375533019688 28.6327538495249954
 -11.2743644100096230 71.6020375533019688 28.6327538495249954
 -16.9115885959896168 71.6020375533019688 28.6327538495249954
 -19.7301584100096186 71.6020375533019688 28.6327538495249954
 -22.5488127819696196 71.6020375533019688 28.6327538495249954
 -25.3673825959896213 71.6020375533019688 28.6327538495249954
 -28.1859524100096195 71.6020375533019688 28.6327538495249954
 -31.0046067819696169 71.6020375533019688 28.6327538495249954
 -33.8231765959896151 71.6020375533019688 28.6327538495249954
 -39.4604007819696179 71.6020375533019688 28.6327538495249954
 26.7767086103086172 69.1610107355562462 28.6327538495249954
 23.9581387962886225 69.1610107355562462 28.6327538495249954
 18.3209146103086198 69.1610107355562462 28.6327538495249954
  9.8651206103086064 69.1610107355562462 28.6327538495249954
 -21.1394855756713831 69.1610107355562462 28.6327538495249954
 -26.7766252037113830 69.1610107355562462 28.6327538495249954
 -38.0510735756713814 69.1610107355562462 28.6327538495249954
 39.4603573516562420 66.7200571471504844 28.6327538495249954
 -18.3209157210161457 64.2791035587447084 28.6327538495249954
 36.6417876595431693 52.0741891580359919 28.6327538495249954
 -23.9580553490561456 64.2791035587447084 28.6327538495249954
 47.9161936712620928 61.8380767409990000 28.6327538495249954
 16.9115875259173158 56.9561695641874692 28.6327538495249954
 -0.0000004740826793 56.9561695641874692 28.6327538495249954
 -8.4557944740826727 56.9561695641874692 28.6327538495249954
 -11.2743642881026744 56.9561695641874692 28.6327538495249954
 52.1440907322155596 54.5151427464417537 28.6327538495249954
 46.5068665462355568 54.5151427464417537 28.6327538495249954
 40.8697269181955534 54.5151427464417537 28.6327538495249954
 38.0510725462355595 54.5151427464417537 28.6327538495249954
 35.2325027322155506 54.5151427464417537 28.6327538495249954
 32.4139329181955560 54.5151427464417537 28.6327538495249954
 29.5952785462355585 54.5151427464417537 28.6327538495249954
 26.7767087322155568 54.5151427464417537 28.6327538495249954
 25.3673815259173274 56.9561695641874692 28.6327538495249954
 23.9581389181955480 54.5151427464417537 28.6327538495249954
 15.5023449181955559 54.5151427464417537 28.6327538495249954
  9.8651207322155532 54.5151427464417537 28.6327538495249954
  1.4093267322155492 54.5151427464417537 28.6327538495249954
 -1.4092430818044526 54.5151427464417537 28.6327538495249954
 -7.0464672677844442 54.5151427464417537 28.6327538495249954
 -9.8650370818044468 54.5151427464417537 28.6327538495249954
 -12.6836914537644478 54.5151427464417537 28.6327538495249954
 -15.5022612677844460 54.5151427464417537 28.6327538495249954
 -18.3208310818044460 54.5151427464417537 28.6327538495249954
 53.5533756595431782 52.0741891580359919 28.6327538495249954
 50.7348058455231694 52.0741891580359919 28.6327538495249954
 47.9161514735631755 52.0741891580359919 28.6327538495249954
 18.3209147322155452 54.5151427464417537 28.6327538495249954
 33.8231755259173212 56.9561695641874692 28.6327538495249954
 39.4603997118973240 56.9561695641874692 28.6327538495249954
 -32.4138915873902960 59.3971231525932382 28.6327538495249954
 45.0976238572420840 61.8380767409990000 28.6327538495249954
 36.6418298572420866 61.8380767409990000 28.6327538495249954
 33.8231754852820927 61.8380767409990000 28.6327538495249954
 31.0046056712620839 61.8380767409990000 28.6327538495249954
 28.1860358572420893 61.8380767409990000 28.6327538495249954
 22.5488116712620865 61.8380767409990000 28.6327538495249954
 19.7302418572420777 61.8380767409990000 28.6327538495249954
 14.0930176712620749 61.8380767409990000 28.6327538495249954
  2.8186538572420905 61.8380767409990000 28.6327538495249954
 -2.8185703287379194 61.8380767409990000 28.6327538495249954
 -8.4557945147179190 61.8380767409990000 28.6327538495249954
 -11.2743643287379136 61.8380767409990000 28.6327538495249954
 -22.5487281427579163 61.8380767409990000 28.6327538495249954
 35.2324604126097114 59.3971231525932382 28.6327538495249954
 32.4138905985897026 59.3971231525932382 28.6327538495249954
 18.3208724126097096 59.3971231525932382 28.6327538495249954
 15.5023025985896936 59.3971231525932382 28.6327538495249954
 12.6837327845697061 59.3971231525932382 28.6327538495249954
  7.0465085985897025 59.3971231525932382 28.6327538495249954
  4.2279387845697078 59.3971231525932382 28.6327538495249954
  1.4092844126096999 59.3971231525932382 28.6327538495249954
 -1.4092854014103018 59.3971231525932382 28.6327538495249954
 -12.6836492154302967 59.3971231525932382 28.6327538495249954
 -18.3208734014102959 59.3971231525932382 28.6327538495249954
 -21.1394432154303011 59.3971231525932382 28.6327538495249954
 -23.9580975873902986 59.3971231525932382 28.6327538495249954
 -29.5952372154302985 59.3971231525932382 28.6327538495249954
 -32.4138493490561430 64.2791035587447084 28.6327538495249954
  8.4557936478242581 42.3103015750729767 28.6327538495249954
 29.5952787087777267 34.9873675805157234 28.6327538495249954
 -2.8185701661957374 42.3103015750729767 28.6327538495249954
 21.1395271502905153 15.4595191852497500 28.6327538495249954
 15.5023029643105232 15.4595191852497500 28.6327538495249954
  4.2279391502905188 15.4595191852497500 28.6327538495249954
 -1.4092850356894804 15.4595191852497500 28.6327538495249954
 -4.2278548497094786 15.4595191852497500 28.6327538495249954
 -7.0465092216694787 15.4595191852497500 28.6327538495249954
 76.1021458916381448 13.0185655968439828 28.6327538495249954
 73.2835760776181360 13.0185655968439828 28.6327538495249954
 70.4649217056581421 13.0185655968439828 28.6327538495249954
 67.6463518916381474 13.0185655968439828 28.6327538495249954
 64.8277820776181386 13.0185655968439828 28.6327538495249954
 59.1905578916381430 13.0185655968439828 28.6327538495249954
 29.5953211502905269 15.4595191852497500 28.6327538495249954
 50.7347638916381456 13.0185655968439828 28.6327538495249954
 45.0975397056581500 13.0185655968439828 28.6327538495249954
 42.2789698916381340 13.0185655968439828 28.6327538495249954
 39.4604000776181465 13.0185655968439828 28.6327538495249954
 36.6417457056581313 13.0185655968439828 28.6327538495249954
 33.8231758916381438 13.0185655968439828 28.6327538495249954
 31.0046060776181456 13.0185655968439828 28.6327538495249954
 28.1859517056581375 13.0185655968439828 28.6327538495249954
 22.5488120776181340 13.0185655968439828 28.6327538495249954
 19.7301577056581365 13.0185655968439828 28.6327538495249954
 16.9115878916381419 13.0185655968439828 28.6327538495249954
 14.0930180776181420 13.0185655968439828 28.6327538495249954
  5.6372240776181393 13.0185655968439828 28.6327538495249954
 47.9161940776181368 13.0185655968439828 28.6327538495249954
  2.8185697056581414 13.0185655968439828 28.6327538495249954
 38.0511151502905278 15.4595191852497500 28.6327538495249954
 46.5069091502905181 15.4595191852497500 28.6327538495249954
 52.1440910166646745 20.3414995914012344 28.6327538495249954
 49.3254366447046735 20.3414995914012344 28.6327538495249954
 43.6882970166646629 20.3414995914012344 28.6327538495249954
 40.8696426447046761 20.3414995914012344 28.6327538495249954
 32.4138486447046574 20.3414995914012344 28.6327538495249954
 26.7767090166646753 20.3414995914012344 28.6327538495249954
 23.9580546447046672 20.3414995914012344 28.6327538495249954
 15.5022606447046662 20.3414995914012344 28.6327538495249954
 12.6836908306846716 20.3414995914012344 28.6327538495249954
  9.8651210166646699 20.3414995914012344 28.6327538495249954
  4.2278968306846716 20.3414995914012344 28.6327538495249954
 -4.2278971693153311 20.3414995914012344 28.6327538495249954
 40.8696849643105153 15.4595191852497500 28.6327538495249954
 -7.0464669833353293 20.3414995914012344 28.6327538495249954
 56.3719880369828985 17.9004727736555189 28.6327538495249954
 53.5534182229629039 17.9004727736555189 28.6327538495249954
 39.4604000369828896 17.9004727736555189 28.6327538495249954
 31.0046060369829029 17.9004727736555189 28.6327538495249954
 28.1860362229629082 17.9004727736555189 28.6327538495249954
 16.9115878510028992 17.9004727736555189 28.6327538495249954
 14.0930180369829028 17.9004727736555189 28.6327538495249954
  5.6372240369829028 17.9004727736555189 28.6327538495249954
 -5.6371397770370981 17.9004727736555189 28.6327538495249954
 69.0556367783305234 15.4595191852497500 28.6327538495249954
 66.2370669643105288 15.4595191852497500 28.6327538495249954
 52.1440487783305286 15.4595191852497500 28.6327538495249954
 64.8277820369829101 17.9004727736555189 28.6327538495249954
 -0.0000001083618602 13.0185655968439828 28.6327538495249954
 74.6929032839163654 10.5775387790982709 28.6327538495249954
 69.0556790979363768 10.5775387790982709 28.6327538495249954
 15.5022607666116095  5.6956316022867357 28.6327538495249954
 12.6836909525916113  5.6956316022867357 28.6327538495249954
  9.8651211385716078  5.6956316022867357 28.6327538495249954
  4.2278969525916086  5.6956316022867357 28.6327538495249954
 81.7393701588898551  3.2546047845410229 28.6327538495249954
 78.9208003448698463  3.2546047845410229 28.6327538495249954
 76.1021459729098524  3.2546047845410229 28.6327538495249954
 73.2835761588898578  3.2546047845410229 28.6327538495249954
 70.4650063448698489  3.2546047845410229 28.6327538495249954
 45.0976243448698426  3.2546047845410229 28.6327538495249954
 36.6418303448698452  3.2546047845410229 28.6327538495249954
 28.1860363448698337  3.2546047845410229 28.6327538495249954
 18.3209151385716105  5.6956316022867357 28.6327538495249954
 11.2744483448698372  3.2546047845410229 28.6327538495249954
 -0.0000000270901599  3.2546047845410229 28.6327538495249954
 80.3300852721974650  0.8136511961352557 28.6327538495249954
 71.8742912721974676  0.8136511961352557 28.6327538495249954
 66.2370670862174649  0.8136511961352557 28.6327538495249954
 63.4184972721974631  0.8136511961352557 28.6327538495249954
 57.7812730862174604  0.8136511961352557 28.6327538495249954
 46.5069092721974613  0.8136511961352557 28.6327538495249954
 43.6882549002374461  0.8136511961352557 28.6327538495249954
 29.5953212721974559  0.8136511961352557 28.6327538495249954
 26.7766669002374584  0.8136511961352557 28.6327538495249954
 21.1395272721974621  0.8136511961352557 28.6327538495249954
 12.6837332721974576  0.8136511961352557 28.6327538495249954
  2.8186543448698407  3.2546047845410229 28.6327538495249954
 23.9580547666116068  5.6956316022867357 28.6327538495249954
 26.7767091385716043  5.6956316022867357 28.6327538495249954
 29.5952789525916060  5.6956316022867357 28.6327538495249954
 60.5998850979363723 10.5775387790982709 28.6327538495249954
 57.7813152839163777 10.5775387790982709 28.6327538495249954
 52.1440910979363750 10.5775387790982709 28.6327538495249954
 49.3255212839163661 10.5775387790982709 28.6327538495249954
 40.8697272839163759 10.5775387790982709 28.6327538495249954
 32.4139332839163785 10.5775387790982709 28.6327538495249954
 23.9581392839163634 10.5775387790982709 28.6327538495249954
 18.3209150979363713 10.5775387790982709 28.6327538495249954
  9.8651210979363722 10.5775387790982709 28.6327538495249954
  4.2278969119563712 10.5775387790982709 28.6327538495249954
 -1.4092427160836287 10.5775387790982709 28.6327538495249954
 67.6463942112439867  8.1365851906925037 28.6327538495249954
 47.9161518392839980  8.1365851906925037 28.6327538495249954
 42.2790122112439946  8.1365851906925037 28.6327538495249954
 25.3674242112439856  8.1365851906925037 28.6327538495249954
 16.9116302112439918  8.1365851906925037 28.6327538495249954
  5.6371818392839907  8.1365851906925037 28.6327538495249954
 80.3300429525916257  5.6956316022867357 28.6327538495249954
 74.6928187666116230  5.6956316022867357 28.6327538495249954
 66.2370247666116256  5.6956316022867357 28.6327538495249954
 63.4184549525916097  5.6956316022867357 28.6327538495249954
 60.5998851385716151  5.6956316022867357 28.6327538495249954
 54.9626609525916123  5.6956316022867357 28.6327538495249954
 49.3254367666116167  5.6956316022867357 28.6327538495249954
 46.5068669525916008  5.6956316022867357 28.6327538495249954
 43.6882971385716132  5.6956316022867357 28.6327538495249954
 35.2325031385716159  5.6956316022867357 28.6327538495249954
 54.9626608306846691 20.3414995914012344 28.6327538495249954
 66.2370246447046753 20.3414995914012344 28.6327538495249954
 -11.2744062826229499 22.7824531798069998 28.6327538495249954
 -8.4557519106629488 22.7824531798069998 28.6327538495249954
 60.5998848947577358 34.9873675805157234 28.6327538495249954
 43.6882968947577410 34.9873675805157234 28.6327538495249954
 35.2325028947577295 34.9873675805157234 28.6327538495249954
 32.4138485227977426 34.9873675805157234 28.6327538495249954
 26.7767088947577392 34.9873675805157234 28.6327538495249954
 23.9580545227977240 34.9873675805157234 28.6327538495249954
 18.3209148947577418 34.9873675805157234 28.6327538495249954
  4.2278967087777302 34.9873675805157234 28.6327538495249954
 -4.2278972912222672 34.9873675805157234 28.6327538495249954
 -7.0464671052422672 34.9873675805157234 28.6327538495249954
 -15.5022611052422672 34.9873675805157234 28.6327538495249954
 64.8277819150759740 32.5463407627700150 28.6327538495249954
 63.4184547087777446 34.9873675805157234 28.6327538495249954
 59.1905577290959641 32.5463407627700150 28.6327538495249954
 45.0976241010559633 32.5463407627700150 28.6327538495249954
 42.2789697290959623 32.5463407627700150 28.6327538495249954
 36.6418301010559517 32.5463407627700150 28.6327538495249954
 33.8231757290959649 32.5463407627700150 28.6327538495249954
 28.1860361010559650 32.5463407627700150 28.6327538495249954
 25.3673817290959498 32.5463407627700150 28.6327538495249954
 19.7302421010559677 32.5463407627700150 28.6327538495249954
 16.9115877290959595 32.5463407627700150 28.6327538495249954
 11.2744481010559561 32.5463407627700150 28.6327538495249954
  5.6372239150759640 32.5463407627700150 28.6327538495249954
  2.8186541010559618 32.5463407627700150 28.6327538495249954
 -0.0000002709040391 32.5463407627700150 28.6327538495249954
 50.7347637290959668 32.5463407627700150 28.6327538495249954
 -2.8186124045298877 37.4283211689214923 28.6327538495249954
  0.0000419674301133 37.4283211689214923 28.6327538495249954
  5.6371815954701097 37.4283211689214923 28.6327538495249954
 -11.2743641661957401 42.3103015750729767 28.6327538495249954
 60.5998848541225001 39.8692747573272612 28.6327538495249954
 57.7813150401024913 39.8692747573272612 28.6327538495249954
 54.9626606681424974 39.8692747573272612 28.6327538495249954
 49.3255210401024939 39.8692747573272612 28.6327538495249954
 46.5068666681425000 39.8692747573272612 28.6327538495249954
 43.6882968541224912 39.8692747573272612 28.6327538495249954
 29.5952786681424982 39.8692747573272612 28.6327538495249954
 26.7767088541224823 39.8692747573272612 28.6327538495249954
 21.1394846681424795 39.8692747573272612 28.6327538495249954
 15.5023450401024956 39.8692747573272612 28.6327538495249954
  7.0465510401024849 39.8692747573272612 28.6327538495249954
 -1.4092429598975091 39.8692747573272612 28.6327538495249954
 -9.8650369598975125 39.8692747573272612 28.6327538495249954
 -18.3208309598975099 39.8692747573272612 28.6327538495249954
 59.1905999674301100 37.4283211689214923 28.6327538495249954
 53.5533757814501215 37.4283211689214923 28.6327538495249954
 45.0975817814501099 37.4283211689214923 28.6327538495249954
 42.2790119674301152 37.4283211689214923 28.6327538495249954
 36.6417877814501125 37.4283211689214923 28.6327538495249954
 31.0045635954701204 37.4283211689214923 28.6327538495249954
 25.3674239674301170 37.4283211689214923 28.6327538495249954
 22.5487695954701017 37.4283211689214923 28.6327538495249954
 19.7301997814501142 37.4283211689214923 28.6327538495249954
 16.9116299674301196 37.4283211689214923 28.6327538495249954
 14.0929755954701115 37.4283211689214923 28.6327538495249954
  8.4558359674301080 37.4283211689214923 28.6327538495249954
 -2.8185700849240374 32.5463407627700150 28.6327538495249954
 -0.0000003521757358 42.3103015750729767 28.6327538495249954
 -5.6371398989440404 32.5463407627700150 28.6327538495249954
 -11.2743640849240396 32.5463407627700150 28.6327538495249954
 49.3255211620094371 25.2234067682127652 28.6327538495249954
 40.8697271620094256 25.2234067682127652 28.6327538495249954
 38.0510727900494388 25.2234067682127652 28.6327538495249954
 35.2325029760294228 25.2234067682127652 28.6327538495249954
 32.4139331620094353 25.2234067682127652 28.6327538495249954
 29.5952787900494201 25.2234067682127652 28.6327538495249954
 26.7767089760294326 25.2234067682127652 28.6327538495249954
 23.9581391620094379 25.2234067682127652 28.6327538495249954
 21.1394847900494298 25.2234067682127652 28.6327538495249954
 18.3209149760294281 25.2234067682127652 28.6327538495249954
 15.5023451620094264 25.2234067682127652 28.6327538495249954
 12.6836907900494289 25.2234067682127652 28.6327538495249954
 52.1440909760294318 25.2234067682127652 28.6327538495249954
  9.8651209760294343 25.2234067682127652 28.6327538495249954
 -9.8650368379905675 25.2234067682127652 28.6327538495249954
 62.0091699033570620 22.7824531798069998 28.6327538495249954
 59.1906000893370532 22.7824531798069998 28.6327538495249954
 56.3719457173770593 22.7824531798069998 28.6327538495249954
 50.7348060893370558 22.7824531798069998 28.6327538495249954
 36.6417879033570415 22.7824531798069998 28.6327538495249954
 33.8232180893370540 22.7824531798069998 28.6327538495249954
 25.3674240893370566 22.7824531798069998 28.6327538495249954
 16.9116300893370450 22.7824531798069998 28.6327538495249954
 11.2744059033570529 22.7824531798069998 28.6327538495249954
  2.8186119033570516 22.7824531798069998 28.6327538495249954
 -5.6371820966429516 22.7824531798069998 28.6327538495249954
 -1.4092428379905699 25.2234067682127652 28.6327538495249954
 66.2371091620094319 25.2234067682127652 28.6327538495249954
 -14.0930184162487979 27.6644335859584807 28.6327538495249954
 -8.4557942302688005 27.6644335859584807 28.6327538495249954
 -14.0929338989440378 32.5463407627700150 28.6327538495249954
 -16.9115882709040370 32.5463407627700150 28.6327538495249954
 66.2370668424035927 30.1053871743642461 28.6327538495249954
 63.4184970283835838 30.1053871743642461 28.6327538495249954
 60.5998426564235899 30.1053871743642461 28.6327538495249954
 57.7812728424035953 30.1053871743642461 28.6327538495249954
 54.9627030283835865 30.1053871743642461 28.6327538495249954
 52.1440486564235925 30.1053871743642461 28.6327538495249954
 49.3254788424035837 30.1053871743642461 28.6327538495249954
 46.5069090283835891 30.1053871743642461 28.6327538495249954
 40.8696848424035863 30.1053871743642461 28.6327538495249954
  1.4092846564235810 30.1053871743642461 28.6327538495249954
 -7.0465093435764183 30.1053871743642461 28.6327538495249954
 -15.5023033435764184 30.1053871743642461 28.6327538495249954
 67.6463517697312113 27.6644335859584807 28.6327538495249954
 62.0091275837512086 27.6644335859584807 28.6327538495249954
 56.3719879557112051 27.6644335859584807 28.6327538495249954
 53.5533335837512112 27.6644335859584807 28.6327538495249954
 47.9161939557112078 27.6644335859584807 28.6327538495249954
 39.4603999557111962 27.6644335859584807 28.6327538495249954
 36.6417455837512094 27.6644335859584807 28.6327538495249954
 31.0046059557112059 27.6644335859584807 28.6327538495249954
 22.5488119557112086 27.6644335859584807 28.6327538495249954
 14.0930179557111952 27.6644335859584807 28.6327538495249954
  8.4557937697312031 27.6644335859584807 28.6327538495249954
 -0.0000002302687971 27.6644335859584807 28.6327538495249954
 -5.6372244162487979 27.6644335859584807 28.6327538495249954
 -8.4557942709040379 32.5463407627700150 28.6327538495249954
 42.2789694040103896 71.6020375533019688 28.6327538495249954
