 H  O 
 1.0000000000000000
    84.5579400000000021    0.0000000000000000    0.0000000000000000
   -42.2789706095346958   73.2293399455724767    0.0000000000000000
     0.0000000000000000    0.0000000000000000   46.9039550000000034
 H   O  
 221 276
Cartesian
 40.8696844902278471 72.4156887494372228 28.1128704123049964
 -1.4092853878652121 57.7698207603227232 28.1128704123049964
 36.6417455972962784 26.0371311936879657 28.1128704123049964
 42.2789697832762812 26.0371311936879657 28.1128704123049964
 47.9161094113162704 26.0371311936879657 28.1128704123049964
 50.7347637832762715 26.0371311936879657 28.1128704123049964
 67.6463517832762875 26.0371311936879657 28.1128704123049964
 -15.5023033300313369 28.4780847820937346 28.1128704123049964
 -1.4092851440513405 28.4780847820937346 28.1128704123049964
  4.2278544839886631 28.4780847820937346 28.1128704123049964
 -9.8650793878652134 57.7698207603227232 28.1128704123049964
 -12.6837337598252144 57.7698207603227232 28.1128704123049964
 18.3208726699686650 28.4780847820937346 28.1128704123049964
 -18.3208733878652161 57.7698207603227232 28.1128704123049964
  7.0465086121347857 57.7698207603227232 28.1128704123049964
 -23.9580975738452153 57.7698207603227232 28.1128704123049964
 45.0975393534824036 55.3288671719169614 28.1128704123049964
 33.8231755394623974 55.3288671719169614 28.1128704123049964
 25.3673815394624036 55.3288671719169614 28.1128704123049964
 -16.9115882573589573 30.9190383704995000 28.1128704123049964
 -14.0930184433389574 30.9190383704995000 28.1128704123049964
 -11.2743640713789581 30.9190383704995000 28.1128704123049964
  8.4557935394624035 55.3288671719169614 28.1128704123049964
  2.8185693534824074 55.3288671719169614 28.1128704123049964
 31.0046059286210465 30.9190383704995000 28.1128704123049964
 -0.0000004605375943 55.3288671719169614 28.1128704123049964
 -11.2744488324975958 55.3288671719169614 28.1128704123049964
 45.0975395566610331 30.9190383704995000 28.1128704123049964
 53.5533335566610376 30.9190383704995000 28.1128704123049964
 -32.4138915738452127 57.7698207603227232 28.1128704123049964
 64.8277819286210502 30.9190383704995000 28.1128704123049964
 15.5023026121347893 57.7698207603227232 28.1128704123049964
 -14.0930184027037182 26.0371311936879657 28.1128704123049964
  1.4092421065489333 62.6518011664742076 28.1128704123049964
 46.5068668442297550 18.7141971991307194 28.1128704123049964
 52.1440064722697443 18.7141971991307194 28.1128704123049964
 -1.4093277074710613 62.6518011664742076 28.1128704123049964
 -0.0000424550578693 21.1551507875364884 28.1128704123049964
 39.4603996848071645 60.2107743487284921 28.1128704123049964
  8.4557515449421317 21.1551507875364884 28.1128704123049964
 11.2744059169021327 21.1551507875364884 28.1128704123049964
 25.3673395449421299 21.1551507875364884 28.1128704123049964
 25.3673814988271609 60.2107743487284921 28.1128704123049964
 16.9115874988271635 60.2107743487284921 28.1128704123049964
 11.2743633128471661 60.2107743487284921 28.1128704123049964
 42.2789275449421211 21.1551507875364884 28.1128704123049964
 -5.6372244027037182 26.0371311936879657 28.1128704123049964
 53.5533759169021195 21.1551507875364884 28.1128704123049964
 -0.0000005011728327 60.2107743487284921 28.1128704123049964
 -7.0465517715441273 48.0059331773597151 28.1128704123049964
 -25.3673825011728376 60.2107743487284921 28.1128704123049964
  4.2278968035945095 23.5961043759422537 28.1128704123049964
  9.8651209895745122 23.5961043759422537 28.1128704123049964
 12.6836908035945140 23.5961043759422537 28.1128704123049964
 18.3209149895745149 23.5961043759422537 28.1128704123049964
 43.6882544261547849 57.7698207603227232 28.1128704123049964
 35.2324604261547876 57.7698207603227232 28.1128704123049964
 49.3254366176144998 23.5961043759422537 28.1128704123049964
 57.7812306176145043 23.5961043759422537 28.1128704123049964
 63.4184548035945070 23.5961043759422537 28.1128704123049964
 69.0556789895745169 23.5961043759422537 28.1128704123049964
 64.8277397309221328 21.1551507875364884 28.1128704123049964
 -12.6836912776771893 33.3600651882452155 28.1128704123049964
 49.3254363738006276 52.8878403541712458 28.1128704123049964
 46.5068665597806330 52.8878403541712458 28.1128704123049964
 -14.0929763269117494 50.4468867657654769 28.1128704123049964
 19.7301574753893405 40.6829991828024689 28.1128704123049964
 22.5487272894093422 40.6829991828024689 28.1128704123049964
 31.0045212894093325 40.6829991828024689 28.1128704123049964
 36.6417454753893352 40.6829991828024689 28.1128704123049964
 -19.7302005128917450 50.4468867657654769 28.1128704123049964
 53.5533334753893371 40.6829991828024689 28.1128704123049964
 -28.1859945128917460 50.4468867657654769 28.1128704123049964
 -15.5023034519382783 43.1239527712082307 28.1128704123049964
 -7.0465094519382783 43.1239527712082307 28.1128704123049964
  9.8650785480617262 43.1239527712082307 28.1128704123049964
 12.6836483620817209 43.1239527712082307 28.1128704123049964
 23.9580967340417281 43.1239527712082307 28.1128704123049964
  5.6371392894093386 40.6829991828024689 28.1128704123049964
 26.7766665480617228 43.1239527712082307 28.1128704123049964
 49.3254787340417238 43.1239527712082307 28.1128704123049964
 29.5952786004158739 48.0059331773597151 28.1128704123049964
 -16.9115883792659005 45.5649063596139996 28.1128704123049964
 -14.0930185652459006 45.5649063596139996 28.1128704123049964
 21.1394846004158765 48.0059331773597151 28.1128704123049964
 -2.8185701932858982 45.5649063596139996 28.1128704123049964
 18.3208302284558755 48.0059331773597151 28.1128704123049964
 15.5022604144358738 48.0059331773597151 28.1128704123049964
 19.7301574347541049 45.5649063596139996 28.1128704123049964
 22.5488118067141059 45.5649063596139996 28.1128704123049964
 25.3673816207341005 45.5649063596139996 28.1128704123049964
 -1.4093275855641247 48.0059331773597151 28.1128704123049964
 53.5533334347540944 45.5649063596139996 28.1128704123049964
 40.8696847340417122 43.1239527712082307 28.1128704123049964
  2.8185694753893440 40.6829991828024689 28.1128704123049964
 -2.8186547105906588 40.6829991828024689 28.1128704123049964
 -0.0000426988717480 50.4468867657654769 28.1128704123049964
 -4.2278972776771910 33.3600651882452155 28.1128704123049964
 29.5952785597806276 52.8878403541712458 28.1128704123049964
 21.1394847223228126 33.3600651882452155 28.1128704123049964
 29.5952787223228171 33.3600651882452155 28.1128704123049964
 12.6836905597806329 52.8878403541712458 28.1128704123049964
 43.6882123503628037 33.3600651882452155 28.1128704123049964
 46.5068667223228047 33.3600651882452155 28.1128704123049964
  1.4093267457606342 52.8878403541712458 28.1128704123049964
 63.4184547223228137 33.3600651882452155 28.1128704123049964
 -4.2278974402193654 52.8878403541712458 28.1128704123049964
 -7.0464672542393672 52.8878403541712458 28.1128704123049964
 -15.5022612542393716 52.8878403541712458 28.1128704123049964
  8.4557514230351885 35.8010187766509844 28.1128704123049964
 16.9115454230351894 35.8010187766509844 28.1128704123049964
 32.4138904902278497 72.4156887494372228 28.1128704123049964
 -29.5952794402193682 52.8878403541712458 28.1128704123049964
 50.7347214230351895 35.8010187766509844 28.1128704123049964
 59.1905154230351869 35.8010187766509844 28.1128704123049964
 -12.6836913183124267 38.2419723650567462 28.1128704123049964
 15.5022604957075725 38.2419723650567462 28.1128704123049964
 31.0045634871082498 50.4468867657654769 28.1128704123049964
 23.9580544957075787 38.2419723650567462 28.1128704123049964
 26.7767088676675797 38.2419723650567462 28.1128704123049964
 32.4138484957075690 38.2419723650567462 28.1128704123049964
 43.6882968676675674 38.2419723650567462 28.1128704123049964
 11.2744056730882534 50.4468867657654769 28.1128704123049964
 54.9626606816875736 38.2419723650567462 28.1128704123049964
 -22.5488125246106605 40.6829991828024689 28.1128704123049964
 -14.0930185246106596 40.6829991828024689 28.1128704123049964
 38.0510728442297577 18.7141971991307194 28.1128704123049964
 32.4138486582497549 18.7141971991307194 28.1128704123049964
 -12.6836911964054888 23.5961043759422537 28.1128704123049964
 32.4138487395214483  8.9502363868277595 28.1128704123049964
 29.5952784378736951 67.5337083432857384 28.1128704123049964
  9.8651206238536986 67.5337083432857384 28.1128704123049964
 50.7347216668490617  6.5092827984219914 28.1128704123049964
  1.4093266238536943 67.5337083432857384 28.1128704123049964
 67.6463096668490635  6.5092827984219914 28.1128704123049964
 -4.2278975621263015 67.5337083432857384 28.1128704123049964
 78.9207580388090690  6.5092827984219914 28.1128704123049964
 -7.0464673761463033 67.5337083432857384 28.1128704123049964
 12.6836909255014501  8.9502363868277595 28.1128704123049964
 23.9580547395214474  8.9502363868277595 28.1128704123049964
 29.5952788442297496 18.7141971991307194 28.1128704123049964
 -12.6836915621263024 67.5337083432857384 28.1128704123049964
 -39.4604007684245346 69.9747351610314468 28.1128704123049964
 49.3254367395214430  8.9502363868277595 28.1128704123049964
 -21.1394855621263069 67.5337083432857384 28.1128704123049964
 63.4184549255014502  8.9502363868277595 28.1128704123049964
 -23.9580553761463051 67.5337083432857384 28.1128704123049964
 -29.5952795621263043 67.5337083432857384 28.1128704123049964
 -5.6372242807967794 11.3912632045734714 28.1128704123049964
 -2.8186544667767790 11.3912632045734714 28.1128704123049964
 11.2743637192032189 11.3912632045734714 28.1128704123049964
 16.9115879051832216 11.3912632045734714 28.1128704123049964
 19.7301577192032234 11.3912632045734714 28.1128704123049964
 22.5487275332232180 11.3912632045734714 28.1128704123049964
 25.3673819051832226 11.3912632045734714 28.1128704123049964
 36.6417875511813165 65.0927547548799765 28.1128704123049964
 52.1440911114814512  8.9502363868277595 28.1128704123049964
 16.9115456668490722  6.5092827984219914 28.1128704123049964
 -25.3673825824445345 69.9747351610314468 28.1128704123049964
 -19.7302429544045346 69.9747351610314468 28.1128704123049964
 28.1859518004749177  1.6273023922705114 28.1128704123049964
 36.6417458004749221  1.6273023922705114 28.1128704123049964
 39.4604001724349231  1.6273023922705114 28.1128704123049964
 42.2789699864549249  1.6273023922705114 28.1128704123049964
 45.0975398004749266  1.6273023922705114 28.1128704123049964
 47.9161941724349276  1.6273023922705114 28.1128704123049964
 -7.0465096957521522 72.4156887494372228 28.1128704123049964
 67.6463519864549170  1.6273023922705114 28.1128704123049964
 73.2835761724349197  1.6273023922705114 28.1128704123049964
 -9.8650795097721549 72.4156887494372228 28.1128704123049964
 -1.4093272198433096  4.0683292100162243 28.1128704123049964
  1.4092425941766900  4.0683292100162243 28.1128704123049964
 -18.3208735097721558 72.4156887494372228 28.1128704123049964
 -23.9580976957521585 72.4156887494372228 28.1128704123049964
 -26.7766675097721567 72.4156887494372228 28.1128704123049964
 -32.4138916957521559 72.4156887494372228 28.1128704123049964
 18.3208305941766909  4.0683292100162243 28.1128704123049964
 21.1394849661366919  4.0683292100162243 28.1128704123049964
 -40.8696856957521533 72.4156887494372228 28.1128704123049964
 39.4603150455954648 69.9747351610314468 28.1128704123049964
 25.3673814175554639 69.9747351610314468 28.1128704123049964
 49.3254367801566929  4.0683292100162243 28.1128704123049964
  5.6371390455954664 69.9747351610314468 28.1128704123049964
 74.6928187801566850  4.0683292100162243 28.1128704123049964
 -16.9115885824445336 69.9747351610314468 28.1128704123049964
 -0.0000423331509293  6.5092827984219914 28.1128704123049964
  5.6371818528290705  6.5092827984219914 28.1128704123049964
 33.8231759051832199 11.3912632045734714 28.1128704123049964
 56.3719035332232110 11.3912632045734714 28.1128704123049964
 -9.8651215855641290 48.0059331773597151 28.1128704123049964
 59.1905579051832120 11.3912632045734714 28.1128704123049964
 35.2324607918756030 13.8322167929792403 28.1128704123049964
 49.3254789778556031 13.8322167929792403 28.1128704123049964
 52.1440487918755977 13.8322167929792403 28.1128704123049964
 57.7812729778555934 13.8322167929792403 28.1128704123049964
 66.2370669778556049 13.8322167929792403 28.1128704123049964
 73.2835760505279836 16.2731703813850075 28.1128704123049964
 67.6463518645479809 16.2731703813850075 28.1128704123049964
 15.5022602925289341 62.6518011664742076 28.1128704123049964
 -28.1859946347986892 65.0927547548799765 28.1128704123049964
 18.3208301065489287 62.6518011664742076 28.1128704123049964
 45.0975396785679763 16.2731703813850075 28.1128704123049964
 42.2789698645479817 16.2731703813850075 28.1128704123049964
 28.1859516785679780 16.2731703813850075 28.1128704123049964
 -0.0000001354520196 16.2731703813850075 28.1128704123049964
 23.9580542925289315 62.6518011664742076 28.1128704123049964
 22.5488120505279817 16.2731703813850075 28.1128704123049964
 29.5952784785089271 62.6518011664742076 28.1128704123049964
 14.0930180505279825 16.2731703813850075 28.1128704123049964
 21.1394844785089369 62.6518011664742076 28.1128704123049964
 -22.5487704488186900 65.0927547548799765 28.1128704123049964
  8.4557938645479798 16.2731703813850075 28.1128704123049964
 73.2834915332232129 11.3912632045734714 28.1128704123049964
  7.0465089778555976 13.8322167929792403 28.1128704123049964
 12.6836904785089395 62.6518011664742076 28.1128704123049964
 -5.6371824488186855 65.0927547548799765 28.1128704123049964
 -11.2744066347986838 65.0927547548799765 28.1128704123049964
  9.8650361065489385 62.6518011664742076 28.1128704123049964
  4.2278968442297478 18.7141971991307194 28.1128704123049964
 -0.0000428207786890 65.0927547548799765 28.1128704123049964
 18.3208304722697477 18.7141971991307194 28.1128704123049964
 16.9115874040103833 71.6020375533019688 28.6327538495249954
  8.4557936071890190 47.1922087518845075 28.6327538495249954
  5.6372237931690181 47.1922087518845075 28.6327538495249954
 18.3209146103086198 69.1610107355562462 28.6327538495249954
 -12.6836914131292051 49.6332355696302230 28.6327538495249954
  8.4557934040103735 71.6020375533019688 28.6327538495249954
 -1.4092432037113782 69.1610107355562462 28.6327538495249954
 29.5953207845697079 59.3971231525932382 28.6327538495249954
 -4.2278975756713866 69.1610107355562462 28.6327538495249954
  7.0465085985897025 59.3971231525932382 28.6327538495249954
  7.0464664008907913 49.6332355696302230 28.6327538495249954
 22.5488115899903860 71.6020375533019688 28.6327538495249954
 28.1859512180303895 71.6020375533019688 28.6327538495249954
 23.9580544008907985 49.6332355696302230 28.6327538495249954
 -7.0465095873903012 59.3971231525932382 28.6327538495249954
  2.8186539791490159 47.1922087518845075 28.6327538495249954
  4.2278965868707896 49.6332355696302230 28.6327538495249954
 -23.9580552271492060 49.6332355696302230 28.6327538495249954
 38.0511147845697053 59.3971231525932382 28.6327538495249954
 -5.6371401427579215 61.8380767409990000 28.6327538495249954
 31.0046057931690235 47.1922087518845075 28.6327538495249954
 33.8231756071890288 47.1922087518845075 28.6327538495249954
 -0.0000005959896168 71.6020375533019688 28.6327538495249954
 -14.0929341427579153 61.8380767409990000 28.6327538495249954
  8.4557934852820722 61.8380767409990000 28.6327538495249954
 36.6418299791490298 47.1922087518845075 28.6327538495249954
 31.0046056712620839 61.8380767409990000 28.6327538495249954
 -31.0045221427579136 61.8380767409990000 28.6327538495249954
 39.4603997931690245 47.1922087518845075 28.6327538495249954
 45.0976239791490272 47.1922087518845075 28.6327538495249954
 49.3254785985897115 59.3971231525932382 28.6327538495249954
 -14.0930187819696204 71.6020375533019688 28.6327538495249954
 11.2744479791490271 47.1922087518845075 28.6327538495249954
 47.9161937931690360 47.1922087518845075 28.6327538495249954
 11.2743632180303894 71.6020375533019688 28.6327538495249954
 14.0930175899903762 71.6020375533019688 28.6327538495249954
 35.2324604126097114 59.3971231525932382 28.6327538495249954
 -19.7301583287379145 61.8380767409990000 28.6327538495249954
 52.1440907728507952 49.6332355696302230 28.6327538495249954
 -29.5952372154302985 59.3971231525932382 28.6327538495249954
 25.3674238455231631 52.0741891580359919 28.6327538495249954
 -8.4557522763837714 66.7200571471504844 28.6327538495249954
 36.6417876595431693 52.0741891580359919 28.6327538495249954
 42.2790118455231720 52.0741891580359919 28.6327538495249954
 -16.9115462763837670 66.7200571471504844 28.6327538495249954
 -26.7766250818044469 54.5151427464417537 28.6327538495249954
 -32.4138493490561430 64.2791035587447084 28.6327538495249954
 -23.9580552677844487 54.5151427464417537 28.6327538495249954
 11.2743633399373131 56.9561695641874692 28.6327538495249954
 -33.8231342763837688 66.7200571471504844 28.6327538495249954
 18.3209147322155452 54.5151427464417537 28.6327538495249954
 22.5487694735631763 52.0741891580359919 28.6327538495249954
 21.1394845462355612 54.5151427464417537 28.6327538495249954
 -36.6417886483437698 66.7200571471504844 28.6327538495249954
 -2.8185702881026811 56.9561695641874692 28.6327538495249954
 43.6882966509438617 64.2791035587447084 28.6327538495249954
 -18.3209157210161457 64.2791035587447084 28.6327538495249954
 38.0510725462355595 54.5151427464417537 28.6327538495249954
 -5.6372246600626781 56.9561695641874692 28.6327538495249954
 -19.7301582881026789 56.9561695641874692 28.6327538495249954
 35.2325026509438644 64.2791035587447084 28.6327538495249954
 29.5952784649638616 64.2791035587447084 28.6327538495249954
  7.0464662789838490 64.2791035587447084 28.6327538495249954
  4.2278964649638544 64.2791035587447084 28.6327538495249954
 23.9581389181955480 54.5151427464417537 28.6327538495249954
 19.7301573399373318 56.9561695641874692 28.6327538495249954
 19.7301996595431604 52.0741891580359919 28.6327538495249954
 16.9116298455231728 52.0741891580359919 28.6327538495249954
 32.4138484008907994 49.6332355696302230 28.6327538495249954
 33.8232177236162386 66.7200571471504844 28.6327538495249954
 35.2325027728508005 49.6332355696302230 28.6327538495249954
 49.3254364008908013 49.6332355696302230 28.6327538495249954
 -8.4557944740826727 56.9561695641874692 28.6327538495249954
 31.0045633516562411 66.7200571471504844 28.6327538495249954
 36.6418298572420866 61.8380767409990000 28.6327538495249954
 19.7301995376362349 66.7200571471504844 28.6327538495249954
 14.0929753516562410 66.7200571471504844 28.6327538495249954
 -22.5487703404568300 52.0741891580359919 28.6327538495249954
 39.4603996712620955 61.8380767409990000 28.6327538495249954
 -19.7302005264368283 52.0741891580359919 28.6327538495249954
  8.4558357236162376 66.7200571471504844 28.6327538495249954
 -8.4557521544768282 52.0741891580359919 28.6327538495249954
  5.6371813516562215 66.7200571471504844 28.6327538495249954
 42.2789694852820901 61.8380767409990000 28.6327538495249954
 -2.8186125264368322 52.0741891580359919 28.6327538495249954
 -32.4138915873902960 59.3971231525932382 28.6327538495249954
 47.9161936712620928 61.8380767409990000 28.6327538495249954
  5.6371814735631682 52.0741891580359919 28.6327538495249954
 39.4603997118973240 56.9561695641874692 28.6327538495249954
 -5.6371824623637705 66.7200571471504844 28.6327538495249954
  8.4558358455231772 52.0741891580359919 28.6327538495249954
 -35.2325037210161440 64.2791035587447084 28.6327538495249954
 22.5488117118973186 56.9561695641874692 28.6327538495249954
 -18.3208734014102959 59.3971231525932382 28.6327538495249954
  2.8186538572420905 61.8380767409990000 28.6327538495249954
  1.4092849002374601  0.8136511961352557 28.6327538495249954
 -25.3673823928109776 47.1922087518845075 28.6327538495249954
  4.2279391502905188 15.4595191852497500 28.6327538495249954
  1.4092847783305213 15.4595191852497500 28.6327538495249954
 -7.0465092216694787 15.4595191852497500 28.6327538495249954
 70.4649217056581421 13.0185655968439828 28.6327538495249954
 67.6463518916381474 13.0185655968439828 28.6327538495249954
 45.0975397056581500 13.0185655968439828 28.6327538495249954
 31.0046060776181456 13.0185655968439828 28.6327538495249954
 28.1859517056581375 13.0185655968439828 28.6327538495249954
 12.6837331502905215 15.4595191852497500 28.6327538495249954
  5.6372240776181393 13.0185655968439828 28.6327538495249954
 71.8742489119563714 10.5775387790982709 28.6327538495249954
 69.0556790979363768 10.5775387790982709 28.6327538495249954
 54.9626609119563767 10.5775387790982709 28.6327538495249954
 43.6882970979363634 10.5775387790982709 28.6327538495249954
 40.8697272839163759 10.5775387790982709 28.6327538495249954
 38.0510729119563607 10.5775387790982709 28.6327538495249954
 29.5952789119563668 10.5775387790982709 28.6327538495249954
 15.5023452839163713 10.5775387790982709 28.6327538495249954
  2.8185697056581414 13.0185655968439828 28.6327538495249954
 18.3208727783305179 15.4595191852497500 28.6327538495249954
 23.9580969643105171 15.4595191852497500 28.6327538495249954
 54.9627031502905297 15.4595191852497500 28.6327538495249954
 38.0510728306846602 20.3414995914012344 28.6327538495249954
 35.2325030166646727 20.3414995914012344 28.6327538495249954
 26.7767090166646753 20.3414995914012344 28.6327538495249954
 21.1394848306846654 20.3414995914012344 28.6327538495249954
 15.5022606447046662 20.3414995914012344 28.6327538495249954
  7.0464666447046698 20.3414995914012344 28.6327538495249954
 -4.2278971693153311 20.3414995914012344 28.6327538495249954
 -7.0464669833353293 20.3414995914012344 28.6327538495249954
 73.2835760369829075 17.9004727736555189 28.6327538495249954
 62.0092122229629013 17.9004727736555189 28.6327538495249954
 59.1905578510029073 17.9004727736555189 28.6327538495249954
 56.3719880369828985 17.9004727736555189 28.6327538495249954
 39.4604000369828896 17.9004727736555189 28.6327538495249954
 33.8231758510028868 17.9004727736555189 28.6327538495249954
 14.0930180369829028 17.9004727736555189 28.6327538495249954
 -5.6371397770370981 17.9004727736555189 28.6327538495249954
 -8.4557941489970982 17.9004727736555189 28.6327538495249954
 63.4184971502905270 15.4595191852497500 28.6327538495249954
 60.5998427783305331 15.4595191852497500 28.6327538495249954
  7.0465512839163686 10.5775387790982709 28.6327538495249954
 40.8696426447046761 20.3414995914012344 28.6327538495249954
  1.4093270979363695 10.5775387790982709 28.6327538495249954
 73.2835338392839901  8.1365851906925037 28.6327538495249954
 53.5534183448698329  3.2546047845410229 28.6327538495249954
 31.0046061588898354  3.2546047845410229 28.6327538495249954
 28.1860363448698337  3.2546047845410229 28.6327538495249954
 25.3673819729098362  3.2546047845410229 28.6327538495249954
 14.0930181588898407  3.2546047845410229 28.6327538495249954
 11.2744483448698372  3.2546047845410229 28.6327538495249954
  8.4557939729098397  3.2546047845410229 28.6327538495249954
  5.6372241588898389  3.2546047845410229 28.6327538495249954
 59.1905579729098434  3.2546047845410229 28.6327538495249954
 83.1486550862174738  0.8136511961352557 28.6327538495249954
 63.4184972721974631  0.8136511961352557 28.6327538495249954
 60.5998429002374621  0.8136511961352557 28.6327538495249954
 49.3254790862174488  0.8136511961352557 28.6327538495249954
 26.7766669002374584  0.8136511961352557 28.6327538495249954
 23.9580970862174638  0.8136511961352557 28.6327538495249954
 21.1395272721974621  0.8136511961352557 28.6327538495249954
  9.8650789002374601  0.8136511961352557 28.6327538495249954
  7.0465090862174584  0.8136511961352557 28.6327538495249954
 77.5114309002374711  0.8136511961352557 28.6327538495249954
 62.0092123448698445  3.2546047845410229 28.6327538495249954
 64.8277821588898462  3.2546047845410229 28.6327538495249954
 78.9208003448698463  3.2546047845410229 28.6327538495249954
 56.3719458392839954  8.1365851906925037 28.6327538495249954
 42.2790122112439946  8.1365851906925037 28.6327538495249954
 39.4603578392839793  8.1365851906925037 28.6327538495249954
 28.1859940252639873  8.1365851906925037 28.6327538495249954
  8.4558362112439873  8.1365851906925037 28.6327538495249954
 80.3300429525916257  5.6956316022867357 28.6327538495249954
 77.5114731385716169  5.6956316022867357 28.6327538495249954
 60.5998851385716151  5.6956316022867357 28.6327538495249954
 52.1440911385716035  5.6956316022867357 28.6327538495249954
 46.5068669525916008  5.6956316022867357 28.6327538495249954
 43.6882971385716132  5.6956316022867357 28.6327538495249954
 40.8696427666115980  5.6956316022867357 28.6327538495249954
 38.0510729525916105  5.6956316022867357 28.6327538495249954
 35.2325031385716159  5.6956316022867357 28.6327538495249954
 32.4138487666116077  5.6956316022867357 28.6327538495249954
 26.7767091385716043  5.6956316022867357 28.6327538495249954
 23.9580547666116068  5.6956316022867357 28.6327538495249954
 12.6836909525916113  5.6956316022867357 28.6327538495249954
  9.8651211385716078  5.6956316022867357 28.6327538495249954
 78.9207580252639929  8.1365851906925037 28.6327538495249954
 57.7812306447046780 20.3414995914012344 28.6327538495249954
 69.0556790166646692 20.3414995914012344 28.6327538495249954
 71.8742488306846781 20.3414995914012344 28.6327538495249954
 50.7348059674301126 37.4283211689214923 28.6327538495249954
 47.9161515954701187 37.4283211689214923 28.6327538495249954
 36.6417877814501125 37.4283211689214923 28.6327538495249954
 19.7301997814501142 37.4283211689214923 28.6327538495249954
 11.2744057814501097 37.4283211689214923 28.6327538495249954
 -16.9115460325698876 37.4283211689214923 28.6327538495249954
 -19.7302004045298887 37.4283211689214923 28.6327538495249954
 63.4184547087777446 34.9873675805157234 28.6327538495249954
 -18.3208309598975099 39.8692747573272612 28.6327538495249954
 40.8696425227977400 34.9873675805157234 28.6327538495249954
 12.6836907087777320 34.9873675805157234 28.6327538495249954
  4.2278967087777302 34.9873675805157234 28.6327538495249954
  1.4093268947577322 34.9873675805157234 28.6327538495249954
 -7.0464671052422672 34.9873675805157234 28.6327538495249954
 -9.8651214772022673 34.9873675805157234 28.6327538495249954
 -15.5022611052422672 34.9873675805157234 28.6327538495249954
 59.1905577290959641 32.5463407627700150 28.6327538495249954
 56.3719879150759695 32.5463407627700150 28.6327538495249954
 35.2325028947577295 34.9873675805157234 28.6327538495249954
 -7.0464671458775081 39.8692747573272612 28.6327538495249954
 -4.2278973318575099 39.8692747573272612 28.6327538495249954
 15.5023450401024956 39.8692747573272612 28.6327538495249954
 57.7812727204966521 44.7512551634787386 28.6327538495249954
 43.6882545345166520 44.7512551634787386 28.6327538495249954
 40.8696847204966431 44.7512551634787386 28.6327538495249954
 38.0511149064766485 44.7512551634787386 28.6327538495249954
 32.4138907204966458 44.7512551634787386 28.6327538495249954
  7.0465087204966403 44.7512551634787386 28.6327538495249954
  4.2279389064766386 44.7512551634787386 28.6327538495249954
  1.4092845345166412 44.7512551634787386 28.6327538495249954
 -4.2278550935233552 44.7512551634787386 28.6327538495249954
 -21.1394430935233544 44.7512551634787386 28.6327538495249954
 -23.9580974654833554 44.7512551634787386 28.6327538495249954
 59.1905576478242708 42.3103015750729767 28.6327538495249954
 28.1859514618442688 42.3103015750729767 28.6327538495249954
 22.5488118338042653 42.3103015750729767 28.6327538495249954
 16.9115876478242626 42.3103015750729767 28.6327538495249954
 -8.4557943521757366 42.3103015750729767 28.6327538495249954
 -19.7301581661957393 42.3103015750729767 28.6327538495249954
 52.1440908541225028 39.8692747573272612 28.6327538495249954
 46.5068666681425000 39.8692747573272612 28.6327538495249954
 39.4603999150759606 32.5463407627700150 28.6327538495249954
 36.6418301010559517 32.5463407627700150 28.6327538495249954
 25.3673817290959498 32.5463407627700150 28.6327538495249954
 22.5488119150759623 32.5463407627700150 28.6327538495249954
 22.5488119557112086 27.6644335859584807 28.6327538495249954
 14.0930179557111952 27.6644335859584807 28.6327538495249954
  8.4557937697312031 27.6644335859584807 28.6327538495249954
 -5.6372244162487979 27.6644335859584807 28.6327538495249954
 66.2371091620094319 25.2234067682127652 28.6327538495249954
 26.7767089760294326 25.2234067682127652 28.6327538495249954
 23.9581391620094379 25.2234067682127652 28.6327538495249954
  7.0465511620094325 25.2234067682127652 28.6327538495249954
  4.2278967900494315 25.2234067682127652 28.6327538495249954
  1.4093269760294336 25.2234067682127652 28.6327538495249954
 45.0975819033570531 22.7824531798069998 28.6327538495249954
 39.4603577173770574 22.7824531798069998 28.6327538495249954
 33.8232180893370540 22.7824531798069998 28.6327538495249954
 28.1859939033570512 22.7824531798069998 28.6327538495249954
 25.3674240893370566 22.7824531798069998 28.6327538495249954
 22.5487697173770485 22.7824531798069998 28.6327538495249954
  2.8186119033570516 22.7824531798069998 28.6327538495249954
 -8.4557519106629488 22.7824531798069998 28.6327538495249954
 -11.2744062826229499 22.7824531798069998 28.6327538495249954
 28.1859515837511907 27.6644335859584807 28.6327538495249954
 -22.5487280208509766 47.1922087518845075 28.6327538495249954
 31.0046059557112059 27.6644335859584807 28.6327538495249954
 53.5533335837512112 27.6644335859584807 28.6327538495249954
 16.9115877290959595 32.5463407627700150 28.6327538495249954
 11.2744481010559561 32.5463407627700150 28.6327538495249954
  8.4557937290959586 32.5463407627700150 28.6327538495249954
  2.8186541010559618 32.5463407627700150 28.6327538495249954
 -0.0000002709040391 32.5463407627700150 28.6327538495249954
 -5.6371398989440404 32.5463407627700150 28.6327538495249954
 -8.4557942709040379 32.5463407627700150 28.6327538495249954
 57.7812728424035953 30.1053871743642461 28.6327538495249954
 49.3254788424035837 30.1053871743642461 28.6327538495249954
 40.8696848424035863 30.1053871743642461 28.6327538495249954
 35.2324606564235907 30.1053871743642461 28.6327538495249954
 26.7766666564235685 30.1053871743642461 28.6327538495249954
 15.5023028424035783 30.1053871743642461 28.6327538495249954
 12.6837330283835765 30.1053871743642461 28.6327538495249954
  9.8650786564235791 30.1053871743642461 28.6327538495249954
 -9.8650791575964192 30.1053871743642461 28.6327538495249954
 62.0091275837512086 27.6644335859584807 28.6327538495249954
 59.1905577697312140 27.6644335859584807 28.6327538495249954
 56.3719879557112051 27.6644335859584807 28.6327538495249954
 47.9161939557112078 27.6644335859584807 28.6327538495249954
 38.0510727087777383 34.9873675805157234 28.6327538495249954
