 H  O 
 1.0000000000000000
    84.5579400000000021    0.0000000000000000    0.0000000000000000
   -42.2789706095346958   73.2293399455724767    0.0000000000000000
     0.0000000000000000    0.0000000000000000   46.9039550000000034
 H   O  
 193 331
Cartesian
 29.5952786816875744 38.2419723650567462 28.1128704123049964
 22.5487274113162819 26.0371311936879657 28.1128704123049964
 28.1859515972962846 26.0371311936879657 28.1128704123049964
 31.0045214113162864 26.0371311936879657 28.1128704123049964
 36.6417455972962784 26.0371311936879657 28.1128704123049964
 -9.8650793878652134 57.7698207603227232 28.1128704123049964
 -21.1395277598252136 57.7698207603227232 28.1128704123049964
 53.5533335972962803 26.0371311936879657 28.1128704123049964
 64.8276974113162794 26.0371311936879657 28.1128704123049964
 -7.0465093300313377 28.4780847820937346 28.1128704123049964
 25.3673815394624036 55.3288671719169614 28.1128704123049964
 16.9115875394624062 55.3288671719169614 28.1128704123049964
 14.0929331675024070 55.3288671719169614 28.1128704123049964
  2.8185695972962814 26.0371311936879657 28.1128704123049964
  8.4557935394624035 55.3288671719169614 28.1128704123049964
 57.7812728559486644 28.4780847820937346 28.1128704123049964
 63.4184124839886536 28.4780847820937346 28.1128704123049964
 66.2370668559486688 28.4780847820937346 28.1128704123049964
 -2.8185700713789608 30.9190383704995000 28.1128704123049964
 52.1440907457606357 52.8878403541712458 28.1128704123049964
 19.7301575566610410 30.9190383704995000 28.1128704123049964
 46.5068665597806330 52.8878403541712458 28.1128704123049964
 43.6882967457606384 52.8878403541712458 28.1128704123049964
 39.4603999286210438 30.9190383704995000 28.1128704123049964
 38.0510725597806356 52.8878403541712458 28.1128704123049964
 50.7347637426410429 30.9190383704995000 28.1128704123049964
 59.1905577426410403 30.9190383704995000 28.1128704123049964
 -2.8186548324975988 55.3288671719169614 28.1128704123049964
 -5.6372244027037182 26.0371311936879657 28.1128704123049964
 63.4184548035945070 23.5961043759422537 28.1128704123049964
 26.7766664261547831 57.7698207603227232 28.1128704123049964
  7.0464666582497495 18.7141971991307194 28.1128704123049964
  9.8650364722697521 18.7141971991307194 28.1128704123049964
 12.6836908442297531 18.7141971991307194 28.1128704123049964
 -12.6836915214910633 62.6518011664742076 28.1128704123049964
 26.7766244722697486 18.7141971991307194 28.1128704123049964
 29.5952788442297496 18.7141971991307194 28.1128704123049964
 40.8696426582497523 18.7141971991307194 28.1128704123049964
 -21.1394855214910677 62.6518011664742076 28.1128704123049964
 -35.2325037074710679 62.6518011664742076 28.1128704123049964
 45.0975393128471538 60.2107743487284921 28.1128704123049964
 33.8231335449421309 21.1551507875364884 28.1128704123049964
 -2.8185703151928343 60.2107743487284921 28.1128704123049964
 36.6417879169021319 21.1551507875364884 28.1128704123049964
 47.9161517309221239 21.1551507875364884 28.1128704123049964
 50.7347215449421185 21.1551507875364884 28.1128704123049964
 -5.6372246871528393 60.2107743487284921 28.1128704123049964
 -19.7301583151928384 60.2107743487284921 28.1128704123049964
 67.6463095449421274 21.1551507875364884 28.1128704123049964
 -4.2278971964054897 23.5961043759422537 28.1128704123049964
  1.4093269895745080 23.5961043759422537 28.1128704123049964
 12.6836908035945140 23.5961043759422537 28.1128704123049964
 15.5022606176145086 23.5961043759422537 28.1128704123049964
 23.9580546176145113 23.5961043759422537 28.1128704123049964
 49.3254786121347877 57.7698207603227232 28.1128704123049964
 29.5952788035945140 23.5961043759422537 28.1128704123049964
 40.8696846121347903 57.7698207603227232 28.1128704123049964
 29.5952362401747777 57.7698207603227232 28.1128704123049964
 -15.5023456496371885 33.3600651882452155 28.1128704123049964
 -4.2278975214910632 62.6518011664742076 28.1128704123049964
 23.9580543738006249 52.8878403541712458 28.1128704123049964
  9.8650363503628089 33.3600651882452155 28.1128704123049964
 28.1859514753893379 40.6829991828024689 28.1128704123049964
 38.0510726004158641 48.0059331773597151 28.1128704123049964
 36.6417454753893352 40.6829991828024689 28.1128704123049964
 42.2789696613693309 40.6829991828024689 28.1128704123049964
 47.9161092894093343 40.6829991828024689 28.1128704123049964
 50.7347636613693425 40.6829991828024689 28.1128704123049964
 12.6836906004158720 48.0059331773597151 28.1128704123049964
 -23.9580974519382757 43.1239527712082307 28.1128704123049964
  4.2278966004158747 48.0059331773597151 28.1128704123049964
  1.4092422284558699 48.0059331773597151 28.1128704123049964
 -15.5023034519382783 43.1239527712082307 28.1128704123049964
 -1.4092852659582757 43.1239527712082307 28.1128704123049964
 22.5487272894093422 40.6829991828024689 28.1128704123049964
 -4.2278973995841262 48.0059331773597151 28.1128704123049964
 -12.6836913995841307 48.0059331773597151 28.1128704123049964
 12.6836483620817209 43.1239527712082307 28.1128704123049964
 15.5023027340417219 43.1239527712082307 28.1128704123049964
 -15.5023457715441282 48.0059331773597151 28.1128704123049964
 -21.1394853995841281 48.0059331773597151 28.1128704123049964
 45.0975394347540970 45.5649063596139996 28.1128704123049964
 33.8231756207340979 45.5649063596139996 28.1128704123049964
 49.3254787340417238 43.1239527712082307 28.1128704123049964
 31.0046058067141033 45.5649063596139996 28.1128704123049964
 52.1440485480617184 43.1239527712082307 28.1128704123049964
 28.1859514347540951 45.5649063596139996 28.1128704123049964
 -8.4557943792659014 45.5649063596139996 28.1128704123049964
  7.0465087340417254 43.1239527712082307 28.1128704123049964
 19.7301574753893405 40.6829991828024689 28.1128704123049964
 -28.1859945128917460 50.4468867657654769 28.1128704123049964
  5.6371392894093386 40.6829991828024689 28.1128704123049964
 23.9580545363428143 33.3600651882452155 28.1128704123049964
 35.2324183503628063 33.3600651882452155 28.1128704123049964
 49.3254365363428136 33.3600651882452155 28.1128704123049964
 -9.8651216261993682 52.8878403541712458 28.1128704123049964
 -5.6371822050048115 35.8010187766509844 28.1128704123049964
 -23.9580552542393690 52.8878403541712458 28.1128704123049964
 -29.5952794402193682 52.8878403541712458 28.1128704123049964
 16.9115454230351894 35.8010187766509844 28.1128704123049964
 25.3673394230351938 35.8010187766509844 28.1128704123049964
 45.0975816730882570 50.4468867657654769 28.1128704123049964
 42.2789274230351850 35.8010187766509844 28.1128704123049964
 53.5533757949951976 35.8010187766509844 28.1128704123049964
 25.3673393011282471 50.4468867657654769 28.1128704123049964
 14.0929754871082551 50.4468867657654769 28.1128704123049964
  8.4557513011282524 50.4468867657654769 28.1128704123049964
 15.5022604957075725 38.2419723650567462 28.1128704123049964
 35.2325028676675771 38.2419723650567462 28.1128704123049964
 49.3254364957075708 38.2419723650567462 28.1128704123049964
 52.1440908676675789 38.2419723650567462 28.1128704123049964
 54.9626606816875736 38.2419723650567462 28.1128704123049964
 60.5998848676675763 38.2419723650567462 28.1128704123049964
 -19.7302427105906588 40.6829991828024689 28.1128704123049964
 -11.2744487105906597 40.6829991828024689 28.1128704123049964
 -14.0929763269117494 50.4468867657654769 28.1128704123049964
 -16.9116306988717469 50.4468867657654769 28.1128704123049964
 -2.8186547105906588 40.6829991828024689 28.1128704123049964
 -22.5487703269117468 50.4468867657654769 28.1128704123049964
 21.1394845597806302 52.8878403541712458 28.1128704123049964
  1.4092421065489333 62.6518011664742076 28.1128704123049964
  7.0464666176145112 23.5961043759422537 28.1128704123049964
 67.6463518645479809 16.2731703813850075 28.1128704123049964
 28.1859517192032243 11.3912632045734714 28.1128704123049964
 31.0045215332232189 11.3912632045734714 28.1128704123049964
 -14.0930187684245301 69.9747351610314468 28.1128704123049964
 45.0975820388090725  6.5092827984219914 28.1128704123049964
 25.3673396668490696  6.5092827984219914 28.1128704123049964
 45.0975397192032190 11.3912632045734714 28.1128704123049964
 14.0929758528290687  6.5092827984219914 28.1128704123049964
 50.7347639051832218 11.3912632045734714 28.1128704123049964
 25.3673819051832226 11.3912632045734714 28.1128704123049964
 11.2743632315754621 69.9747351610314468 28.1128704123049964
 19.7301572315754683 69.9747351610314468 28.1128704123049964
 67.6463519051832236 11.3912632045734714 28.1128704123049964
 76.1021459051832210 11.3912632045734714 28.1128704123049964
 66.2370247801566876  4.0683292100162243 28.1128704123049964
 28.1859512315754728 69.9747351610314468 28.1128704123049964
 52.1440065941766875  4.0683292100162243 28.1128704123049964
 40.8696427801566955  4.0683292100162243 28.1128704123049964
 32.4138487801566981  4.0683292100162243 28.1128704123049964
 56.3719035332232110 11.3912632045734714 28.1128704123049964
 21.1394426058955993 13.8322167929792403 28.1128704123049964
 14.0929335332232206 11.3912632045734714 28.1128704123049964
 39.4603573652013111 65.0927547548799765 28.1128704123049964
 21.1394844378736906 67.5337083432857384 28.1128704123049964
  4.2278964378736958 67.5337083432857384 28.1128704123049964
 35.2325026238536978 67.5337083432857384 28.1128704123049964
 43.6882966238536952 67.5337083432857384 28.1128704123049964
 49.3254367395214430  8.9502363868277595 28.1128704123049964
 52.1440911114814512  8.9502363868277595 28.1128704123049964
 -1.4093272604785494  8.9502363868277595 28.1128704123049964
 66.2370247395214449  8.9502363868277595 28.1128704123049964
 36.6417875511813165 65.0927547548799765 28.1128704123049964
 73.2835760505279836 16.2731703813850075 28.1128704123049964
 -36.6418309544045329 69.9747351610314468 28.1128704123049964
 -18.3209157481063052 67.5337083432857384 28.1128704123049964
 -31.0046067684245337 69.9747351610314468 28.1128704123049964
 -5.6372242807967794 11.3912632045734714 28.1128704123049964
 -2.8186544667767790 11.3912632045734714 28.1128704123049964
 -0.0000000948167802 11.3912632045734714 28.1128704123049964
 62.0091700388090601  6.5092827984219914 28.1128704123049964
 59.1905156668490591  6.5092827984219914 28.1128704123049964
 69.0556791114814530  8.9502363868277595 28.1128704123049964
 26.7766245941766883  4.0683292100162243 28.1128704123049964
 80.3300429661366877  4.0683292100162243 28.1128704123049964
  4.2278541182678469 72.4156887494372228 28.1128704123049964
 -8.4557941354520185 16.2731703813850075 28.1128704123049964
 -0.0000001354520196 16.2731703813850075 28.1128704123049964
 11.2743636785679815 16.2731703813850075 28.1128704123049964
 26.7766667918756056 13.8322167929792403 28.1128704123049964
 47.9161941724349276  1.6273023922705114 28.1128704123049964
 21.1394844785089369 62.6518011664742076 28.1128704123049964
 15.5023024902278443 72.4156887494372228 28.1128704123049964
 21.1394421182678336 72.4156887494372228 28.1128704123049964
 29.5952361182678381 72.4156887494372228 28.1128704123049964
  9.8650361065489385 62.6518011664742076 28.1128704123049964
 38.0510301182678390 72.4156887494372228 28.1128704123049964
 33.8231758645479843 16.2731703813850075 28.1128704123049964
 45.0975396785679763 16.2731703813850075 28.1128704123049964
 50.7347638645479790 16.2731703813850075 28.1128704123049964
  2.8185698004749202  1.6273023922705114 28.1128704123049964
 32.4138482925289324 62.6518011664742076 28.1128704123049964
 40.8696422925289298 62.6518011664742076 28.1128704123049964
  9.8651206238536986 67.5337083432857384 28.1128704123049964
 29.5952366058956002 13.8322167929792403 28.1128704123049964
 12.6836909661366875  4.0683292100162243 28.1128704123049964
 -32.4138916957521559 72.4156887494372228 28.1128704123049964
 31.0045210455954674 69.9747351610314468 28.1128704123049964
 -25.3674248207786874 65.0927547548799765 28.1128704123049964
 -36.6417886347986865 65.0927547548799765 28.1128704123049964
 38.0510306058956047 13.8322167929792403 28.1128704123049964
 33.8231754175554755 69.9747351610314468 28.1128704123049964
 -22.5488127819696196 71.6020375533019688 28.6327538495249954
 26.7767086103086172 69.1610107355562462 28.6327538495249954
 18.3209147728507951 49.6332355696302230 28.6327538495249954
 21.1394845868707826 49.6332355696302230 28.6327538495249954
  5.6372237931690181 47.1922087518845075 28.6327538495249954
 25.3673814040103807 71.6020375533019688 28.6327538495249954
 42.2789696071890333 47.1922087518845075 28.6327538495249954
 29.5952785868707942 49.6332355696302230 28.6327538495249954
 22.5488117931690120 47.1922087518845075 28.6327538495249954
 23.9580967204966342 44.7512551634787386 28.6327538495249954
 35.2325027728508005 49.6332355696302230 28.6327538495249954
 40.8696424008908039 49.6332355696302230 28.6327538495249954
 21.1395269064766467 44.7512551634787386 28.6327538495249954
 49.3254364008908013 49.6332355696302230 28.6327538495249954
 31.0045633516562411 66.7200571471504844 28.6327538495249954
 18.3208725345166314 44.7512551634787386 28.6327538495249954
 28.1859935376362323 66.7200571471504844 28.6327538495249954
 22.5487693516562366 66.7200571471504844 28.6327538495249954
 45.0975815376362448 66.7200571471504844 28.6327538495249954
 40.8697267962886173 69.1610107355562462 28.6327538495249954
 43.6882545345166520 44.7512551634787386 28.6327538495249954
 54.9627029064766432 44.7512551634787386 28.6327538495249954
 15.5023447962886092 69.1610107355562462 28.6327538495249954
 -16.9115885959896168 71.6020375533019688 28.6327538495249954
  1.4093266103086164 69.1610107355562462 28.6327538495249954
 -4.2278975756713866 69.1610107355562462 28.6327538495249954
 -11.2743644100096230 71.6020375533019688 28.6327538495249954
 -9.8650372037113900 69.1610107355562462 28.6327538495249954
 -12.6836915756713875 69.1610107355562462 28.6327538495249954
 -39.4604007819696179 71.6020375533019688 28.6327538495249954
 -9.8651215991092069 49.6332355696302230 28.6327538495249954
 -19.7302005264368283 52.0741891580359919 28.6327538495249954
  9.8651207728507995 49.6332355696302230 28.6327538495249954
 -7.0464672271492059 49.6332355696302230 28.6327538495249954
 -8.4557945959896212 71.6020375533019688 28.6327538495249954
 53.5534179791490246 47.1922087518845075 28.6327538495249954
 -2.8185704100096114 71.6020375533019688 28.6327538495249954
 47.9161937931690360 47.1922087518845075 28.6327538495249954
 11.2743632180303894 71.6020375533019688 28.6327538495249954
 -4.2278974131292042 49.6332355696302230 28.6327538495249954
 -16.9115883928109767 47.1922087518845075 28.6327538495249954
 14.0930175899903762 71.6020375533019688 28.6327538495249954
 -1.4093275991092098 49.6332355696302230 28.6327538495249954
  7.0464664008907913 49.6332355696302230 28.6327538495249954
 -26.7766252037113830 69.1610107355562462 28.6327538495249954
 19.7302419791490244 47.1922087518845075 28.6327538495249954
 33.8232178455231747 52.0741891580359919 28.6327538495249954
 -5.6371823404568273 52.0741891580359919 28.6327538495249954
 -23.9580975873902986 59.3971231525932382 28.6327538495249954
 -32.4138915873902960 59.3971231525932382 28.6327538495249954
 50.7347635259173302 56.9561695641874692 28.6327538495249954
 -32.4138493490561430 64.2791035587447084 28.6327538495249954
 -29.5952795350361448 64.2791035587447084 28.6327538495249954
  9.8650785345166412 44.7512551634787386 28.6327538495249954
 -23.9580553490561456 64.2791035587447084 28.6327538495249954
 -15.5023035873902977 59.3971231525932382 28.6327538495249954
 -15.5022613490561429 64.2791035587447084 28.6327538495249954
 36.6417453399373301 56.9561695641874692 28.6327538495249954
 -12.6836915350361448 64.2791035587447084 28.6327538495249954
 -9.8651217210161430 64.2791035587447084 28.6327538495249954
 19.7301573399373318 56.9561695641874692 28.6327538495249954
 11.2743633399373131 56.9561695641874692 28.6327538495249954
 -1.4093277210161486 64.2791035587447084 28.6327538495249954
  8.4557935259173256 56.9561695641874692 28.6327538495249954
 39.4603997118973240 56.9561695641874692 28.6327538495249954
  1.4093266509438596 64.2791035587447084 28.6327538495249954
 36.6418298572420866 61.8380767409990000 28.6327538495249954
  9.8650784126096909 59.3971231525932382 28.6327538495249954
  2.8186538572420905 61.8380767409990000 28.6327538495249954
  5.6372236712620847 61.8380767409990000 28.6327538495249954
 -8.4557945147179190 61.8380767409990000 28.6327538495249954
  8.4557934852820722 61.8380767409990000 28.6327538495249954
 -14.0929341427579153 61.8380767409990000 28.6327538495249954
 19.7302418572420777 61.8380767409990000 28.6327538495249954
 -25.3673825147179137 61.8380767409990000 28.6327538495249954
 28.1860358572420893 61.8380767409990000 28.6327538495249954
 -28.1859523287379155 61.8380767409990000 28.6327538495249954
 49.3254785985897115 59.3971231525932382 28.6327538495249954
 22.5488116712620865 61.8380767409990000 28.6327538495249954
 38.0511147845697053 59.3971231525932382 28.6327538495249954
 21.1395267845696964 59.3971231525932382 28.6327538495249954
 18.3208724126097096 59.3971231525932382 28.6327538495249954
 15.5023025985896936 59.3971231525932382 28.6327538495249954
 12.6837327845697061 59.3971231525932382 28.6327538495249954
 -31.0045221427579136 61.8380767409990000 28.6327538495249954
 -8.4557521544768282 52.0741891580359919 28.6327538495249954
  2.8185693399373224 56.9561695641874692 28.6327538495249954
  7.0464662789838490 64.2791035587447084 28.6327538495249954
 50.7348058455231694 52.0741891580359919 28.6327538495249954
 -33.8231342763837688 66.7200571471504844 28.6327538495249954
 39.4603574735631781 52.0741891580359919 28.6327538495249954
 -31.0045644623637671 66.7200571471504844 28.6327538495249954
 36.6417876595431693 52.0741891580359919 28.6327538495249954
 31.0045634735631737 52.0741891580359919 28.6327538495249954
 -14.0929764623637634 66.7200571471504844 28.6327538495249954
 -21.1394854537644470 54.5151427464417537 28.6327538495249954
 28.1859936595431719 52.0741891580359919 28.6327538495249954
 11.2744056595431719 52.0741891580359919 28.6327538495249954
 -2.8186126483437688 66.7200571471504844 28.6327538495249954
  5.6371814735631682 52.0741891580359919 28.6327538495249954
  2.8186116595431669 52.0741891580359919 28.6327538495249954
  2.8186115376362340 66.7200571471504844 28.6327538495249954
  0.0000418455231652 52.0741891580359919 28.6327538495249954
 -2.8186125264368322 52.0741891580359919 28.6327538495249954
 -8.4557522763837714 66.7200571471504844 28.6327538495249954
  4.2278964649638544 64.2791035587447084 28.6327538495249954
 -18.3208310818044460 54.5151427464417537 28.6327538495249954
 -7.0464672677844442 54.5151427464417537 28.6327538495249954
 -5.6372246600626781 56.9561695641874692 28.6327538495249954
 12.6836904649638509 64.2791035587447084 28.6327538495249954
 -14.0930186600626755 56.9561695641874692 28.6327538495249954
 -22.5488126600626764 56.9561695641874692 28.6327538495249954
 -28.1859522881026763 56.9561695641874692 28.6327538495249954
 15.5022602789838597 64.2791035587447084 28.6327538495249954
 43.6882967322155622 54.5151427464417537 28.6327538495249954
 -15.5022612677844460 54.5151427464417537 28.6327538495249954
 40.8697269181955534 54.5151427464417537 28.6327538495249954
 32.4139329181955560 54.5151427464417537 28.6327538495249954
 29.5952785462355585 54.5151427464417537 28.6327538495249954
 18.3209146509438554 64.2791035587447084 28.6327538495249954
 26.7767086509438528 64.2791035587447084 28.6327538495249954
 29.5952784649638616 64.2791035587447084 28.6327538495249954
 12.6836905462355407 54.5151427464417537 28.6327538495249954
 -4.2278974537644496 54.5151427464417537 28.6327538495249954
 35.2325027322155506 54.5151427464417537 28.6327538495249954
  4.2279389064766386 44.7512551634787386 28.6327538495249954
  1.4092849002374601  0.8136511961352557 28.6327538495249954
 -1.4092852795033535 44.7512551634787386 28.6327538495249954
 21.1395271502905153 15.4595191852497500 28.6327538495249954
 15.5023029643105232 15.4595191852497500 28.6327538495249954
  1.4092847783305213 15.4595191852497500 28.6327538495249954
 73.2835760776181360 13.0185655968439828 28.6327538495249954
 70.4649217056581421 13.0185655968439828 28.6327538495249954
 64.8277820776181386 13.0185655968439828 28.6327538495249954
 62.0091277056581518 13.0185655968439828 28.6327538495249954
 59.1905578916381430 13.0185655968439828 28.6327538495249954
 53.5533337056581473 13.0185655968439828 28.6327538495249954
 45.0975397056581500 13.0185655968439828 28.6327538495249954
 39.4604000776181465 13.0185655968439828 28.6327538495249954
 33.8231758916381438 13.0185655968439828 28.6327538495249954
 19.7301577056581365 13.0185655968439828 28.6327538495249954
  8.4557938916381428 13.0185655968439828 28.6327538495249954
  5.6372240776181393 13.0185655968439828 28.6327538495249954
  2.8185697056581414 13.0185655968439828 28.6327538495249954
 74.6929032839163654 10.5775387790982709 28.6327538495249954
 71.8742489119563714 10.5775387790982709 28.6327538495249954
 60.5998850979363723 10.5775387790982709 28.6327538495249954
 46.5068669119563793 10.5775387790982709 28.6327538495249954
 43.6882970979363634 10.5775387790982709 28.6327538495249954
 23.9580969643105171 15.4595191852497500 28.6327538495249954
 29.5953211502905269 15.4595191852497500 28.6327538495249954
 46.5069091502905181 15.4595191852497500 28.6327538495249954
 57.7812729643105243 15.4595191852497500 28.6327538495249954
 57.7812306447046780 20.3414995914012344 28.6327538495249954
 54.9626608306846691 20.3414995914012344 28.6327538495249954
 35.2325030166646727 20.3414995914012344 28.6327538495249954
 32.4138486447046574 20.3414995914012344 28.6327538495249954
 21.1394848306846654 20.3414995914012344 28.6327538495249954
 15.5022606447046662 20.3414995914012344 28.6327538495249954
  9.8651210166646699 20.3414995914012344 28.6327538495249954
  4.2278968306846716 20.3414995914012344 28.6327538495249954
  1.4093270166646681 20.3414995914012344 28.6327538495249954
 -1.4093273552953294 20.3414995914012344 28.6327538495249954
 38.0510729119563607 10.5775387790982709 28.6327538495249954
 -4.2278971693153311 20.3414995914012344 28.6327538495249954
 62.0092122229629013 17.9004727736555189 28.6327538495249954
 59.1905578510029073 17.9004727736555189 28.6327538495249954
 56.3719880369828985 17.9004727736555189 28.6327538495249954
 53.5534182229629039 17.9004727736555189 28.6327538495249954
 36.6418302229629020 17.9004727736555189 28.6327538495249954
 19.7302422229628966 17.9004727736555189 28.6327538495249954
 16.9115878510028992 17.9004727736555189 28.6327538495249954
  5.6372240369829028 17.9004727736555189 28.6327538495249954
 -5.6371397770370981 17.9004727736555189 28.6327538495249954
 60.5998427783305331 15.4595191852497500 28.6327538495249954
 -7.0464669833353293 20.3414995914012344 28.6327538495249954
 60.5998850166646719 20.3414995914012344 28.6327538495249954
 35.2325030979363731 10.5775387790982709 28.6327538495249954
  4.2278969119563712 10.5775387790982709 28.6327538495249954
 81.7393701588898551  3.2546047845410229 28.6327538495249954
 62.0092123448698445  3.2546047845410229 28.6327538495249954
 53.5534183448698329  3.2546047845410229 28.6327538495249954
 22.5488121588898416  3.2546047845410229 28.6327538495249954
 19.7302423448698399  3.2546047845410229 28.6327538495249954
 16.9115879729098388  3.2546047845410229 28.6327538495249954
 11.2744483448698372  3.2546047845410229 28.6327538495249954
 -0.0000000270901599  3.2546047845410229 28.6327538495249954
 83.1486550862174738  0.8136511961352557 28.6327538495249954
 77.5114309002374711  0.8136511961352557 28.6327538495249954
 74.6928610862174764  0.8136511961352557 28.6327538495249954
 71.8742912721974676  0.8136511961352557 28.6327538495249954
 69.0556369002374737  0.8136511961352557 28.6327538495249954
 60.5998429002374621  0.8136511961352557 28.6327538495249954
 57.7812730862174604  0.8136511961352557 28.6327538495249954
 52.1440489002374647  0.8136511961352557 28.6327538495249954
 38.0511152721974639  0.8136511961352557 28.6327538495249954
 32.4138910862174541  0.8136511961352557 28.6327538495249954
 21.1395272721974621  0.8136511961352557 28.6327538495249954
 18.3208729002374611  0.8136511961352557 28.6327538495249954
 15.5023030862174611  0.8136511961352557 28.6327538495249954
  1.4093271385716108  5.6956316022867357 28.6327538495249954
  7.0464667666116103  5.6956316022867357 28.6327538495249954
 18.3209151385716105  5.6956316022867357 28.6327538495249954
 21.1394849525916122  5.6956316022867357 28.6327538495249954
 78.9207580252639929  8.1365851906925037 28.6327538495249954
 76.1021882112439840  8.1365851906925037 28.6327538495249954
 70.4649640252639955  8.1365851906925037 28.6327538495249954
 64.8277398392839928  8.1365851906925037 28.6327538495249954
 45.0975820252639821  8.1365851906925037 28.6327538495249954
 39.4603578392839793  8.1365851906925037 28.6327538495249954
 36.6417880252639918  8.1365851906925037 28.6327538495249954
 33.8232182112439972  8.1365851906925037 28.6327538495249954
 31.0045638392839891  8.1365851906925037 28.6327538495249954
 22.5487698392839881  8.1365851906925037 28.6327538495249954
  7.0465512839163686 10.5775387790982709 28.6327538495249954
 19.7302000252639935  8.1365851906925037 28.6327538495249954
  8.4558362112439873  8.1365851906925037 28.6327538495249954
  5.6371818392839907  8.1365851906925037 28.6327538495249954
  2.8186120252639890  8.1365851906925037 28.6327538495249954
 74.6928187666116230  5.6956316022867357 28.6327538495249954
 71.8742489525916284  5.6956316022867357 28.6327538495249954
 69.0556791385716195  5.6956316022867357 28.6327538495249954
 57.7812307666116141  5.6956316022867357 28.6327538495249954
 49.3254367666116167  5.6956316022867357 28.6327538495249954
 43.6882971385716132  5.6956316022867357 28.6327538495249954
 29.5952789525916060  5.6956316022867357 28.6327538495249954
 11.2744060252639908  8.1365851906925037 28.6327538495249954
 63.4184548306846807 20.3414995914012344 28.6327538495249954
 71.8742488306846781 20.3414995914012344 28.6327538495249954
 -11.2744062826229499 22.7824531798069998 28.6327538495249954
 -7.0464671458775081 39.8692747573272612 28.6327538495249954
 -9.8650369598975125 39.8692747573272612 28.6327538495249954
 50.7348059674301126 37.4283211689214923 28.6327538495249954
 42.2790119674301152 37.4283211689214923 28.6327538495249954
 39.4603995899903808 71.6020375533019688 28.6327538495249954
 14.0929755954701115 37.4283211689214923 28.6327538495249954
 11.2744057814501097 37.4283211689214923 28.6327538495249954
  5.6371815954701097 37.4283211689214923 28.6327538495249954
  0.0000419674301133 37.4283211689214923 28.6327538495249954
 -11.2744064045298860 37.4283211689214923 28.6327538495249954
 -14.0929762185498877 37.4283211689214923 28.6327538495249954
 -19.7302004045298887 37.4283211689214923 28.6327538495249954
 63.4184547087777446 34.9873675805157234 28.6327538495249954
 57.7812305227977419 34.9873675805157234 28.6327538495249954
 38.0510727087777383 34.9873675805157234 28.6327538495249954
 35.2325028947577295 34.9873675805157234 28.6327538495249954
 29.5952787087777267 34.9873675805157234 28.6327538495249954
 21.1394847087777364 34.9873675805157234 28.6327538495249954
  4.2278967087777302 34.9873675805157234 28.6327538495249954
  1.4093268947577322 34.9873675805157234 28.6327538495249954
 -7.0464671052422672 34.9873675805157234 28.6327538495249954
  1.4093268541224926 39.8692747573272612 28.6327538495249954
  9.8651208541224857 39.8692747573272612 28.6327538495249954
 12.6836906681424875 39.8692747573272612 28.6327538495249954
 18.3209148541224920 39.8692747573272612 28.6327538495249954
 -12.6836490935233588 44.7512551634787386 28.6327538495249954
 -18.3208732795033562 44.7512551634787386 28.6327538495249954
 -23.9580974654833554 44.7512551634787386 28.6327538495249954
 53.5533334618442680 42.3103015750729767 28.6327538495249954
 50.7347636478242734 42.3103015750729767 28.6327538495249954
 47.9161938338042646 42.3103015750729767 28.6327538495249954
 45.0975394618442706 42.3103015750729767 28.6327538495249954
 42.2789696478242618 42.3103015750729767 28.6327538495249954
 39.4603998338042672 42.3103015750729767 28.6327538495249954
 33.8231756478242644 42.3103015750729767 28.6327538495249954
 -9.8651214772022673 34.9873675805157234 28.6327538495249954
 31.0046058338042556 42.3103015750729767 28.6327538495249954
 11.2743634618442599 42.3103015750729767 28.6327538495249954
  2.8185694618442589 42.3103015750729767 28.6327538495249954
 -19.7301581661957393 42.3103015750729767 28.6327538495249954
 -22.5488125381557367 42.3103015750729767 28.6327538495249954
 60.5998848541225001 39.8692747573272612 28.6327538495249954
 54.9626606681424974 39.8692747573272612 28.6327538495249954
 49.3255210401024939 39.8692747573272612 28.6327538495249954
 43.6882968541224912 39.8692747573272612 28.6327538495249954
 32.4139330401024850 39.8692747573272612 28.6327538495249954
 29.5952786681424982 39.8692747573272612 28.6327538495249954
 28.1859514618442688 42.3103015750729767 28.6327538495249954
 62.0092121010559580 32.5463407627700150 28.6327538495249954
 59.1905577290959641 32.5463407627700150 28.6327538495249954
 56.3719879150759695 32.5463407627700150 28.6327538495249954
 16.9115877697311987 27.6644335859584807 28.6327538495249954
 14.0930179557111952 27.6644335859584807 28.6327538495249954
 11.2743635837511977 27.6644335859584807 28.6327538495249954
  2.8185695837512008 27.6644335859584807 28.6327538495249954
 -2.8185700442888009 27.6644335859584807 28.6327538495249954
 69.0556789760294407 25.2234067682127652 28.6327538495249954
 57.7813151620094345 25.2234067682127652 28.6327538495249954
 49.3255211620094371 25.2234067682127652 28.6327538495249954
 46.5068667900494361 25.2234067682127652 28.6327538495249954
 43.6882969760294344 25.2234067682127652 28.6327538495249954
 19.7301575837512004 27.6644335859584807 28.6327538495249954
 40.8697271620094256 25.2234067682127652 28.6327538495249954
 18.3209149760294281 25.2234067682127652 28.6327538495249954
 -1.4092428379905699 25.2234067682127652 28.6327538495249954
 -9.8650368379905675 25.2234067682127652 28.6327538495249954
 -12.6836912099505668 25.2234067682127652 28.6327538495249954
 59.1906000893370532 22.7824531798069998 28.6327538495249954
 56.3719457173770593 22.7824531798069998 28.6327538495249954
 45.0975819033570531 22.7824531798069998 28.6327538495249954
 39.4603577173770574 22.7824531798069998 28.6327538495249954
 33.8232180893370540 22.7824531798069998 28.6327538495249954
 28.1859939033570512 22.7824531798069998 28.6327538495249954
 32.4139331620094353 25.2234067682127652 28.6327538495249954
  1.4092845345166412 44.7512551634787386 28.6327538495249954
 25.3673817697312032 27.6644335859584807 28.6327538495249954
 45.0975395837512067 27.6644335859584807 28.6327538495249954
 53.5534181010559607 32.5463407627700150 28.6327538495249954
 33.8231757290959649 32.5463407627700150 28.6327538495249954
 31.0046059150759525 32.5463407627700150 28.6327538495249954
 14.0930179150759578 32.5463407627700150 28.6327538495249954
  5.6372239150759640 32.5463407627700150 28.6327538495249954
  2.8186541010559618 32.5463407627700150 28.6327538495249954
 -11.2743640849240396 32.5463407627700150 28.6327538495249954
 57.7812728424035953 30.1053871743642461 28.6327538495249954
 54.9627030283835865 30.1053871743642461 28.6327538495249954
 46.5069090283835891 30.1053871743642461 28.6327538495249954
 42.2789697697312050 27.6644335859584807 28.6327538495249954
 43.6882546564235881 30.1053871743642461 28.6327538495249954
 32.4138908424035748 30.1053871743642461 28.6327538495249954
 26.7766666564235685 30.1053871743642461 28.6327538495249954
 23.9580968424035810 30.1053871743642461 28.6327538495249954
 18.3208726564235782 30.1053871743642461 28.6327538495249954
 15.5023028424035783 30.1053871743642461 28.6327538495249954
 12.6837330283835765 30.1053871743642461 28.6327538495249954
  1.4092846564235810 30.1053871743642461 28.6327538495249954
 -1.4092851575964171 30.1053871743642461 28.6327538495249954
 -12.6836489716164174 30.1053871743642461 28.6327538495249954
 47.9161939557112078 27.6644335859584807 28.6327538495249954
 35.2324606564235907 30.1053871743642461 28.6327538495249954
 42.2789694040103896 71.6020375533019688 28.6327538495249954
