 H  O 
 1.0000000000000000
    84.5579400000000021    0.0000000000000000    0.0000000000000000
   -42.2789706095346958   73.2293399455724767    0.0000000000000000
     0.0000000000000000    0.0000000000000000   46.9039550000000034
 H   O  
 225 379
Cartesian
 -0.0000000135450799  1.6273023922705114 28.1128704123049964
 39.4603154113162731 26.0371311936879657 28.1128704123049964
 45.0975395972962758 26.0371311936879657 28.1128704123049964
 53.5533335972962803 26.0371311936879657 28.1128704123049964
 12.6836482401747883 57.7698207603227232 28.1128704123049964
 56.3719034113162749 26.0371311936879657 28.1128704123049964
  9.8650784261547866 57.7698207603227232 28.1128704123049964
 64.8276974113162794 26.0371311936879657 28.1128704123049964
 67.6463517832762875 26.0371311936879657 28.1128704123049964
 -7.0465095738452108 57.7698207603227232 28.1128704123049964
 -4.2279395160113378 28.4780847820937346 28.1128704123049964
 -9.8650793878652134 57.7698207603227232 28.1128704123049964
 -1.4092851440513405 28.4780847820937346 28.1128704123049964
 12.6836484839886605 28.4780847820937346 28.1128704123049964
 18.3208726699686650 28.4780847820937346 28.1128704123049964
 29.5952364839886641 28.4780847820937346 28.1128704123049964
 -15.5023035738452162 57.7698207603227232 28.1128704123049964
 -23.9580975738452153 57.7698207603227232 28.1128704123049964
 33.8231757426410411 30.9190383704995000 28.1128704123049964
 31.0045211675023928 55.3288671719169614 28.1128704123049964
  8.4557937426410454 30.9190383704995000 28.1128704123049964
  2.8185695566610427 30.9190383704995000 28.1128704123049964
 33.8231755394623974 55.3288671719169614 28.1128704123049964
 -5.6372244433389582 30.9190383704995000 28.1128704123049964
 18.3208724261547857 57.7698207603227232 28.1128704123049964
 -8.4557942573589582 30.9190383704995000 28.1128704123049964
 50.7347635394624064 55.3288671719169614 28.1128704123049964
 63.4184124839886536 28.4780847820937346 28.1128704123049964
 -32.4138915738452127 57.7698207603227232 28.1128704123049964
 -29.5953217598252145 57.7698207603227232 28.1128704123049964
 49.3254788559486528 28.4780847820937346 28.1128704123049964
 -26.7766673878652135 57.7698207603227232 28.1128704123049964
 42.2789695394624090 55.3288671719169614 28.1128704123049964
 45.0975395566610331 30.9190383704995000 28.1128704123049964
 33.8231757832762838 26.0371311936879657 28.1128704123049964
 25.3673817832762829 26.0371311936879657 28.1128704123049964
  9.8650364722697521 18.7141971991307194 28.1128704123049964
 -1.4093277074710613 62.6518011664742076 28.1128704123049964
 12.6836908442297531 18.7141971991307194 28.1128704123049964
 15.5022606582497549 18.7141971991307194 28.1128704123049964
 23.9580546582497540 18.7141971991307194 28.1128704123049964
 -7.0465518934510678 62.6518011664742076 28.1128704123049964
 52.1440064722697443 18.7141971991307194 28.1128704123049964
 45.0975393128471538 60.2107743487284921 28.1128704123049964
 42.2789694988271592 60.2107743487284921 28.1128704123049964
  5.6371817309221299 21.1551507875364884 28.1128704123049964
 14.0929757309221344 21.1551507875364884 28.1128704123049964
 22.5488116848071662 60.2107743487284921 28.1128704123049964
 28.1859939169021310 21.1551507875364884 28.1128704123049964
 39.4603577309221265 21.1551507875364884 28.1128704123049964
  5.6372236848071626 60.2107743487284921 28.1128704123049964
 70.4649639169021356 21.1551507875364884 28.1128704123049964
 -12.6836911964054888 23.5961043759422537 28.1128704123049964
 38.0510302401747822 57.7698207603227232 28.1128704123049964
  5.6371394113162827 26.0371311936879657 28.1128704123049964
 -2.8186545886837178 26.0371311936879657 28.1128704123049964
 40.8696846121347903 57.7698207603227232 28.1128704123049964
 69.0556789895745169 23.5961043759422537 28.1128704123049964
 66.2370246176145088 23.5961043759422537 28.1128704123049964
 26.7766664261547831 57.7698207603227232 28.1128704123049964
 54.9626608035945097 23.5961043759422537 28.1128704123049964
 38.0510728035945078 23.5961043759422537 28.1128704123049964
 -33.8231765011728385 60.2107743487284921 28.1128704123049964
 11.2743634347540986 45.5649063596139996 28.1128704123049964
 -31.0046066871528367 60.2107743487284921 28.1128704123049964
  9.8651209895745122 23.5961043759422537 28.1128704123049964
 -19.7301583151928384 60.2107743487284921 28.1128704123049964
 40.8696426176145025 23.5961043759422537 28.1128704123049964
 -1.4093273417502492 18.7141971991307194 28.1128704123049964
 14.0929331675024070 55.3288671719169614 28.1128704123049964
 -12.6836912776771893 33.3600651882452155 28.1128704123049964
 18.3209148676675753 38.2419723650567462 28.1128704123049964
 -0.0000426988717480 50.4468867657654769 28.1128704123049964
 -2.8186125128917427 50.4468867657654769 28.1128704123049964
 35.2325028676675771 38.2419723650567462 28.1128704123049964
 43.6882968676675674 38.2419723650567462 28.1128704123049964
 57.7812304957075682 38.2419723650567462 28.1128704123049964
 49.3254364144358703 48.0059331773597151 28.1128704123049964
 60.5998848676675763 38.2419723650567462 28.1128704123049964
 43.6882122284558676 48.0059331773597151 28.1128704123049964
 -11.2744487105906597 40.6829991828024689 28.1128704123049964
 -2.8186547105906588 40.6829991828024689 28.1128704123049964
 32.4138484144358685 48.0059331773597151 28.1128704123049964
 -0.0000003386306579 40.6829991828024689 28.1128704123049964
 23.9580544144358711 48.0059331773597151 28.1128704123049964
 21.1394846004158765 48.0059331773597151 28.1128704123049964
 22.5487272894093422 40.6829991828024689 28.1128704123049964
  4.2278966004158747 48.0059331773597151 28.1128704123049964
 25.3673816207341005 45.5649063596139996 28.1128704123049964
  8.4557936207341040 45.5649063596139996 28.1128704123049964
 -2.8185701932858982 45.5649063596139996 28.1128704123049964
 50.7347636207340997 45.5649063596139996 28.1128704123049964
 40.8696847340417122 43.1239527712082307 28.1128704123049964
 53.5533334347540944 45.5649063596139996 28.1128704123049964
  2.8186116730882564 50.4468867657654769 28.1128704123049964
 35.2324605480617166 43.1239527712082307 28.1128704123049964
 29.5952363620817174 43.1239527712082307 28.1128704123049964
  9.8650785480617262 43.1239527712082307 28.1128704123049964
 -15.5023457715441282 48.0059331773597151 28.1128704123049964
 -7.0465094519382783 43.1239527712082307 28.1128704123049964
 -15.5023034519382783 43.1239527712082307 28.1128704123049964
 -9.8651215855641290 48.0059331773597151 28.1128704123049964
 -26.7767095855641273 48.0059331773597151 28.1128704123049964
 11.2743633534824053 55.3288671719169614 28.1128704123049964
  5.6371814871082586 50.4468867657654769 28.1128704123049964
 -18.3209155042924259 38.2419723650567462 28.1128704123049964
 -1.4093274636571897 33.3600651882452155 28.1128704123049964
 -8.4557944605375948 55.3288671719169614 28.1128704123049964
  4.2278967223228134 33.3600651882452155 28.1128704123049964
  7.0464665363428152 33.3600651882452155 28.1128704123049964
 -11.2744488324975958 55.3288671719169614 28.1128704123049964
  9.8650363503628089 33.3600651882452155 28.1128704123049964
 15.5022605363428152 33.3600651882452155 28.1128704123049964
 -28.1860368324975958 55.3288671719169614 28.1128704123049964
 18.3208303503628116 33.3600651882452155 28.1128704123049964
 23.9580545363428143 33.3600651882452155 28.1128704123049964
 26.7766243503628161 33.3600651882452155 28.1128704123049964
 40.8696425363428091 33.3600651882452155 28.1128704123049964
 32.4138483738006258 52.8878403541712458 28.1128704123049964
 52.1440063503628082 33.3600651882452155 28.1128704123049964
 57.7812305363428109 33.3600651882452155 28.1128704123049964
 63.4184547223228137 33.3600651882452155 28.1128704123049964
 21.1394845597806302 52.8878403541712458 28.1128704123049964
 59.1905154230351869 35.8010187766509844 28.1128704123049964
 25.3673393011282471 50.4468867657654769 28.1128704123049964
 56.3719456090151922 35.8010187766509844 28.1128704123049964
 47.9161516090151949 35.8010187766509844 28.1128704123049964
 31.0045636090151895 35.8010187766509844 28.1128704123049964
 25.3673394230351938 35.8010187766509844 28.1128704123049964
 19.7301996730882578 50.4468867657654769 28.1128704123049964
 -23.9580552542393690 52.8878403541712458 28.1128704123049964
 -18.3209156261993691 52.8878403541712458 28.1128704123049964
 19.7301997949951904 35.8010187766509844 28.1128704123049964
  1.4093267457606342 52.8878403541712458 28.1128704123049964
  5.6371816090151947 35.8010187766509844 28.1128704123049964
  2.8186117949951930 35.8010187766509844 28.1128704123049964
 -8.4558365769648098 35.8010187766509844 28.1128704123049964
 22.5487696090151921 35.8010187766509844 28.1128704123049964
  1.4092421065489333 62.6518011664742076 28.1128704123049964
 21.1394848035945166 23.5961043759422537 28.1128704123049964
 16.9115876207341032 45.5649063596139996 28.1128704123049964
  5.6371395332232206 11.3912632045734714 28.1128704123049964
 35.2325026238536978 67.5337083432857384 28.1128704123049964
 25.3673396668490696  6.5092827984219914 28.1128704123049964
 14.0929758528290687  6.5092827984219914 28.1128704123049964
 21.1394844378736906 67.5337083432857384 28.1128704123049964
 19.7301577192032234 11.3912632045734714 28.1128704123049964
 12.6836904378736932 67.5337083432857384 28.1128704123049964
 -0.0000423331509293  6.5092827984219914 28.1128704123049964
 36.6417457192032217 11.3912632045734714 28.1128704123049964
  7.0464662518936976 67.5337083432857384 28.1128704123049964
 62.0091277192032209 11.3912632045734714 28.1128704123049964
 -5.6372242807967794 11.3912632045734714 28.1128704123049964
 77.5113885941766796  4.0683292100162243 28.1128704123049964
 -7.0464673761463033 67.5337083432857384 28.1128704123049964
 -15.5022613761463042 67.5337083432857384 28.1128704123049964
 76.1021036668490609  6.5092827984219914 28.1128704123049964
  9.8650787918756002 13.8322167929792403 28.1128704123049964
 -35.2324615097721576 72.4156887494372228 28.1128704123049964
 74.6928187801566850  4.0683292100162243 28.1128704123049964
 -29.5952795621263043 67.5337083432857384 28.1128704123049964
 23.9580969778556039 13.8322167929792403 28.1128704123049964
 -35.2325037481063035 67.5337083432857384 28.1128704123049964
 39.4603573652013111 65.0927547548799765 28.1128704123049964
 54.9626609661366956  4.0683292100162243 28.1128704123049964
 73.2834915332232129 11.3912632045734714 28.1128704123049964
 29.5952366058956002 13.8322167929792403 28.1128704123049964
 33.8231336668490670  6.5092827984219914 28.1128704123049964
 42.2789694175554729 69.9747351610314468 28.1128704123049964
 62.0091700388090601  6.5092827984219914 28.1128704123049964
 16.9115874175554666 69.9747351610314468 28.1128704123049964
 78.9207580388090690  6.5092827984219914 28.1128704123049964
 28.1859512315754728 69.9747351610314468 28.1128704123049964
 53.5533760388090698  6.5092827984219914 28.1128704123049964
  1.4093271114814494  8.9502363868277595 28.1128704123049964
 -8.4557945824445344 69.9747351610314468 28.1128704123049964
 12.6836909255014501  8.9502363868277595 28.1128704123049964
 47.9161518528290671  6.5092827984219914 28.1128704123049964
 15.5022607395214518  8.9502363868277595 28.1128704123049964
 33.8231754175554755 69.9747351610314468 28.1128704123049964
 -39.4604007684245346 69.9747351610314468 28.1128704123049964
 18.3209151114814510  8.9502363868277595 28.1128704123049964
 23.9580547395214474  8.9502363868277595 28.1128704123049964
 -22.5488127684245363 69.9747351610314468 28.1128704123049964
 -4.2278971557702505 18.7141971991307194 28.1128704123049964
 45.0975820388090725  6.5092827984219914 28.1128704123049964
 35.2325031114814493  8.9502363868277595 28.1128704123049964
 -25.3673825824445345 69.9747351610314468 28.1128704123049964
 38.0510729255014510  8.9502363868277595 28.1128704123049964
 -33.8231765824445318 69.9747351610314468 28.1128704123049964
 36.6417880388090680  6.5092827984219914 28.1128704123049964
 -36.6418309544045329 69.9747351610314468 28.1128704123049964
 63.4184549255014502  8.9502363868277595 28.1128704123049964
 21.1394849255014528  8.9502363868277595 28.1128704123049964
 43.6882547918756003 13.8322167929792403 28.1128704123049964
 -21.1394855621263069 67.5337083432857384 28.1128704123049964
 47.9161941724349276  1.6273023922705114 28.1128704123049964
  7.0464667801566900  4.0683292100162243 28.1128704123049964
 31.0046060505279790 16.2731703813850075 28.1128704123049964
 70.4649218004749116  1.6273023922705114 28.1128704123049964
 36.6417456785679860 16.2731703813850075 28.1128704123049964
 47.9161940505279844 16.2731703813850075 28.1128704123049964
 59.1905578645479835 16.2731703813850075 28.1128704123049964
 -0.0000428207786890 65.0927547548799765 28.1128704123049964
 33.8231331792213084 65.0927547548799765 28.1128704123049964
 35.2324185941766927  4.0683292100162243 28.1128704123049964
 -23.9580976957521585 72.4156887494372228 28.1128704123049964
 -15.5023036957521541 72.4156887494372228 28.1128704123049964
 -2.8185699494720202 16.2731703813850075 28.1128704123049964
 56.3719880505279747 16.2731703813850075 28.1128704123049964
 62.0091276785679781 16.2731703813850075 28.1128704123049964
  1.4092843042478451 72.4156887494372228 28.1128704123049964
 45.0975396785679763 16.2731703813850075 28.1128704123049964
 46.5068246058955950 13.8322167929792403 28.1128704123049964
  4.2278964785089341 62.6518011664742076 28.1128704123049964
 52.1440065941766875  4.0683292100162243 28.1128704123049964
 60.5998427918756022 13.8322167929792403 28.1128704123049964
 21.1394421182678336 72.4156887494372228 28.1128704123049964
 25.3673391792213039 65.0927547548799765 28.1128704123049964
 53.5533338004749169  1.6273023922705114 28.1128704123049964
 63.4184126058955968 13.8322167929792403 28.1128704123049964
 -26.7766675097721567 72.4156887494372228 28.1128704123049964
 49.3254367801566929  4.0683292100162243 28.1128704123049964
 -8.4557941354520185 16.2731703813850075 28.1128704123049964
 70.4649216785679755 16.2731703813850075 28.1128704123049964
 35.2325026103086287 69.1610107355562462 28.6327538495249954
 -0.0000005959896168 71.6020375533019688 28.6327538495249954
 -5.6372247819696195 71.6020375533019688 28.6327538495249954
 40.8696424008908039 49.6332355696302230 28.6327538495249954
 43.6882967728507978 49.6332355696302230 28.6327538495249954
 -25.3673823928109776 47.1922087518845075 28.6327538495249954
 -8.4557945959896212 71.6020375533019688 28.6327538495249954
 39.4603997931690245 47.1922087518845075 28.6327538495249954
 52.1440907728507952 49.6332355696302230 28.6327538495249954
 52.1440485345166493 44.7512551634787386 28.6327538495249954
 16.9115874040103833 71.6020375533019688 28.6327538495249954
 49.3254787204966547 44.7512551634787386 28.6327538495249954
 -25.3673401544768282 52.0741891580359919 28.6327538495249954
 40.8696847204966431 44.7512551634787386 28.6327538495249954
 19.7301572180303850 71.6020375533019688 28.6327538495249954
 32.4139327962886199 69.1610107355562462 28.6327538495249954
 29.5952784243286260 69.1610107355562462 28.6327538495249954
 26.7766665345166501 44.7512551634787386 28.6327538495249954
 -16.9115461544768308 52.0741891580359919 28.6327538495249954
  0.0000418455231652 52.0741891580359919 28.6327538495249954
 22.5488115899903860 71.6020375533019688 28.6327538495249954
 21.1394844243286215 69.1610107355562462 28.6327538495249954
 49.3254364008908013 49.6332355696302230 28.6327538495249954
 35.2324605345166475 44.7512551634787386 28.6327538495249954
 -11.2743642068309775 47.1922087518845075 28.6327538495249954
 40.8697267962886173 69.1610107355562462 28.6327538495249954
 -28.1859524100096195 71.6020375533019688 28.6327538495249954
 42.2789696071890333 47.1922087518845075 28.6327538495249954
 45.0976239791490272 47.1922087518845075 28.6327538495249954
 47.9161937931690360 47.1922087518845075 28.6327538495249954
 -33.8231765959896151 71.6020375533019688 28.6327538495249954
 25.3673816071890279 47.1922087518845075 28.6327538495249954
 -25.3673825959896213 71.6020375533019688 28.6327538495249954
 50.7347636071890307 47.1922087518845075 28.6327538495249954
 -26.7767095991092070 49.6332355696302230 28.6327538495249954
 22.5488117931690120 47.1922087518845075 28.6327538495249954
 -23.9580552271492060 49.6332355696302230 28.6327538495249954
 -21.1394854131292078 49.6332355696302230 28.6327538495249954
 -36.6417464100096169 71.6020375533019688 28.6327538495249954
 19.7302419791490244 47.1922087518845075 28.6327538495249954
 -16.9115883928109767 47.1922087518845075 28.6327538495249954
 11.2744479791490271 47.1922087518845075 28.6327538495249954
  8.4557936071890190 47.1922087518845075 28.6327538495249954
 -1.4093275991092098 49.6332355696302230 28.6327538495249954
 -39.4604007819696179 71.6020375533019688 28.6327538495249954
  5.6372237931690181 47.1922087518845075 28.6327538495249954
  1.4093267728507877 49.6332355696302230 28.6327538495249954
 -16.9115885959896168 71.6020375533019688 28.6327538495249954
  2.8186539791490159 47.1922087518845075 28.6327538495249954
  4.2278965868707896 49.6332355696302230 28.6327538495249954
 43.6882966103086261 69.1610107355562462 28.6327538495249954
 18.3209147728507951 49.6332355696302230 28.6327538495249954
 21.1394845868707826 49.6332355696302230 28.6327538495249954
 -14.0929340208509810 47.1922087518845075 28.6327538495249954
 -14.0930187819696204 71.6020375533019688 28.6327538495249954
 23.9580544008907985 49.6332355696302230 28.6327538495249954
 -15.5022612271492086 49.6332355696302230 28.6327538495249954
  2.8186116595431669 52.0741891580359919 28.6327538495249954
  2.8186538572420905 61.8380767409990000 28.6327538495249954
 11.2744056595431719 52.0741891580359919 28.6327538495249954
 -4.2278552154303037 59.3971231525932382 28.6327538495249954
 -7.0465095873903012 59.3971231525932382 28.6327538495249954
 -15.5022613490561429 64.2791035587447084 28.6327538495249954
 -9.8650794014102949 59.3971231525932382 28.6327538495249954
 -1.4093277210161486 64.2791035587447084 28.6327538495249954
 -15.5023035873902977 59.3971231525932382 28.6327538495249954
 -18.3208734014102959 59.3971231525932382 28.6327538495249954
 -21.1394432154303011 59.3971231525932382 28.6327538495249954
 12.6837327845697061 59.3971231525932382 28.6327538495249954
  1.4093266509438596 64.2791035587447084 28.6327538495249954
 -32.4138915873902960 59.3971231525932382 28.6327538495249954
  4.2278964649638544 64.2791035587447084 28.6327538495249954
 23.9580542789838589 64.2791035587447084 28.6327538495249954
 50.7347635259173302 56.9561695641874692 28.6327538495249954
 42.2789695259173328 56.9561695641874692 28.6327538495249954
 39.4603997118973240 56.9561695641874692 28.6327538495249954
 35.2325026509438644 64.2791035587447084 28.6327538495249954
 36.6417453399373301 56.9561695641874692 28.6327538495249954
 -23.9580975873902986 59.3971231525932382 28.6327538495249954
 33.8231755259173212 56.9561695641874692 28.6327538495249954
 18.3208724126097096 59.3971231525932382 28.6327538495249954
 21.1395267845696964 59.3971231525932382 28.6327538495249954
 -0.0000005147179177 61.8380767409990000 28.6327538495249954
  5.6372236712620847 61.8380767409990000 28.6327538495249954
 -5.6371401427579215 61.8380767409990000 28.6327538495249954
 19.7302418572420777 61.8380767409990000 28.6327538495249954
 22.5488116712620865 61.8380767409990000 28.6327538495249954
 -16.9115885147179164 61.8380767409990000 28.6327538495249954
 -19.7301583287379145 61.8380767409990000 28.6327538495249954
 -22.5487281427579163 61.8380767409990000 28.6327538495249954
 -26.7767097210161431 64.2791035587447084 28.6327538495249954
 -33.8231765147179146 61.8380767409990000 28.6327538495249954
 46.5069087845697027 59.3971231525932382 28.6327538495249954
 25.3673814852820882 61.8380767409990000 28.6327538495249954
 43.6882544126097088 59.3971231525932382 28.6327538495249954
 42.2789694852820901 61.8380767409990000 28.6327538495249954
 40.8696845985897141 59.3971231525932382 28.6327538495249954
 38.0511147845697053 59.3971231525932382 28.6327538495249954
 47.9161936712620928 61.8380767409990000 28.6327538495249954
 23.9580965985897052 59.3971231525932382 28.6327538495249954
 49.3254785985897115 59.3971231525932382 28.6327538495249954
 18.3209146103086198 69.1610107355562462 28.6327538495249954
 31.0046057118973302 56.9561695641874692 28.6327538495249954
 -33.8231342763837688 66.7200571471504844 28.6327538495249954
 -35.2324192037113804 69.1610107355562462 28.6327538495249954
 29.5952785462355585 54.5151427464417537 28.6327538495249954
 12.6836905462355407 54.5151427464417537 28.6327538495249954
  9.8651207322155532 54.5151427464417537 28.6327538495249954
  4.2278965462355513 54.5151427464417537 28.6327538495249954
 -7.0464672677844442 54.5151427464417537 28.6327538495249954
 -21.1394855756713831 69.1610107355562462 28.6327538495249954
 -9.8650370818044468 54.5151427464417537 28.6327538495249954
 32.4139329181955560 54.5151427464417537 28.6327538495249954
 -12.6836915756713875 69.1610107355562462 28.6327538495249954
 -9.8650372037113900 69.1610107355562462 28.6327538495249954
 33.8232178455231747 52.0741891580359919 28.6327538495249954
 -7.0464673896913883 69.1610107355562462 28.6327538495249954
  7.0465507962886189 69.1610107355562462 28.6327538495249954
 31.0045634735631737 52.0741891580359919 28.6327538495249954
 12.6836904243286224 69.1610107355562462 28.6327538495249954
 15.5023447962886092 69.1610107355562462 28.6327538495249954
 19.7301996595431604 52.0741891580359919 28.6327538495249954
 -23.9580552677844487 54.5151427464417537 28.6327538495249954
 25.3673815259173274 56.9561695641874692 28.6327538495249954
 -38.0510735756713814 69.1610107355562462 28.6327538495249954
 39.4603573516562420 66.7200571471504844 28.6327538495249954
 -25.3673402763837679 66.7200571471504844 28.6327538495249954
 14.0930177118973283 56.9561695641874692 28.6327538495249954
 -16.9115462763837670 66.7200571471504844 28.6327538495249954
 11.2743633399373131 56.9561695641874692 28.6327538495249954
 -5.6372246600626781 56.9561695641874692 28.6327538495249954
 -5.6371824623637705 66.7200571471504844 28.6327538495249954
 -8.4557944740826727 56.9561695641874692 28.6327538495249954
  5.6371813516562215 66.7200571471504844 28.6327538495249954
 35.2325027322155506 54.5151427464417537 28.6327538495249954
 -11.2743642881026744 56.9561695641874692 28.6327538495249954
 -14.0930186600626755 56.9561695641874692 28.6327538495249954
 11.2744055376362251 66.7200571471504844 28.6327538495249954
 -16.9115884740826736 56.9561695641874692 28.6327538495249954
 31.0045633516562411 66.7200571471504844 28.6327538495249954
 -28.1859522881026763 56.9561695641874692 28.6327538495249954
 33.8232177236162386 66.7200571471504844 28.6327538495249954
 -31.0046066600626737 56.9561695641874692 28.6327538495249954
 36.6417875376362474 66.7200571471504844 28.6327538495249954
  8.4558357236162376 66.7200571471504844 28.6327538495249954
 -23.9580553896913813 69.1610107355562462 28.6327538495249954
 57.7812305227977419 34.9873675805157234 28.6327538495249954
  7.0465087204966403 44.7512551634787386 28.6327538495249954
 69.0556367783305234 15.4595191852497500 28.6327538495249954
 60.5998427783305331 15.4595191852497500 28.6327538495249954
 57.7812729643105243 15.4595191852497500 28.6327538495249954
 54.9627031502905297 15.4595191852497500 28.6327538495249954
 49.3254789643105269 15.4595191852497500 28.6327538495249954
 46.5069091502905181 15.4595191852497500 28.6327538495249954
 43.6882547783305313 15.4595191852497500 28.6327538495249954
 29.5953211502905269 15.4595191852497500 28.6327538495249954
 26.7766667783305188 15.4595191852497500 28.6327538495249954
  9.8650787783305205 15.4595191852497500 28.6327538495249954
 -1.4092850356894804 15.4595191852497500 28.6327538495249954
 -4.2278548497094786 15.4595191852497500 28.6327538495249954
 73.2835760776181360 13.0185655968439828 28.6327538495249954
 62.0091277056581518 13.0185655968439828 28.6327538495249954
 45.0975397056581500 13.0185655968439828 28.6327538495249954
 31.0046060776181456 13.0185655968439828 28.6327538495249954
 28.1859517056581375 13.0185655968439828 28.6327538495249954
 25.3673818916381357 13.0185655968439828 28.6327538495249954
 22.5488120776181340 13.0185655968439828 28.6327538495249954
 14.0930180776181420 13.0185655968439828 28.6327538495249954
 11.2743637056581409 13.0185655968439828 28.6327538495249954
  8.4557938916381428 13.0185655968439828 28.6327538495249954
  5.6372240776181393 13.0185655968439828 28.6327538495249954
 77.5114730979363742 10.5775387790982709 28.6327538495249954
 74.6929032839163654 10.5775387790982709 28.6327538495249954
 71.8742911502905173 15.4595191852497500 28.6327538495249954
 63.4184549119563812 10.5775387790982709 28.6327538495249954
 -5.6371397770370981 17.9004727736555189 28.6327538495249954
 -0.0000001489970986 17.9004727736555189 28.6327538495249954
  2.8186119033570516 22.7824531798069998 28.6327538495249954
 -2.8186122826229494 22.7824531798069998 28.6327538495249954
 71.8742488306846781 20.3414995914012344 28.6327538495249954
 69.0556790166646692 20.3414995914012344 28.6327538495249954
 54.9626608306846691 20.3414995914012344 28.6327538495249954
 52.1440910166646745 20.3414995914012344 28.6327538495249954
 40.8696426447046761 20.3414995914012344 28.6327538495249954
 38.0510728306846602 20.3414995914012344 28.6327538495249954
 23.9580546447046672 20.3414995914012344 28.6327538495249954
 18.3209150166646637 20.3414995914012344 28.6327538495249954
 15.5022606447046662 20.3414995914012344 28.6327538495249954
  4.2278968306846716 20.3414995914012344 28.6327538495249954
 -1.4093273552953294 20.3414995914012344 28.6327538495249954
 -4.2278971693153311 20.3414995914012344 28.6327538495249954
 70.4650062229628986 17.9004727736555189 28.6327538495249954
 67.6463518510029047 17.9004727736555189 28.6327538495249954
 56.3719880369828985 17.9004727736555189 28.6327538495249954
 53.5534182229629039 17.9004727736555189 28.6327538495249954
 50.7347638510029029 17.9004727736555189 28.6327538495249954
 47.9161940369829011 17.9004727736555189 28.6327538495249954
 39.4604000369828896 17.9004727736555189 28.6327538495249954
 36.6418302229629020 17.9004727736555189 28.6327538495249954
 31.0046060369829029 17.9004727736555189 28.6327538495249954
 14.0930180369829028 17.9004727736555189 28.6327538495249954
 11.2744482229629011 17.9004727736555189 28.6327538495249954
 -2.8185699630171004 17.9004727736555189 28.6327538495249954
  5.6371817173770493 22.7824531798069998 28.6327538495249954
 60.5998850979363723 10.5775387790982709 28.6327538495249954
 26.7767090979363651 10.5775387790982709 28.6327538495249954
 49.3254367666116167  5.6956316022867357 28.6327538495249954
 46.5068669525916008  5.6956316022867357 28.6327538495249954
 43.6882971385716132  5.6956316022867357 28.6327538495249954
 38.0510729525916105  5.6956316022867357 28.6327538495249954
 35.2325031385716159  5.6956316022867357 28.6327538495249954
 26.7767091385716043  5.6956316022867357 28.6327538495249954
  7.0464667666116103  5.6956316022867357 28.6327538495249954
 -1.4093272333883895  5.6956316022867357 28.6327538495249954
 76.1021459729098524  3.2546047845410229 28.6327538495249954
 64.8277821588898462  3.2546047845410229 28.6327538495249954
 53.5534183448698329  3.2546047845410229 28.6327538495249954
 50.7347639729098461  3.2546047845410229 28.6327538495249954
 47.9161941588898301  3.2546047845410229 28.6327538495249954
 36.6418303448698452  3.2546047845410229 28.6327538495249954
 33.8231759729098371  3.2546047845410229 28.6327538495249954
 69.0556369002374737  0.8136511961352557 28.6327538495249954
 63.4184972721974631  0.8136511961352557 28.6327538495249954
 38.0511152721974639  0.8136511961352557 28.6327538495249954
 35.2324609002374558  0.8136511961352557 28.6327538495249954
 26.7766669002374584  0.8136511961352557 28.6327538495249954
 23.9580970862174638  0.8136511961352557 28.6327538495249954
 15.5023030862174611  0.8136511961352557 28.6327538495249954
 12.6837332721974576  0.8136511961352557 28.6327538495249954
  7.0465090862174584  0.8136511961352557 28.6327538495249954
  1.4092849002374601  0.8136511961352557 28.6327538495249954
 52.1440911385716035  5.6956316022867357 28.6327538495249954
 38.0510729119563607 10.5775387790982709 28.6327538495249954
 60.5998851385716151  5.6956316022867357 28.6327538495249954
 74.6928187666116230  5.6956316022867357 28.6327538495249954
 23.9581392839163634 10.5775387790982709 28.6327538495249954
 21.1394849119563659 10.5775387790982709 28.6327538495249954
 18.3209150979363713 10.5775387790982709 28.6327538495249954
 15.5023452839163713 10.5775387790982709 28.6327538495249954
  9.8651210979363722 10.5775387790982709 28.6327538495249954
  7.0465512839163686 10.5775387790982709 28.6327538495249954
  1.4093270979363695 10.5775387790982709 28.6327538495249954
 76.1021882112439840  8.1365851906925037 28.6327538495249954
 70.4649640252639955  8.1365851906925037 28.6327538495249954
 64.8277398392839928  8.1365851906925037 28.6327538495249954
 62.0091700252639910  8.1365851906925037 28.6327538495249954
 47.9161518392839980  8.1365851906925037 28.6327538495249954
 45.0975820252639821  8.1365851906925037 28.6327538495249954
 36.6417880252639918  8.1365851906925037 28.6327538495249954
 33.8232182112439972  8.1365851906925037 28.6327538495249954
 25.3674242112439856  8.1365851906925037 28.6327538495249954
 22.5487698392839881  8.1365851906925037 28.6327538495249954
 16.9116302112439918  8.1365851906925037 28.6327538495249954
 14.0929758392839890  8.1365851906925037 28.6327538495249954
 11.2744060252639908  8.1365851906925037 28.6327538495249954
  2.8186120252639890  8.1365851906925037 28.6327538495249954
  0.0000422112439907  8.1365851906925037 28.6327538495249954
 -2.8186121607160102  8.1365851906925037 28.6327538495249954
 80.3300429525916257  5.6956316022867357 28.6327538495249954
 77.5114731385716169  5.6956316022867357 28.6327538495249954
 63.4184549525916097  5.6956316022867357 28.6327538495249954
  8.4558360893370512 22.7824531798069998 28.6327538495249954
 11.2744059033570529 22.7824531798069998 28.6327538495249954
 16.9116300893370450 22.7824531798069998 28.6327538495249954
 59.1905999674301100 37.4283211689214923 28.6327538495249954
 50.7348059674301126 37.4283211689214923 28.6327538495249954
 47.9161515954701187 37.4283211689214923 28.6327538495249954
 45.0975817814501099 37.4283211689214923 28.6327538495249954
 36.6417877814501125 37.4283211689214923 28.6327538495249954
 33.8232179674301037 37.4283211689214923 28.6327538495249954
 31.0045635954701204 37.4283211689214923 28.6327538495249954
 25.3674239674301170 37.4283211689214923 28.6327538495249954
 22.5487695954701017 37.4283211689214923 28.6327538495249954
 19.7301997814501142 37.4283211689214923 28.6327538495249954
 16.9116299674301196 37.4283211689214923 28.6327538495249954
 11.2744057814501097 37.4283211689214923 28.6327538495249954
  8.4558359674301080 37.4283211689214923 28.6327538495249954
  2.8186117814501150 37.4283211689214923 28.6327538495249954
 -14.0929762185498877 37.4283211689214923 28.6327538495249954
 -16.9115460325698876 37.4283211689214923 28.6327538495249954
 -19.7302004045298887 37.4283211689214923 28.6327538495249954
 25.3673814040103807 71.6020375533019688 28.6327538495249954
 46.5068667087777357 34.9873675805157234 28.6327538495249954
 43.6882968947577410 34.9873675805157234 28.6327538495249954
 40.8696425227977400 34.9873675805157234 28.6327538495249954
 38.0510727087777383 34.9873675805157234 28.6327538495249954
 26.7767088947577392 34.9873675805157234 28.6327538495249954
 23.9580545227977240 34.9873675805157234 28.6327538495249954
 21.1394847087777364 34.9873675805157234 28.6327538495249954
 62.0091697814501188 37.4283211689214923 28.6327538495249954
 18.3209148947577418 34.9873675805157234 28.6327538495249954
 -21.1394853318575109 39.8692747573272612 28.6327538495249954
 -15.5022611458775117 39.8692747573272612 28.6327538495249954
 -4.2278550935233552 44.7512551634787386 28.6327538495249954
 -7.0465094654833562 44.7512551634787386 28.6327538495249954
 -15.5023034654833562 44.7512551634787386 28.6327538495249954
 -18.3208732795033562 44.7512551634787386 28.6327538495249954
 50.7347636478242734 42.3103015750729767 28.6327538495249954
 36.6417454618442662 42.3103015750729767 28.6327538495249954
 33.8231756478242644 42.3103015750729767 28.6327538495249954
 31.0046058338042556 42.3103015750729767 28.6327538495249954
 11.2743634618442599 42.3103015750729767 28.6327538495249954
 -2.8185701661957374 42.3103015750729767 28.6327538495249954
 -5.6372245381557384 42.3103015750729767 28.6327538495249954
 -8.4557943521757366 42.3103015750729767 28.6327538495249954
 -16.9115883521757375 42.3103015750729767 28.6327538495249954
 -19.7301581661957393 42.3103015750729767 28.6327538495249954
 57.7813150401024913 39.8692747573272612 28.6327538495249954
 52.1440908541225028 39.8692747573272612 28.6327538495249954
 49.3255210401024939 39.8692747573272612 28.6327538495249954
 35.2325028541224938 39.8692747573272612 28.6327538495249954
 32.4139330401024850 39.8692747573272612 28.6327538495249954
 18.3209148541224920 39.8692747573272612 28.6327538495249954
 15.5023450401024956 39.8692747573272612 28.6327538495249954
  9.8651208541224857 39.8692747573272612 28.6327538495249954
  1.4093268541224926 39.8692747573272612 28.6327538495249954
 -1.4092429598975091 39.8692747573272612 28.6327538495249954
 -4.2278973318575099 39.8692747573272612 28.6327538495249954
 -18.3208309598975099 39.8692747573272612 28.6327538495249954
  9.8651208947577302 34.9873675805157234 28.6327538495249954
  7.0464665227977319 34.9873675805157234 28.6327538495249954
  4.2278967087777302 34.9873675805157234 28.6327538495249954
 33.8231757697311934 27.6644335859584807 28.6327538495249954
 31.0046059557112059 27.6644335859584807 28.6327538495249954
 25.3673817697312032 27.6644335859584807 28.6327538495249954
 16.9115877697311987 27.6644335859584807 28.6327538495249954
 -2.8185700442888009 27.6644335859584807 28.6327538495249954
 -5.6372244162487979 27.6644335859584807 28.6327538495249954
 69.0556789760294407 25.2234067682127652 28.6327538495249954
 66.2371091620094319 25.2234067682127652 28.6327538495249954
 63.4184547900494380 25.2234067682127652 28.6327538495249954
 57.7813151620094345 25.2234067682127652 28.6327538495249954
 54.9626607900494406 25.2234067682127652 28.6327538495249954
 46.5068667900494361 25.2234067682127652 28.6327538495249954
 38.0510727900494388 25.2234067682127652 28.6327538495249954
 32.4139331620094353 25.2234067682127652 28.6327538495249954
 29.5952787900494201 25.2234067682127652 28.6327538495249954
 26.7767089760294326 25.2234067682127652 28.6327538495249954
 23.9581391620094379 25.2234067682127652 28.6327538495249954
 21.1394847900494298 25.2234067682127652 28.6327538495249954
  7.0465511620094325 25.2234067682127652 28.6327538495249954
 -1.4092428379905699 25.2234067682127652 28.6327538495249954
 70.4649639033570594 22.7824531798069998 28.6327538495249954
 67.6463940893370506 22.7824531798069998 28.6327538495249954
 39.4603577173770574 22.7824531798069998 28.6327538495249954
 22.5487697173770485 22.7824531798069998 28.6327538495249954
 19.7301999033570468 22.7824531798069998 28.6327538495249954
 45.0975395837512067 27.6644335859584807 28.6327538495249954
 47.9161939557112078 27.6644335859584807 28.6327538495249954
 50.7347637697312024 27.6644335859584807 28.6327538495249954
 53.5533335837512112 27.6644335859584807 28.6327538495249954
 -9.8651214772022673 34.9873675805157234 28.6327538495249954
 -12.6836912912222672 34.9873675805157234 28.6327538495249954
 -15.5022611052422672 34.9873675805157234 28.6327538495249954
 45.0976241010559633 32.5463407627700150 28.6327538495249954
 42.2789697290959623 32.5463407627700150 28.6327538495249954
 25.3673817290959498 32.5463407627700150 28.6327538495249954
 16.9115877290959595 32.5463407627700150 28.6327538495249954
 11.2744481010559561 32.5463407627700150 28.6327538495249954
  8.4557937290959586 32.5463407627700150 28.6327538495249954
  5.6372239150759640 32.5463407627700150 28.6327538495249954
  2.8186541010559618 32.5463407627700150 28.6327538495249954
 -8.4557942709040379 32.5463407627700150 28.6327538495249954
  9.8650785345166412 44.7512551634787386 28.6327538495249954
 -11.2743640849240396 32.5463407627700150 28.6327538495249954
 57.7812728424035953 30.1053871743642461 28.6327538495249954
 49.3254788424035837 30.1053871743642461 28.6327538495249954
 46.5069090283835891 30.1053871743642461 28.6327538495249954
 32.4138908424035748 30.1053871743642461 28.6327538495249954
 29.5953210283835837 30.1053871743642461 28.6327538495249954
 12.6837330283835765 30.1053871743642461 28.6327538495249954
 -4.2278549716164209 30.1053871743642461 28.6327538495249954
 -7.0465093435764183 30.1053871743642461 28.6327538495249954
 -9.8650791575964192 30.1053871743642461 28.6327538495249954
 64.8277819557112025 27.6644335859584807 28.6327538495249954
 62.0091275837512086 27.6644335859584807 28.6327538495249954
 59.1905577697312140 27.6644335859584807 28.6327538495249954
 60.5998426564235899 30.1053871743642461 28.6327538495249954
 33.8231754040103922 71.6020375533019688 28.6327538495249954
