 H  O 
 1.0000000000000000
    84.5579400000000021    0.0000000000000000    0.0000000000000000
   -42.2789706095346958   73.2293399455724767    0.0000000000000000
     0.0000000000000000    0.0000000000000000   46.9039550000000034
 H   O  
 302 198
Cartesian
 -9.8651215042924267 38.2419723650567462 28.1128704123049964
 -16.9115885011728366 60.2107743487284921 28.1128704123049964
 -0.0000425769648080 35.8010187766509844 28.1128704123049964
 -2.8186123909848098 35.8010187766509844 28.1128704123049964
 -5.6371822050048115 35.8010187766509844 28.1128704123049964
 -8.4558365769648098 35.8010187766509844 28.1128704123049964
 -8.4557945011728339 60.2107743487284921 28.1128704123049964
 -2.8185703151928343 60.2107743487284921 28.1128704123049964
 19.7301997949951904 35.8010187766509844 28.1128704123049964
 63.4184547223228137 33.3600651882452155 28.1128704123049964
 46.5068667223228047 33.3600651882452155 28.1128704123049964
 40.8696425363428091 33.3600651882452155 28.1128704123049964
 26.7766243503628161 33.3600651882452155 28.1128704123049964
 12.6836907223228135 33.3600651882452155 28.1128704123049964
  7.0464665363428152 33.3600651882452155 28.1128704123049964
  4.2278967223228134 33.3600651882452155 28.1128704123049964
 -1.4093274636571897 33.3600651882452155 28.1128704123049964
 52.1440063503628082 33.3600651882452155 28.1128704123049964
 -7.0465516496371885 33.3600651882452155 28.1128704123049964
 28.1859937949951949 35.8010187766509844 28.1128704123049964
 -25.3673825011728376 60.2107743487284921 28.1128704123049964
 26.7767088676675797 38.2419723650567462 28.1128704123049964
 23.9580544957075787 38.2419723650567462 28.1128704123049964
 21.1394846816875770 38.2419723650567462 28.1128704123049964
 18.3209148676675753 38.2419723650567462 28.1128704123049964
  9.8651208676675761 38.2419723650567462 28.1128704123049964
 35.2324604261547876 57.7698207603227232 28.1128704123049964
 40.8696846121347903 57.7698207603227232 28.1128704123049964
 31.0045636090151895 35.8010187766509844 28.1128704123049964
  1.4093268676675752 38.2419723650567462 28.1128704123049964
 23.9580964902278346 72.4156887494372228 28.1128704123049964
 -18.3209155042924259 38.2419723650567462 28.1128704123049964
 -21.1394853183124276 38.2419723650567462 28.1128704123049964
 62.0091697949951950 35.8010187766509844 28.1128704123049964
 59.1905154230351869 35.8010187766509844 28.1128704123049964
 47.9161516090151949 35.8010187766509844 28.1128704123049964
 43.6882544261547849 57.7698207603227232 28.1128704123049964
 -4.2278973183124275 38.2419723650567462 28.1128704123049964
 14.0930176848071671 60.2107743487284921 28.1128704123049964
 16.9115874988271635 60.2107743487284921 28.1128704123049964
 59.1905577426410403 30.9190383704995000 28.1128704123049964
 -4.2279395160113378 28.4780847820937346 28.1128704123049964
 -12.6837335160113369 28.4780847820937346 28.1128704123049964
 -15.5023033300313369 28.4780847820937346 28.1128704123049964
 56.3719034113162749 26.0371311936879657 28.1128704123049964
 47.9161094113162704 26.0371311936879657 28.1128704123049964
 -29.5952794402193682 52.8878403541712458 28.1128704123049964
 15.5022602925289341 62.6518011664742076 28.1128704123049964
 -12.6836915214910633 62.6518011664742076 28.1128704123049964
 36.6417455972962784 26.0371311936879657 28.1128704123049964
 25.3673817832762829 26.0371311936879657 28.1128704123049964
 16.9115877832762855 26.0371311936879657 28.1128704123049964
 14.0929334113162810 26.0371311936879657 28.1128704123049964
  8.4557937832762846 26.0371311936879657 28.1128704123049964
  2.8185695972962814 26.0371311936879657 28.1128704123049964
 -11.2744485886837182 26.0371311936879657 28.1128704123049964
 66.2370246176145088 23.5961043759422537 28.1128704123049964
 33.8231757832762838 26.0371311936879657 28.1128704123049964
 -15.5023458934510643 62.6518011664742076 28.1128704123049964
  4.2278544839886631 28.4780847820937346 28.1128704123049964
 12.6836484839886605 28.4780847820937346 28.1128704123049964
 47.9161939286210341 30.9190383704995000 28.1128704123049964
 31.0046059286210465 30.9190383704995000 28.1128704123049964
 22.5488119286210420 30.9190383704995000 28.1128704123049964
 16.9115877426410464 30.9190383704995000 28.1128704123049964
  5.6372239286210437 30.9190383704995000 28.1128704123049964
 -8.4557942573589582 30.9190383704995000 28.1128704123049964
 63.4184124839886536 28.4780847820937346 28.1128704123049964
 -21.1394855214910677 62.6518011664742076 28.1128704123049964
 52.1440486699686616 28.4780847820937346 28.1128704123049964
 43.6882546699686571 28.4780847820937346 28.1128704123049964
 40.8696848559486625 28.4780847820937346 28.1128704123049964
 38.0510304839886544 28.4780847820937346 28.1128704123049964
 35.2324606699686598 28.4780847820937346 28.1128704123049964
 26.7766666699686624 28.4780847820937346 28.1128704123049964
 -18.3209157074710660 62.6518011664742076 28.1128704123049964
 18.3208726699686650 28.4780847820937346 28.1128704123049964
 15.5023028559486651 28.4780847820937346 28.1128704123049964
 29.5952786816875744 38.2419723650567462 28.1128704123049964
 63.4184548035945070 23.5961043759422537 28.1128704123049964
 32.4138484957075690 38.2419723650567462 28.1128704123049964
 43.6882968676675674 38.2419723650567462 28.1128704123049964
 46.5068665597806330 52.8878403541712458 28.1128704123049964
 -31.0046066465175976 55.3288671719169614 28.1128704123049964
 -28.1860368324975958 55.3288671719169614 28.1128704123049964
 21.1394846004158765 48.0059331773597151 28.1128704123049964
 18.3208302284558755 48.0059331773597151 28.1128704123049964
 -25.3673824605375984 55.3288671719169614 28.1128704123049964
  1.4092422284558699 48.0059331773597151 28.1128704123049964
 52.1440062284558650 48.0059331773597151 28.1128704123049964
 -1.4093275855641247 48.0059331773597151 28.1128704123049964
 -12.6836913995841307 48.0059331773597151 28.1128704123049964
 -19.7302428324975985 55.3288671719169614 28.1128704123049964
 -16.9115884605376010 55.3288671719169614 28.1128704123049964
 -26.7767095855641273 48.0059331773597151 28.1128704123049964
 56.3719878067141025 45.5649063596139996 28.1128704123049964
 53.5533334347540944 45.5649063596139996 28.1128704123049964
 47.9161938067141051 45.5649063596139996 28.1128704123049964
 -9.8651215855641290 48.0059331773597151 28.1128704123049964
 39.4603998067140935 45.5649063596139996 28.1128704123049964
 -25.3674246988717442 50.4468867657654769 28.1128704123049964
 21.1394845597806302 52.8878403541712458 28.1128704123049964
 53.5533756730882544 50.4468867657654769 28.1128704123049964
 47.9161514871082517 50.4468867657654769 28.1128704123049964
 -23.9580552542393690 52.8878403541712458 28.1128704123049964
 -12.6836914402193699 52.8878403541712458 28.1128704123049964
 31.0045634871082498 50.4468867657654769 28.1128704123049964
 25.3673393011282471 50.4468867657654769 28.1128704123049964
 -1.4093276261993704 52.8878403541712458 28.1128704123049964
 35.2325027457606268 52.8878403541712458 28.1128704123049964
 19.7301996730882578 50.4468867657654769 28.1128704123049964
 11.2744056730882534 50.4468867657654769 28.1128704123049964
  5.6371814871082586 50.4468867657654769 28.1128704123049964
  2.8186116730882564 50.4468867657654769 28.1128704123049964
 -2.8186125128917427 50.4468867657654769 28.1128704123049964
  1.4093267457606342 52.8878403541712458 28.1128704123049964
 -11.2744065128917477 50.4468867657654769 28.1128704123049964
  7.0464663738006301 52.8878403541712458 28.1128704123049964
 16.9115453011282568 50.4468867657654769 28.1128704123049964
 28.1859514347540951 45.5649063596139996 28.1128704123049964
 25.3673816207341005 45.5649063596139996 28.1128704123049964
 14.0930178067140996 45.5649063596139996 28.1128704123049964
 -18.3208733878652161 57.7698207603227232 28.1128704123049964
 25.3673816613693432 40.6829991828024689 28.1128704123049964
 22.5487272894093422 40.6829991828024689 28.1128704123049964
  7.0465086121347857 57.7698207603227232 28.1128704123049964
 -0.0000003386306579 40.6829991828024689 28.1128704123049964
 18.3208724261547857 57.7698207603227232 28.1128704123049964
 -2.8186547105906588 40.6829991828024689 28.1128704123049964
 33.8231756613693406 40.6829991828024689 28.1128704123049964
 -5.6372245246106605 40.6829991828024689 28.1128704123049964
 -14.0930185246106596 40.6829991828024689 28.1128704123049964
 -22.5488125246106605 40.6829991828024689 28.1128704123049964
 60.5998848676675763 38.2419723650567462 28.1128704123049964
 57.7812304957075682 38.2419723650567462 28.1128704123049964
 54.9626606816875736 38.2419723650567462 28.1128704123049964
 52.1440908676675789 38.2419723650567462 28.1128704123049964
 23.9580966121347885 57.7698207603227232 28.1128704123049964
 -8.4557943386306622 40.6829991828024689 28.1128704123049964
 36.6417454753893352 40.6829991828024689 28.1128704123049964
 47.9161092894093343 40.6829991828024689 28.1128704123049964
 53.5533334753893371 40.6829991828024689 28.1128704123049964
 -5.6372246465175939 55.3288671719169614 28.1128704123049964
  2.8185693534824074 55.3288671719169614 28.1128704123049964
  5.6372238067141032 45.5649063596139996 28.1128704123049964
 -0.0000003792658964 45.5649063596139996 28.1128704123049964
 -5.6372245652458988 45.5649063596139996 28.1128704123049964
 14.0929331675024070 55.3288671719169614 28.1128704123049964
 19.7301573534824009 55.3288671719169614 28.1128704123049964
 22.5487271675023955 55.3288671719169614 28.1128704123049964
 28.1859513534823982 55.3288671719169614 28.1128704123049964
 43.6882545480617210 43.1239527712082307 28.1128704123049964
 29.5952363620817174 43.1239527712082307 28.1128704123049964
 18.3208725480617254 43.1239527712082307 28.1128704123049964
  9.8650785480617262 43.1239527712082307 28.1128704123049964
 42.2789695394624090 55.3288671719169614 28.1128704123049964
  1.4092845480617260 43.1239527712082307 28.1128704123049964
 50.7347635394624064 55.3288671719169614 28.1128704123049964
 56.3719032894093317 40.6829991828024689 28.1128704123049964
 29.5952362401747777 57.7698207603227232 28.1128704123049964
 57.7812306176145043 23.5961043759422537 28.1128704123049964
 -26.7767096261993700 52.8878403541712458 28.1128704123049964
 40.8696426176145025 23.5961043759422537 28.1128704123049964
 14.0929335332232206 11.3912632045734714 28.1128704123049964
 11.2743637192032189 11.3912632045734714 28.1128704123049964
  5.6371395332232206 11.3912632045734714 28.1128704123049964
 -39.4604007684245346 69.9747351610314468 28.1128704123049964
 -2.8186544667767790 11.3912632045734714 28.1128704123049964
 77.5114731114814504  8.9502363868277595 28.1128704123049964
 -33.8231765824445318 69.9747351610314468 28.1128704123049964
 71.8742489255014476  8.9502363868277595 28.1128704123049964
 -31.0046067684245337 69.9747351610314468 28.1128704123049964
 -28.1860369544045355 69.9747351610314468 28.1128704123049964
 -25.3673825824445345 69.9747351610314468 28.1128704123049964
 52.1440911114814512  8.9502363868277595 28.1128704123049964
 35.2325031114814493  8.9502363868277595 28.1128704123049964
 -19.7302429544045346 69.9747351610314468 28.1128704123049964
 23.9580547395214474  8.9502363868277595 28.1128704123049964
 18.3209151114814510  8.9502363868277595 28.1128704123049964
 12.6836909255014501  8.9502363868277595 28.1128704123049964
 16.9115879051832216 11.3912632045734714 28.1128704123049964
  7.0464667395214500  8.9502363868277595 28.1128704123049964
 19.7301577192032234 11.3912632045734714 28.1128704123049964
 25.3673819051832226 11.3912632045734714 28.1128704123049964
 -9.8651217481063078 67.5337083432857384 28.1128704123049964
 -4.2278975621263015 67.5337083432857384 28.1128704123049964
  1.4093266238536943 67.5337083432857384 28.1128704123049964
 35.2324607918756030 13.8322167929792403 28.1128704123049964
 32.4138909778556012 13.8322167929792403 28.1128704123049964
 29.5952366058956002 13.8322167929792403 28.1128704123049964
  9.8651206238536986 67.5337083432857384 28.1128704123049964
 15.5022602518936878 67.5337083432857384 28.1128704123049964
 76.1021459051832210 11.3912632045734714 28.1128704123049964
 43.6882969895745106 23.5961043759422537 28.1128704123049964
 59.1905579051832120 11.3912632045734714 28.1128704123049964
 53.5533337192032164 11.3912632045734714 28.1128704123049964
 50.7347639051832218 11.3912632045734714 28.1128704123049964
 18.3209146238536960 67.5337083432857384 28.1128704123049964
 21.1394844378736906 67.5337083432857384 28.1128704123049964
 33.8231759051832199 11.3912632045734714 28.1128704123049964
 29.5952784378736951 67.5337083432857384 28.1128704123049964
 22.5487275332232180 11.3912632045734714 28.1128704123049964
 69.0556367918755996 13.8322167929792403 28.1128704123049964
 -8.4557945824445344 69.9747351610314468 28.1128704123049964
 -2.8186549544045376 69.9747351610314468 28.1128704123049964
 35.2324185941766927  4.0683292100162243 28.1128704123049964
 21.1394849661366919  4.0683292100162243 28.1128704123049964
 18.3208305941766909  4.0683292100162243 28.1128704123049964
  9.8650365941766900  4.0683292100162243 28.1128704123049964
 -9.8650795097721549 72.4156887494372228 28.1128704123049964
 -4.2279398817321576 72.4156887494372228 28.1128704123049964
 -1.4092855097721566 72.4156887494372228 28.1128704123049964
 73.2835761724349197  1.6273023922705114 28.1128704123049964
 47.9161941724349276  1.6273023922705114 28.1128704123049964
 45.0975398004749266  1.6273023922705114 28.1128704123049964
 36.6417458004749221  1.6273023922705114 28.1128704123049964
 31.0046061724349222  1.6273023922705114 28.1128704123049964
 25.3673819864549230  1.6273023922705114 28.1128704123049964
 16.9115879864549186  1.6273023922705114 28.1128704123049964
 12.6836481182678362 72.4156887494372228 28.1128704123049964
 15.5023024902278443 72.4156887494372228 28.1128704123049964
 21.1394421182678336 72.4156887494372228 28.1128704123049964
 38.0510729661366938  4.0683292100162243 28.1128704123049964
 59.1905156668490591  6.5092827984219914 28.1128704123049964
 54.9626609661366956  4.0683292100162243 28.1128704123049964
 -29.5953218817321577 72.4156887494372228 28.1128704123049964
 45.0975820388090725  6.5092827984219914 28.1128704123049964
 42.2789276668490714  6.5092827984219914 28.1128704123049964
 28.1859940388090742  6.5092827984219914 28.1128704123049964
 14.0929330455954638 69.9747351610314468 28.1128704123049964
 16.9115874175554666 69.9747351610314468 28.1128704123049964
 22.5487698528290750  6.5092827984219914 28.1128704123049964
 19.7302000388090732  6.5092827984219914 28.1128704123049964
 16.9115456668490722  6.5092827984219914 28.1128704123049964
 14.0929758528290687  6.5092827984219914 28.1128704123049964
 19.7301572315754683 69.9747351610314468 28.1128704123049964
  8.4557516668490695  6.5092827984219914 28.1128704123049964
 28.1859512315754728 69.9747351610314468 28.1128704123049964
 31.0045210455954674 69.9747351610314468 28.1128704123049964
 36.6417452315754701 69.9747351610314468 28.1128704123049964
 39.4603150455954648 69.9747351610314468 28.1128704123049964
 42.2789694175554729 69.9747351610314468 28.1128704123049964
 69.0555945941766822  4.0683292100162243 28.1128704123049964
 -23.9580976957521585 72.4156887494372228 28.1128704123049964
 -12.6836915621263024 67.5337083432857384 28.1128704123049964
 64.8276975332232155 11.3912632045734714 28.1128704123049964
 -2.8185699494720202 16.2731703813850075 28.1128704123049964
 -19.7302006347986882 65.0927547548799765 28.1128704123049964
 -0.0000424550578693 21.1551507875364884 28.1128704123049964
 -11.2744062690778684 21.1551507875364884 28.1128704123049964
 -16.9116308207786865 65.0927547548799765 28.1128704123049964
 63.4184548442297569 18.7141971991307194 28.1128704123049964
 60.5998004722697488 18.7141971991307194 28.1128704123049964
 14.0929757309221344 21.1551507875364884 28.1128704123049964
 -14.0929764488186855 65.0927547548799765 28.1128704123049964
 -5.6371824488186855 65.0927547548799765 28.1128704123049964
 -8.4557941354520185 16.2731703813850075 28.1128704123049964
 32.4138486582497549 18.7141971991307194 28.1128704123049964
 29.5952788442297496 18.7141971991307194 28.1128704123049964
 23.9580546582497540 18.7141971991307194 28.1128704123049964
 -0.0000428207786890 65.0927547548799765 28.1128704123049964
 46.5068668442297550 18.7141971991307194 28.1128704123049964
 12.6836908442297531 18.7141971991307194 28.1128704123049964
 -22.5487704488186900 65.0927547548799765 28.1128704123049964
 33.8231335449421309 21.1551507875364884 28.1128704123049964
 32.4138486176145122 23.5961043759422537 28.1128704123049964
 26.7767089895745123 23.5961043759422537 28.1128704123049964
 18.3209149895745149 23.5961043759422537 28.1128704123049964
 15.5022606176145086 23.5961043759422537 28.1128704123049964
 32.4138482925289324 62.6518011664742076 28.1128704123049964
  1.4093269895745080 23.5961043759422537 28.1128704123049964
 22.5487697309221353 21.1551507875364884 28.1128704123049964
 -1.4093273823854895 23.5961043759422537 28.1128704123049964
 -9.8651213823854889 23.5961043759422537 28.1128704123049964
 46.5068664785089325 62.6518011664742076 28.1128704123049964
 59.1905155449421230 21.1551507875364884 28.1128704123049964
 -36.6417886347986865 65.0927547548799765 28.1128704123049964
 47.9161517309221239 21.1551507875364884 28.1128704123049964
 39.4603577309221265 21.1551507875364884 28.1128704123049964
 -7.0464670104254905 23.5961043759422537 28.1128704123049964
  4.2278968442297478 18.7141971991307194 28.1128704123049964
 38.0510728442297577 18.7141971991307194 28.1128704123049964
 39.4604000505279870 16.2731703813850075 28.1128704123049964
 39.4603573652013111 65.0927547548799765 28.1128704123049964
 70.4649216785679755 16.2731703813850075 28.1128704123049964
 62.0091276785679781 16.2731703813850075 28.1128704123049964
 16.9115451792213065 65.0927547548799765 28.1128704123049964
 33.8231758645479843 16.2731703813850075 28.1128704123049964
 56.3719880505279747 16.2731703813850075 28.1128704123049964
 -23.9580553761463051 67.5337083432857384 28.1128704123049964
 31.0046060505279790 16.2731703813850075 28.1128704123049964
 47.9161940505279844 16.2731703813850075 28.1128704123049964
 28.1859935511813049 65.0927547548799765 28.1128704123049964
 36.6417456785679860 16.2731703813850075 28.1128704123049964
  2.8185696785679806 16.2731703813850075 28.1128704123049964
 31.0045633652013137 65.0927547548799765 28.1128704123049964
 -4.2278971557702505 18.7141971991307194 28.1128704123049964
 -18.3209157481063052 67.5337083432857384 28.1128704123049964
 33.8231331792213084 65.0927547548799765 28.1128704123049964
 14.0929753652013119 65.0927547548799765 28.1128704123049964
  8.4557938645479798 16.2731703813850075 28.1128704123049964
 67.6463518645479809 16.2731703813850075 28.1128704123049964
 -32.4138493490561430 64.2791035587447084 28.6327538495249954
 -33.8231765959896151 71.6020375533019688 28.6327538495249954
 -14.0930187819696204 71.6020375533019688 28.6327538495249954
 -12.6836492154302967 59.3971231525932382 28.6327538495249954
 39.4603574735631781 52.0741891580359919 28.6327538495249954
  2.8186538572420905 61.8380767409990000 28.6327538495249954
  5.6372237118973310 56.9561695641874692 28.6327538495249954
 -29.5952795350361448 64.2791035587447084 28.6327538495249954
 40.8696422789838678 64.2791035587447084 28.6327538495249954
 39.4603996712620955 61.8380767409990000 28.6327538495249954
 19.7302418572420777 61.8380767409990000 28.6327538495249954
  5.6372235899903860 71.6020375533019688 28.6327538495249954
  5.6371813516562215 66.7200571471504844 28.6327538495249954
  8.4557934040103735 71.6020375533019688 28.6327538495249954
 22.5488116712620865 61.8380767409990000 28.6327538495249954
 -23.9580975873902986 59.3971231525932382 28.6327538495249954
 11.2743632180303894 71.6020375533019688 28.6327538495249954
 -5.6371823404568273 52.0741891580359919 28.6327538495249954
 25.3673814852820882 61.8380767409990000 28.6327538495249954
 -29.5952372154302985 59.3971231525932382 28.6327538495249954
 45.0976238572420840 61.8380767409990000 28.6327538495249954
 11.2744055376362251 66.7200571471504844 28.6327538495249954
 -1.4092854014103018 59.3971231525932382 28.6327538495249954
 22.5487693516562366 66.7200571471504844 28.6327538495249954
 23.9580965985897052 59.3971231525932382 28.6327538495249954
 29.5953207845697079 59.3971231525932382 28.6327538495249954
 -21.1394855756713831 69.1610107355562462 28.6327538495249954
 49.3255209181955507 54.5151427464417537 28.6327538495249954
  8.4557935259173256 56.9561695641874692 28.6327538495249954
 40.8696845985897141 59.3971231525932382 28.6327538495249954
 -18.3208312037113821 69.1610107355562462 28.6327538495249954
 46.5069087845697027 59.3971231525932382 28.6327538495249954
 -1.4093277210161486 64.2791035587447084 28.6327538495249954
 11.2743633399373131 56.9561695641874692 28.6327538495249954
 38.0510725462355595 54.5151427464417537 28.6327538495249954
 32.4139329181955560 54.5151427464417537 28.6327538495249954
 49.3254785985897115 59.3971231525932382 28.6327538495249954
 -33.8231765147179146 61.8380767409990000 28.6327538495249954
 -7.0464673896913883 69.1610107355562462 28.6327538495249954
 12.6836905462355407 54.5151427464417537 28.6327538495249954
 -31.0045221427579136 61.8380767409990000 28.6327538495249954
  9.8651207322155532 54.5151427464417537 28.6327538495249954
 -28.1859523287379155 61.8380767409990000 28.6327538495249954
  7.0465507962886189 69.1610107355562462 28.6327538495249954
 -9.8651217210161430 64.2791035587447084 28.6327538495249954
 -7.0464672677844442 54.5151427464417537 28.6327538495249954
  1.4092844126096999 59.3971231525932382 28.6327538495249954
 -9.8650370818044468 54.5151427464417537 28.6327538495249954
 -15.5022612677844460 54.5151427464417537 28.6327538495249954
 42.2790117236162359 66.7200571471504844 28.6327538495249954
 12.6837327845697061 59.3971231525932382 28.6327538495249954
 -26.7767097210161431 64.2791035587447084 28.6327538495249954
  8.4557934852820722 61.8380767409990000 28.6327538495249954
  1.4092849002374601  0.8136511961352557 28.6327538495249954
 40.8696424008908039 49.6332355696302230 28.6327538495249954
 21.1395271502905153 15.4595191852497500 28.6327538495249954
 18.3208727783305179 15.4595191852497500 28.6327538495249954
 15.5023029643105232 15.4595191852497500 28.6327538495249954
 -1.4092850356894804 15.4595191852497500 28.6327538495249954
 73.2835760776181360 13.0185655968439828 28.6327538495249954
 45.0975397056581500 13.0185655968439828 28.6327538495249954
 40.8696849643105153 15.4595191852497500 28.6327538495249954
 42.2789698916381340 13.0185655968439828 28.6327538495249954
  2.8185697056581414 13.0185655968439828 28.6327538495249954
 -0.0000001083618602 13.0185655968439828 28.6327538495249954
 -2.8185699223818586 13.0185655968439828 28.6327538495249954
 -5.6372242943418591 13.0185655968439828 28.6327538495249954
 46.5068669119563793 10.5775387790982709 28.6327538495249954
 43.6882970979363634 10.5775387790982709 28.6327538495249954
 39.4604000776181465 13.0185655968439828 28.6327538495249954
 40.8697272839163759 10.5775387790982709 28.6327538495249954
 43.6882547783305313 15.4595191852497500 28.6327538495249954
 -8.4557941489970982 17.9004727736555189 28.6327538495249954
 66.2370246447046753 20.3414995914012344 28.6327538495249954
 52.1440910166646745 20.3414995914012344 28.6327538495249954
 43.6882970166646629 20.3414995914012344 28.6327538495249954
 35.2325030166646727 20.3414995914012344 28.6327538495249954
 29.5952788306846699 20.3414995914012344 28.6327538495249954
 18.3209150166646637 20.3414995914012344 28.6327538495249954
 52.1440487783305286 15.4595191852497500 28.6327538495249954
  7.0464666447046698 20.3414995914012344 28.6327538495249954
 56.3719880369828985 17.9004727736555189 28.6327538495249954
 53.5534182229629039 17.9004727736555189 28.6327538495249954
 42.2789698510029055 17.9004727736555189 28.6327538495249954
 31.0046060369829029 17.9004727736555189 28.6327538495249954
 16.9115878510028992 17.9004727736555189 28.6327538495249954
 -0.0000001489970986 17.9004727736555189 28.6327538495249954
 73.2835760369829075 17.9004727736555189 28.6327538495249954
 71.8742488306846781 20.3414995914012344 28.6327538495249954
 29.5952789119563668 10.5775387790982709 28.6327538495249954
  1.4093270979363695 10.5775387790982709 28.6327538495249954
 78.9208003448698463  3.2546047845410229 28.6327538495249954
 67.6463519729098550  3.2546047845410229 28.6327538495249954
 62.0092123448698445  3.2546047845410229 28.6327538495249954
 59.1905579729098434  3.2546047845410229 28.6327538495249954
 50.7347639729098461  3.2546047845410229 28.6327538495249954
 -0.0000000270901599  3.2546047845410229 28.6327538495249954
 81.7393701588898551  3.2546047845410229 28.6327538495249954
 83.1486550862174738  0.8136511961352557 28.6327538495249954
 71.8742912721974676  0.8136511961352557 28.6327538495249954
 43.6882549002374461  0.8136511961352557 28.6327538495249954
 21.1395272721974621  0.8136511961352557 28.6327538495249954
 15.5023030862174611  0.8136511961352557 28.6327538495249954
 12.6837332721974576  0.8136511961352557 28.6327538495249954
  9.8650789002374601  0.8136511961352557 28.6327538495249954
 77.5114309002374711  0.8136511961352557 28.6327538495249954
 26.7767090979363651 10.5775387790982709 28.6327538495249954
 -1.4093272333883895  5.6956316022867357 28.6327538495249954
  4.2278969525916086  5.6956316022867357 28.6327538495249954
 76.1021882112439840  8.1365851906925037 28.6327538495249954
 64.8277398392839928  8.1365851906925037 28.6327538495249954
 62.0091700252639910  8.1365851906925037 28.6327538495249954
 56.3719458392839954  8.1365851906925037 28.6327538495249954
 50.7348062112439848  8.1365851906925037 28.6327538495249954
 33.8232182112439972  8.1365851906925037 28.6327538495249954
  1.4093271385716108  5.6956316022867357 28.6327538495249954
 31.0045638392839891  8.1365851906925037 28.6327538495249954
 63.4184549525916097  5.6956316022867357 28.6327538495249954
 52.1440911385716035  5.6956316022867357 28.6327538495249954
 32.4138487666116077  5.6956316022867357 28.6327538495249954
 26.7767091385716043  5.6956316022867357 28.6327538495249954
 23.9580547666116068  5.6956316022867357 28.6327538495249954
 12.6836909525916113  5.6956316022867357 28.6327538495249954
 66.2370247666116256  5.6956316022867357 28.6327538495249954
 -2.8186122826229494 22.7824531798069998 28.6327538495249954
  8.4558360893370512 22.7824531798069998 28.6327538495249954
 70.4649639033570594 22.7824531798069998 28.6327538495249954
 -4.2278550935233552 44.7512551634787386 28.6327538495249954
 -9.8650792795033553 44.7512551634787386 28.6327538495249954
 -12.6836490935233588 44.7512551634787386 28.6327538495249954
 -18.3208732795033562 44.7512551634787386 28.6327538495249954
 -23.9580974654833554 44.7512551634787386 28.6327538495249954
 59.1905576478242708 42.3103015750729767 28.6327538495249954
  7.0465087204966403 44.7512551634787386 28.6327538495249954
 56.3719878338042619 42.3103015750729767 28.6327538495249954
  5.6372238338042564 42.3103015750729767 28.6327538495249954
 -14.0930185381557376 42.3103015750729767 28.6327538495249954
 -19.7301581661957393 42.3103015750729767 28.6327538495249954
 26.7767088541224823 39.8692747573272612 28.6327538495249954
 23.9581390401024947 39.8692747573272612 28.6327538495249954
 15.5023450401024956 39.8692747573272612 28.6327538495249954
 45.0975394618442706 42.3103015750729767 28.6327538495249954
 12.6836906681424875 39.8692747573272612 28.6327538495249954
  9.8650785345166412 44.7512551634787386 28.6327538495249954
 32.4138907204966458 44.7512551634787386 28.6327538495249954
 35.2325027728508005 49.6332355696302230 28.6327538495249954
 23.9580544008907985 49.6332355696302230 28.6327538495249954
 -7.0464672271492059 49.6332355696302230 28.6327538495249954
 -15.5022612271492086 49.6332355696302230 28.6327538495249954
 -18.3209155991092061 49.6332355696302230 28.6327538495249954
 -21.1394854131292078 49.6332355696302230 28.6327538495249954
 15.5023027204966439 44.7512551634787386 28.6327538495249954
 50.7347636071890307 47.1922087518845075 28.6327538495249954
 39.4603997931690245 47.1922087518845075 28.6327538495249954
 36.6418299791490298 47.1922087518845075 28.6327538495249954
  5.6372237931690181 47.1922087518845075 28.6327538495249954
 -14.0929340208509810 47.1922087518845075 28.6327538495249954
 -22.5487280208509766 47.1922087518845075 28.6327538495249954
 35.2324605345166475 44.7512551634787386 28.6327538495249954
 47.9161937931690360 47.1922087518845075 28.6327538495249954
  7.0465510401024849 39.8692747573272612 28.6327538495249954
 -1.4092429598975091 39.8692747573272612 28.6327538495249954
 47.9161515954701187 37.4283211689214923 28.6327538495249954
 26.7766666564235685 30.1053871743642461 28.6327538495249954
 15.5023028424035783 30.1053871743642461 28.6327538495249954
  9.8650786564235791 30.1053871743642461 28.6327538495249954
  1.4092846564235810 30.1053871743642461 28.6327538495249954
 -12.6836489716164174 30.1053871743642461 28.6327538495249954
 62.0091275837512086 27.6644335859584807 28.6327538495249954
 29.5953210283835837 30.1053871743642461 28.6327538495249954
 22.5488119557112086 27.6644335859584807 28.6327538495249954
 -2.8185700442888009 27.6644335859584807 28.6327538495249954
 52.1440909760294318 25.2234067682127652 28.6327538495249954
 46.5068667900494361 25.2234067682127652 28.6327538495249954
 38.0510727900494388 25.2234067682127652 28.6327538495249954
 23.9581391620094379 25.2234067682127652 28.6327538495249954
  9.8651209760294343 25.2234067682127652 28.6327538495249954
 -0.0000002302687971 27.6644335859584807 28.6327538495249954
 49.3254788424035837 30.1053871743642461 28.6327538495249954
 54.9627030283835865 30.1053871743642461 28.6327538495249954
 60.5998426564235899 30.1053871743642461 28.6327538495249954
 36.6417877814501125 37.4283211689214923 28.6327538495249954
  8.4558359674301080 37.4283211689214923 28.6327538495249954
  2.8186117814501150 37.4283211689214923 28.6327538495249954
 40.8696425227977400 34.9873675805157234 28.6327538495249954
 38.0510727087777383 34.9873675805157234 28.6327538495249954
 35.2325028947577295 34.9873675805157234 28.6327538495249954
 23.9580545227977240 34.9873675805157234 28.6327538495249954
 15.5022605227977337 34.9873675805157234 28.6327538495249954
 -4.2278972912222672 34.9873675805157234 28.6327538495249954
 -12.6836912912222672 34.9873675805157234 28.6327538495249954
 -15.5022611052422672 34.9873675805157234 28.6327538495249954
 53.5534181010559607 32.5463407627700150 28.6327538495249954
 36.6418301010559517 32.5463407627700150 28.6327538495249954
 -11.2743640849240396 32.5463407627700150 28.6327538495249954
 -16.9115882709040370 32.5463407627700150 28.6327538495249954
 43.6882967728507978 49.6332355696302230 28.6327538495249954
 25.3673814040103807 71.6020375533019688 28.6327538495249954
