 H  O 
 1.0000000000000000
    84.5579400000000021    0.0000000000000000    0.0000000000000000
   -42.2789706095346958   73.2293399455724767    0.0000000000000000
     0.0000000000000000    0.0000000000000000   46.9039550000000034
 H   O  
 292 203
Cartesian
  5.6372241724349186  1.6273023922705114 28.1128704123049964
  2.8186117949951930 35.8010187766509844 28.1128704123049964
 -5.6371822050048115 35.8010187766509844 28.1128704123049964
 -8.4558365769648098 35.8010187766509844 28.1128704123049964
 -14.0929762050048097 35.8010187766509844 28.1128704123049964
 -19.7302003909848089 35.8010187766509844 28.1128704123049964
 45.0975393128471538 60.2107743487284921 28.1128704123049964
 43.6882123503628037 33.3600651882452155 28.1128704123049964
 39.4603996848071645 60.2107743487284921 28.1128704123049964
 -21.1394855214910677 62.6518011664742076 28.1128704123049964
 21.1394847223228126 33.3600651882452155 28.1128704123049964
 18.3208303503628116 33.3600651882452155 28.1128704123049964
 -9.8651217074710615 62.6518011664742076 28.1128704123049964
  7.0464665363428152 33.3600651882452155 28.1128704123049964
 -1.4093277074710613 62.6518011664742076 28.1128704123049964
 -9.8651214636571893 33.3600651882452155 28.1128704123049964
 -12.6836912776771893 33.3600651882452155 28.1128704123049964
 26.7766243503628161 33.3600651882452155 28.1128704123049964
  7.0464662925289359 62.6518011664742076 28.1128704123049964
 14.0929756090151947 35.8010187766509844 28.1128704123049964
 25.3673814988271609 60.2107743487284921 28.1128704123049964
  8.4557934988271644 60.2107743487284921 28.1128704123049964
 11.2743633128471661 60.2107743487284921 28.1128704123049964
  4.2278966816875769 38.2419723650567462 28.1128704123049964
 -1.4093275042924258 38.2419723650567462 28.1128704123049964
 40.8696844902278471 72.4156887494372228 28.1128704123049964
 -9.8651215042924267 38.2419723650567462 28.1128704123049964
 16.9115874988271635 60.2107743487284921 28.1128704123049964
 31.0046056848071565 60.2107743487284921 28.1128704123049964
 -12.6836913183124267 38.2419723650567462 28.1128704123049964
 53.5533757949951976 35.8010187766509844 28.1128704123049964
 50.7347214230351895 35.8010187766509844 28.1128704123049964
 45.0975817949951860 35.8010187766509844 28.1128704123049964
 42.2789274230351850 35.8010187766509844 28.1128704123049964
 36.6417877949951958 35.8010187766509844 28.1128704123049964
 19.7301573128471581 60.2107743487284921 28.1128704123049964
 31.0045636090151895 35.8010187766509844 28.1128704123049964
 -21.1394853183124276 38.2419723650567462 28.1128704123049964
 23.9580544957075787 38.2419723650567462 28.1128704123049964
 53.5533335566610376 30.9190383704995000 28.1128704123049964
 45.0975395566610331 30.9190383704995000 28.1128704123049964
 -15.5023033300313369 28.4780847820937346 28.1128704123049964
  1.4093267457606342 52.8878403541712458 28.1128704123049964
 -22.5487704488186900 65.0927547548799765 28.1128704123049964
 -14.0929764488186855 65.0927547548799765 28.1128704123049964
 31.0045214113162864 26.0371311936879657 28.1128704123049964
 22.5487274113162819 26.0371311936879657 28.1128704123049964
 19.7301575972962873 26.0371311936879657 28.1128704123049964
 -9.8650791440513395 28.4780847820937346 28.1128704123049964
 16.9115877832762855 26.0371311936879657 28.1128704123049964
  5.6371394113162827 26.0371311936879657 28.1128704123049964
 11.2744055511813173 65.0927547548799765 28.1128704123049964
 69.0556789895745169 23.5961043759422537 28.1128704123049964
 66.2370246176145088 23.5961043759422537 28.1128704123049964
 63.4184548035945070 23.5961043759422537 28.1128704123049964
 57.7812306176145043 23.5961043759422537 28.1128704123049964
 49.3254366176144998 23.5961043759422537 28.1128704123049964
 11.2743635972962863 26.0371311936879657 28.1128704123049964
 47.9161939286210341 30.9190383704995000 28.1128704123049964
  1.4092846699686612 28.4780847820937346 28.1128704123049964
  9.8650786699686659 28.4780847820937346 28.1128704123049964
 39.4603999286210438 30.9190383704995000 28.1128704123049964
 36.6417455566610357 30.9190383704995000 28.1128704123049964
 19.7301575566610410 30.9190383704995000 28.1128704123049964
 11.2743635566610401 30.9190383704995000 28.1128704123049964
  2.8185695566610427 30.9190383704995000 28.1128704123049964
 -5.6372244433389582 30.9190383704995000 28.1128704123049964
 60.5998426699686590 28.4780847820937346 28.1128704123049964
  4.2278544839886631 28.4780847820937346 28.1128704123049964
 57.7812728559486644 28.4780847820937346 28.1128704123049964
 46.5068244839886518 28.4780847820937346 28.1128704123049964
 43.6882546699686571 28.4780847820937346 28.1128704123049964
 26.7766666699686624 28.4780847820937346 28.1128704123049964
 23.9580968559486607 28.4780847820937346 28.1128704123049964
 40.8696422925289298 62.6518011664742076 28.1128704123049964
 15.5023028559486651 28.4780847820937346 28.1128704123049964
 -36.6417886347986865 65.0927547548799765 28.1128704123049964
 52.1440486699686616 28.4780847820937346 28.1128704123049964
 40.8696426176145025 23.5961043759422537 28.1128704123049964
 29.5952786816875744 38.2419723650567462 28.1128704123049964
 38.0510726816875717 38.2419723650567462 28.1128704123049964
 -19.7302005128917450 50.4468867657654769 28.1128704123049964
 -22.5487703269117468 50.4468867657654769 28.1128704123049964
 -25.3673824605375984 55.3288671719169614 28.1128704123049964
 -19.7302428324975985 55.3288671719169614 28.1128704123049964
 -16.9115884605376010 55.3288671719169614 28.1128704123049964
 35.2324182284558631 48.0059331773597151 28.1128704123049964
 -14.0930186465175975 55.3288671719169614 28.1128704123049964
 -16.9116306988717469 50.4468867657654769 28.1128704123049964
 21.1394846004158765 48.0059331773597151 28.1128704123049964
 -8.4557944605375948 55.3288671719169614 28.1128704123049964
  1.4092422284558699 48.0059331773597151 28.1128704123049964
 -1.4093275855641247 48.0059331773597151 28.1128704123049964
 -7.0465517715441273 48.0059331773597151 28.1128704123049964
 -15.5023457715441282 48.0059331773597151 28.1128704123049964
 11.2743633534824053 55.3288671719169614 28.1128704123049964
 -21.1394853995841281 48.0059331773597151 28.1128704123049964
 12.6836906004158720 48.0059331773597151 28.1128704123049964
 16.9115875394624062 55.3288671719169614 28.1128704123049964
 -14.0929763269117494 50.4468867657654769 28.1128704123049964
 -0.0000426988717480 50.4468867657654769 28.1128704123049964
 -4.2278974402193654 52.8878403541712458 28.1128704123049964
  9.8651207457606311 52.8878403541712458 28.1128704123049964
 -12.6836914402193699 52.8878403541712458 28.1128704123049964
 -18.3209156261993691 52.8878403541712458 28.1128704123049964
 -21.1394854402193673 52.8878403541712458 28.1128704123049964
 -23.9580552542393690 52.8878403541712458 28.1128704123049964
 21.1394845597806302 52.8878403541712458 28.1128704123049964
 -11.2744065128917477 50.4468867657654769 28.1128704123049964
 32.4138483738006258 52.8878403541712458 28.1128704123049964
 47.9161514871082517 50.4468867657654769 28.1128704123049964
 42.2789273011282489 50.4468867657654769 28.1128704123049964
 28.1859936730882552 50.4468867657654769 28.1128704123049964
 40.8696423738006303 52.8878403541712458 28.1128704123049964
 11.2744056730882534 50.4468867657654769 28.1128704123049964
  5.6371814871082586 50.4468867657654769 28.1128704123049964
  2.8186116730882564 50.4468867657654769 28.1128704123049964
 50.7347213011282463 50.4468867657654769 28.1128704123049964
 32.4138484957075690 38.2419723650567462 28.1128704123049964
 25.3673815394624036 55.3288671719169614 28.1128704123049964
 19.7301574347541049 45.5649063596139996 28.1128704123049964
 -15.5023034519382783 43.1239527712082307 28.1128704123049964
 -18.3208732659582765 43.1239527712082307 28.1128704123049964
 -23.9580974519382757 43.1239527712082307 28.1128704123049964
 32.4138906121347787 57.7698207603227232 28.1128704123049964
 43.6882544261547849 57.7698207603227232 28.1128704123049964
 -31.0046066871528367 60.2107743487284921 28.1128704123049964
 -16.9115885011728366 60.2107743487284921 28.1128704123049964
 29.5952362401747777 57.7698207603227232 28.1128704123049964
 14.0929332894093395 40.6829991828024689 28.1128704123049964
 -5.6372245246106605 40.6829991828024689 28.1128704123049964
 -11.2744487105906597 40.6829991828024689 28.1128704123049964
 -14.0930185246106596 40.6829991828024689 28.1128704123049964
 -16.9115883386306614 40.6829991828024689 28.1128704123049964
 -8.4557945011728339 60.2107743487284921 28.1128704123049964
 54.9626606816875736 38.2419723650567462 28.1128704123049964
 -2.8185703151928343 60.2107743487284921 28.1128704123049964
  5.6371392894093386 40.6829991828024689 28.1128704123049964
 36.6417453534824062 55.3288671719169614 28.1128704123049964
 -12.6837336379182783 43.1239527712082307 28.1128704123049964
 -1.4092852659582757 43.1239527712082307 28.1128704123049964
 16.9115876207341032 45.5649063596139996 28.1128704123049964
 -0.0000003792658964 45.5649063596139996 28.1128704123049964
 -11.2743641932859031 45.5649063596139996 28.1128704123049964
 -14.0930185652459006 45.5649063596139996 28.1128704123049964
 -19.7301581932858987 45.5649063596139996 28.1128704123049964
 -21.1395277598252136 57.7698207603227232 28.1128704123049964
 -12.6837337598252144 57.7698207603227232 28.1128704123049964
 18.3208724261547857 57.7698207603227232 28.1128704123049964
 49.3254787340417238 43.1239527712082307 28.1128704123049964
 38.0510303620817112 43.1239527712082307 28.1128704123049964
 32.4138907340417219 43.1239527712082307 28.1128704123049964
  7.0465086121347857 57.7698207603227232 28.1128704123049964
 15.5023027340417219 43.1239527712082307 28.1128704123049964
  9.8650784261547866 57.7698207603227232 28.1128704123049964
  9.8650785480617262 43.1239527712082307 28.1128704123049964
  1.4092845480617260 43.1239527712082307 28.1128704123049964
 43.6882545480617210 43.1239527712082307 28.1128704123049964
 35.2325029895745132 23.5961043759422537 28.1128704123049964
 -28.1859946347986892 65.0927547548799765 28.1128704123049964
  4.2278965597806355 52.8878403541712458 28.1128704123049964
 67.6463519051832236 11.3912632045734714 28.1128704123049964
 73.2834915332232129 11.3912632045734714 28.1128704123049964
  8.4557934175554603 69.9747351610314468 28.1128704123049964
 32.4138486176145122 23.5961043759422537 28.1128704123049964
 -0.0000005824445366 69.9747351610314468 28.1128704123049964
  4.2278546058956001 13.8322167929792403 28.1128704123049964
 12.6836486058956019 13.8322167929792403 28.1128704123049964
 -2.8186549544045376 69.9747351610314468 28.1128704123049964
 32.4138904902278497 72.4156887494372228 28.1128704123049964
 18.3208727918756047 13.8322167929792403 28.1128704123049964
 -5.6372247684245327 69.9747351610314468 28.1128704123049964
 26.7766667918756056 13.8322167929792403 28.1128704123049964
 29.5952366058956002 13.8322167929792403 28.1128704123049964
 46.5068669661366982  4.0683292100162243 28.1128704123049964
 11.2743632315754621 69.9747351610314468 28.1128704123049964
 43.6882125941766972  4.0683292100162243 28.1128704123049964
 46.5068246058955950 13.8322167929792403 28.1128704123049964
 -25.3673825824445345 69.9747351610314468 28.1128704123049964
 66.2370669778556049 13.8322167929792403 28.1128704123049964
 69.0556367918755996 13.8322167929792403 28.1128704123049964
 71.8742066058955942 13.8322167929792403 28.1128704123049964
 74.6928609778556023 13.8322167929792403 28.1128704123049964
 -8.4557941354520185 16.2731703813850075 28.1128704123049964
 32.4138487801566981  4.0683292100162243 28.1128704123049964
  2.8185696785679806 16.2731703813850075 28.1128704123049964
 -33.8231765824445318 69.9747351610314468 28.1128704123049964
 16.9115878645479825 16.2731703813850075 28.1128704123049964
 22.5488120505279817 16.2731703813850075 28.1128704123049964
 29.5952789661366928  4.0683292100162243 28.1128704123049964
 67.6463096668490635  6.5092827984219914 28.1128704123049964
 -16.9115885824445336 69.9747351610314468 28.1128704123049964
 52.1440065941766875  4.0683292100162243 28.1128704123049964
 56.3719035332232110 11.3912632045734714 28.1128704123049964
 63.4184549661366859  4.0683292100162243 28.1128704123049964
 56.3719458528290644  6.5092827984219914 28.1128704123049964
  9.8650783042478416 72.4156887494372228 28.1128704123049964
  1.4092843042478451 72.4156887494372228 28.1128704123049964
 -7.0465096957521522 72.4156887494372228 28.1128704123049964
  7.0464667395214500  8.9502363868277595 28.1128704123049964
 -9.8650795097721549 72.4156887494372228 28.1128704123049964
 -18.3208735097721558 72.4156887494372228 28.1128704123049964
 -21.1395278817321568 72.4156887494372228 28.1128704123049964
 45.0975820388090725  6.5092827984219914 28.1128704123049964
 26.7767091114814519  8.9502363868277595 28.1128704123049964
 42.2789276668490714  6.5092827984219914 28.1128704123049964
 39.4603578528290697  6.5092827984219914 28.1128704123049964
 32.4138487395214483  8.9502363868277595 28.1128704123049964
 40.8696427395214528  8.9502363868277595 28.1128704123049964
 46.5068669255014484  8.9502363868277595 28.1128704123049964
 49.3254367395214430  8.9502363868277595 28.1128704123049964
 36.6417880388090680  6.5092827984219914 28.1128704123049964
 53.5533337192032164 11.3912632045734714 28.1128704123049964
 39.4603155332232234 11.3912632045734714 28.1128704123049964
 71.8742489661366903  4.0683292100162243 28.1128704123049964
 26.7766663042478434 72.4156887494372228 28.1128704123049964
 77.5113885941766796  4.0683292100162243 28.1128704123049964
 80.3300429661366877  4.0683292100162243 28.1128704123049964
 40.8696422518936870 67.5337083432857384 28.1128704123049964
 21.1394421182678336 72.4156887494372228 28.1128704123049964
  8.4557939051832172 11.3912632045734714 28.1128704123049964
  5.6371395332232206 11.3912632045734714 28.1128704123049964
 31.0045210455954674 69.9747351610314468 28.1128704123049964
 36.6417452315754701 69.9747351610314468 28.1128704123049964
 11.2744060388090670  6.5092827984219914 28.1128704123049964
 -35.2324615097721576 72.4156887494372228 28.1128704123049964
 11.2743637192032189 11.3912632045734714 28.1128704123049964
 36.6417456785679860 16.2731703813850075 28.1128704123049964
 26.7766245941766883  4.0683292100162243 28.1128704123049964
 23.9580547801566937  4.0683292100162243 28.1128704123049964
 -11.2744062690778684 21.1551507875364884 28.1128704123049964
 42.2789698645479817 16.2731703813850075 28.1128704123049964
 42.2789699864549249  1.6273023922705114 28.1128704123049964
 -5.6371820830978701 21.1551507875364884 28.1128704123049964
 -2.8186122690778692 21.1551507875364884 28.1128704123049964
  2.8186119169021282 21.1551507875364884 28.1128704123049964
 -9.8651217481063078 67.5337083432857384 28.1128704123049964
 14.0929757309221344 21.1551507875364884 28.1128704123049964
 19.7301999169021336 21.1551507875364884 28.1128704123049964
 39.4603577309221265 21.1551507875364884 28.1128704123049964
 42.2789275449421211 21.1551507875364884 28.1128704123049964
 39.4604001724349231  1.6273023922705114 28.1128704123049964
 33.8231759864549275  1.6273023922705114 28.1128704123049964
 47.9161517309221239 21.1551507875364884 28.1128704123049964
 28.1859518004749177  1.6273023922705114 28.1128704123049964
 -32.4138493761463025 67.5337083432857384 28.1128704123049964
 22.5488121724349213  1.6273023922705114 28.1128704123049964
 67.6463095449421274 21.1551507875364884 28.1128704123049964
 36.6417875511813165 65.0927547548799765 28.1128704123049964
 -9.8651213823854889 23.5961043759422537 28.1128704123049964
 -4.2278971964054897 23.5961043759422537 28.1128704123049964
  1.4093269895745080 23.5961043759422537 28.1128704123049964
  4.2278968035945095 23.5961043759422537 28.1128704123049964
 11.2743638004749194  1.6273023922705114 28.1128704123049964
 31.0045633652013137 65.0927547548799765 28.1128704123049964
 25.3673391792213039 65.0927547548799765 28.1128704123049964
 18.3209149895745149 23.5961043759422537 28.1128704123049964
 21.1394848035945166 23.5961043759422537 28.1128704123049964
 26.7767089895745123 23.5961043759422537 28.1128704123049964
 71.8742488442297542 18.7141971991307194 28.1128704123049964
 69.0555944722697461 18.7141971991307194 28.1128704123049964
 50.7347639864549222  1.6273023922705114 28.1128704123049964
 -4.2278975621263015 67.5337083432857384 28.1128704123049964
  7.0464667801566900  4.0683292100162243 28.1128704123049964
 15.5022607801566892  4.0683292100162243 28.1128704123049964
 67.6463518645479809 16.2731703813850075 28.1128704123049964
 70.4649216785679755 16.2731703813850075 28.1128704123049964
 -7.0465515277302488 18.7141971991307194 28.1128704123049964
 35.2325026238536978 67.5337083432857384 28.1128704123049964
  1.4092424722697507 18.7141971991307194 28.1128704123049964
  4.2278969661366892  4.0683292100162243 28.1128704123049964
 63.4184548442297569 18.7141971991307194 28.1128704123049964
 18.3208305941766909  4.0683292100162243 28.1128704123049964
 21.1394849661366919  4.0683292100162243 28.1128704123049964
 26.7767086238536862 67.5337083432857384 28.1128704123049964
 50.7347638645479790 16.2731703813850075 28.1128704123049964
 64.8277820505279863 16.2731703813850075 28.1128704123049964
  1.4092425941766900  4.0683292100162243 28.1128704123049964
 18.3208304722697477 18.7141971991307194 28.1128704123049964
 15.5022602518936878 67.5337083432857384 28.1128704123049964
 21.1394848442297523 18.7141971991307194 28.1128704123049964
 -1.4093272198433096  4.0683292100162243 28.1128704123049964
 23.9580546582497540 18.7141971991307194 28.1128704123049964
 35.2324603042478444 72.4156887494372228 28.1128704123049964
 29.5952788442297496 18.7141971991307194 28.1128704123049964
 35.2324184722697566 18.7141971991307194 28.1128704123049964
 47.9161940505279844 16.2731703813850075 28.1128704123049964
 59.1905579864549196  1.6273023922705114 28.1128704123049964
 56.3719881724349250  1.6273023922705114 28.1128704123049964
  1.4093266238536943 67.5337083432857384 28.1128704123049964
 15.5022606582497549 18.7141971991307194 28.1128704123049964
 59.1905578645479835 16.2731703813850075 28.1128704123049964
 39.4603995899903808 71.6020375533019688 28.6327538495249954
 19.7301572180303850 71.6020375533019688 28.6327538495249954
 15.5023449181955559 54.5151427464417537 28.6327538495249954
 53.5533756595431782 52.0741891580359919 28.6327538495249954
 19.7301996595431604 52.0741891580359919 28.6327538495249954
 -4.2278974537644496 54.5151427464417537 28.6327538495249954
 -7.0464672677844442 54.5151427464417537 28.6327538495249954
 36.6417876595431693 52.0741891580359919 28.6327538495249954
 -9.8650370818044468 54.5151427464417537 28.6327538495249954
 16.9116298455231728 52.0741891580359919 28.6327538495249954
 46.5068665462355568 54.5151427464417537 28.6327538495249954
 15.5022602789838597 64.2791035587447084 28.6327538495249954
 52.1440907322155596 54.5151427464417537 28.6327538495249954
 49.3254785985897115 59.3971231525932382 28.6327538495249954
 -31.0045221427579136 61.8380767409990000 28.6327538495249954
 -25.3673825147179137 61.8380767409990000 28.6327538495249954
 -19.7301583287379145 61.8380767409990000 28.6327538495249954
 31.0045633516562411 66.7200571471504844 28.6327538495249954
  2.8186538572420905 61.8380767409990000 28.6327538495249954
 19.7301995376362349 66.7200571471504844 28.6327538495249954
 14.0930176712620749 61.8380767409990000 28.6327538495249954
  8.4558357236162376 66.7200571471504844 28.6327538495249954
 16.9115874852820909 61.8380767409990000 28.6327538495249954
 39.4603573516562420 66.7200571471504844 28.6327538495249954
  2.8186115376362340 66.7200571471504844 28.6327538495249954
 33.8231754852820927 61.8380767409990000 28.6327538495249954
 36.6418298572420866 61.8380767409990000 28.6327538495249954
 -35.2325037210161440 64.2791035587447084 28.6327538495249954
 -32.4138493490561430 64.2791035587447084 28.6327538495249954
 -16.9115462763837670 66.7200571471504844 28.6327538495249954
 -19.7302006483437680 66.7200571471504844 28.6327538495249954
 43.6882966509438617 64.2791035587447084 28.6327538495249954
 -12.6836915350361448 64.2791035587447084 28.6327538495249954
 -7.0464673490561447 64.2791035587447084 28.6327538495249954
 21.1394844649638500 64.2791035587447084 28.6327538495249954
 28.1860358572420893 61.8380767409990000 28.6327538495249954
 49.3255209181955507 54.5151427464417537 28.6327538495249954
 -38.0510735756713814 69.1610107355562462 28.6327538495249954
 -29.5952795756713840 69.1610107355562462 28.6327538495249954
  5.6372235899903860 71.6020375533019688 28.6327538495249954
  2.8185692180303707 71.6020375533019688 28.6327538495249954
 -22.5488127819696196 71.6020375533019688 28.6327538495249954
 -5.6372246600626781 56.9561695641874692 28.6327538495249954
 -0.0000004740826793 56.9561695641874692 28.6327538495249954
  5.6372237118973310 56.9561695641874692 28.6327538495249954
 -25.3673825959896213 71.6020375533019688 28.6327538495249954
 -28.1859524100096195 71.6020375533019688 28.6327538495249954
 22.5488117118973186 56.9561695641874692 28.6327538495249954
 28.1859513399373292 56.9561695641874692 28.6327538495249954
 38.0511147845697053 59.3971231525932382 28.6327538495249954
 43.6882966103086261 69.1610107355562462 28.6327538495249954
 29.5952784243286260 69.1610107355562462 28.6327538495249954
 23.9581387962886225 69.1610107355562462 28.6327538495249954
 -29.5952372154302985 59.3971231525932382 28.6327538495249954
 -23.9580975873902986 59.3971231525932382 28.6327538495249954
 21.1394844243286215 69.1610107355562462 28.6327538495249954
 -15.5023035873902977 59.3971231525932382 28.6327538495249954
 12.6836904243286224 69.1610107355562462 28.6327538495249954
  1.4092844126096999 59.3971231525932382 28.6327538495249954
 -9.8650372037113900 69.1610107355562462 28.6327538495249954
 -15.5022613896913821 69.1610107355562462 28.6327538495249954
 33.8231755259173212 56.9561695641874692 28.6327538495249954
  1.4093266103086164 69.1610107355562462 28.6327538495249954
 -5.6371822185498859 37.4283211689214923 28.6327538495249954
 -8.4557521544768282 52.0741891580359919 28.6327538495249954
 -1.4092850356894804 15.4595191852497500 28.6327538495249954
  7.0465089643105223 15.4595191852497500 28.6327538495249954
 29.5953211502905269 15.4595191852497500 28.6327538495249954
 32.4138909643105251 15.4595191852497500 28.6327538495249954
 43.6882547783305313 15.4595191852497500 28.6327538495249954
 54.9627031502905297 15.4595191852497500 28.6327538495249954
 -2.8185699630171004 17.9004727736555189 28.6327538495249954
  8.4557938510029000 17.9004727736555189 28.6327538495249954
 11.2744482229629011 17.9004727736555189 28.6327538495249954
 19.7302422229628966 17.9004727736555189 28.6327538495249954
 28.1860362229629082 17.9004727736555189 28.6327538495249954
 42.2789698510029055 17.9004727736555189 28.6327538495249954
 53.5534182229629039 17.9004727736555189 28.6327538495249954
 56.3719880369828985 17.9004727736555189 28.6327538495249954
  7.0464666447046698 20.3414995914012344 28.6327538495249954
 52.1440910166646745 20.3414995914012344 28.6327538495249954
 54.9626608306846691 20.3414995914012344 28.6327538495249954
 -5.6372244162487979 27.6644335859584807 28.6327538495249954
 46.5068667900494361 25.2234067682127652 28.6327538495249954
 43.6882969760294344 25.2234067682127652 28.6327538495249954
 38.0510727900494388 25.2234067682127652 28.6327538495249954
 -1.4092428379905699 25.2234067682127652 28.6327538495249954
 -7.0464670239705693 25.2234067682127652 28.6327538495249954
 62.0091277056581518 13.0185655968439828 28.6327538495249954
 -12.6836912099505668 25.2234067682127652 28.6327538495249954
 22.5487697173770485 22.7824531798069998 28.6327538495249954
 16.9116300893370450 22.7824531798069998 28.6327538495249954
  8.4558360893370512 22.7824531798069998 28.6327538495249954
 69.0556790166646692 20.3414995914012344 28.6327538495249954
 63.4184548306846807 20.3414995914012344 28.6327538495249954
 60.5998850166646719 20.3414995914012344 28.6327538495249954
 31.0045637173770388 22.7824531798069998 28.6327538495249954
 -0.0000002302687971 27.6644335859584807 28.6327538495249954
 45.0975397056581500 13.0185655968439828 28.6327538495249954
 33.8231758916381438 13.0185655968439828 28.6327538495249954
  9.8650789002374601  0.8136511961352557 28.6327538495249954
 63.4184972721974631  0.8136511961352557 28.6327538495249954
 47.9161941588898301  3.2546047845410229 28.6327538495249954
 76.1021459729098524  3.2546047845410229 28.6327538495249954
  9.8651211385716078  5.6956316022867357 28.6327538495249954
 32.4138487666116077  5.6956316022867357 28.6327538495249954
 54.9626609525916123  5.6956316022867357 28.6327538495249954
 71.8742489525916284  5.6956316022867357 28.6327538495249954
 -2.8186121607160102  8.1365851906925037 28.6327538495249954
  0.0000422112439907  8.1365851906925037 28.6327538495249954
  2.8186120252639890  8.1365851906925037 28.6327538495249954
 14.0929758392839890  8.1365851906925037 28.6327538495249954
 16.9116302112439918  8.1365851906925037 28.6327538495249954
 19.7302000252639935  8.1365851906925037 28.6327538495249954
 25.3674242112439856  8.1365851906925037 28.6327538495249954
 56.3719458392839954  8.1365851906925037 28.6327538495249954
 62.0091700252639910  8.1365851906925037 28.6327538495249954
 22.5488120776181340 13.0185655968439828 28.6327538495249954
 16.9115878916381419 13.0185655968439828 28.6327538495249954
 -0.0000001083618602 13.0185655968439828 28.6327538495249954
 -2.8185699223818586 13.0185655968439828 28.6327538495249954
 -5.6372242943418591 13.0185655968439828 28.6327538495249954
 63.4184549119563812 10.5775387790982709 28.6327538495249954
 39.4604000776181465 13.0185655968439828 28.6327538495249954
 57.7813152839163777 10.5775387790982709 28.6327538495249954
 35.2325030979363731 10.5775387790982709 28.6327538495249954
 23.9581392839163634 10.5775387790982709 28.6327538495249954
 -1.4092427160836287 10.5775387790982709 28.6327538495249954
 -4.2278970880436288 10.5775387790982709 28.6327538495249954
 76.1021882112439840  8.1365851906925037 28.6327538495249954
 73.2835338392839901  8.1365851906925037 28.6327538495249954
 52.1440910979363750 10.5775387790982709 28.6327538495249954
 -5.6371823404568273 52.0741891580359919 28.6327538495249954
 14.0930179557111952 27.6644335859584807 28.6327538495249954
 28.1859515837511907 27.6644335859584807 28.6327538495249954
 -5.6372245381557384 42.3103015750729767 28.6327538495249954
 -2.8185701661957374 42.3103015750729767 28.6327538495249954
 11.2743634618442599 42.3103015750729767 28.6327538495249954
 19.7301574618442501 42.3103015750729767 28.6327538495249954
 22.5488118338042653 42.3103015750729767 28.6327538495249954
 25.3673816478242529 42.3103015750729767 28.6327538495249954
 31.0046058338042556 42.3103015750729767 28.6327538495249954
 59.1905576478242708 42.3103015750729767 28.6327538495249954
 -23.9580974654833554 44.7512551634787386 28.6327538495249954
  4.2279389064766386 44.7512551634787386 28.6327538495249954
  7.0465087204966403 44.7512551634787386 28.6327538495249954
  9.8650785345166412 44.7512551634787386 28.6327538495249954
 26.7766665345166501 44.7512551634787386 28.6327538495249954
 29.5953209064766369 44.7512551634787386 28.6327538495249954
 43.6882545345166520 44.7512551634787386 28.6327538495249954
 54.9627029064766432 44.7512551634787386 28.6327538495249954
 -16.9115883928109767 47.1922087518845075 28.6327538495249954
 -19.7302005264368283 52.0741891580359919 28.6327538495249954
 -28.1859945264368292 52.0741891580359919 28.6327538495249954
 52.1440907728507952 49.6332355696302230 28.6327538495249954
 38.0510725868707951 49.6332355696302230 28.6327538495249954
 15.5022604008907816 49.6332355696302230 28.6327538495249954
  7.0464664008907913 49.6332355696302230 28.6327538495249954
 -8.4557943521757366 42.3103015750729767 28.6327538495249954
 -26.7767095991092070 49.6332355696302230 28.6327538495249954
 39.4603997931690245 47.1922087518845075 28.6327538495249954
 28.1860359791490147 47.1922087518845075 28.6327538495249954
 25.3673816071890279 47.1922087518845075 28.6327538495249954
  5.6372237931690181 47.1922087518845075 28.6327538495249954
 -5.6371400208509774 47.1922087518845075 28.6327538495249954
 -11.2743642068309775 47.1922087518845075 28.6327538495249954
 56.3719877931690334 47.1922087518845075 28.6327538495249954
 19.7301575837512004 27.6644335859584807 28.6327538495249954
 -14.0930185381557376 42.3103015750729767 28.6327538495249954
 54.9626606681424974 39.8692747573272612 28.6327538495249954
 42.2789697697312050 27.6644335859584807 28.6327538495249954
 -4.2278549716164209 30.1053871743642461 28.6327538495249954
 32.4138908424035748 30.1053871743642461 28.6327538495249954
 40.8696848424035863 30.1053871743642461 28.6327538495249954
 63.4184970283835838 30.1053871743642461 28.6327538495249954
 -2.8185700849240374 32.5463407627700150 28.6327538495249954
 -0.0000002709040391 32.5463407627700150 28.6327538495249954
  8.4557937290959586 32.5463407627700150 28.6327538495249954
 22.5488119150759623 32.5463407627700150 28.6327538495249954
 28.1860361010559650 32.5463407627700150 28.6327538495249954
 31.0046059150759525 32.5463407627700150 28.6327538495249954
 56.3719879150759695 32.5463407627700150 28.6327538495249954
 62.0092121010559580 32.5463407627700150 28.6327538495249954
 64.8277819150759740 32.5463407627700150 28.6327538495249954
  7.0464665227977319 34.9873675805157234 28.6327538495249954
 12.6836907087777320 34.9873675805157234 28.6327538495249954
 15.5022605227977337 34.9873675805157234 28.6327538495249954
 52.1440908541225028 39.8692747573272612 28.6327538495249954
 46.5068666681425000 39.8692747573272612 28.6327538495249954
 40.8697270401024966 39.8692747573272612 28.6327538495249954
 35.2325028541224938 39.8692747573272612 28.6327538495249954
 18.3209148541224920 39.8692747573272612 28.6327538495249954
 -1.4092429598975091 39.8692747573272612 28.6327538495249954
 57.7813150401024913 39.8692747573272612 28.6327538495249954
 59.1905999674301100 37.4283211689214923 28.6327538495249954
 19.7301997814501142 37.4283211689214923 28.6327538495249954
 11.2744057814501097 37.4283211689214923 28.6327538495249954
  8.4558359674301080 37.4283211689214923 28.6327538495249954
 -11.2744064045298860 37.4283211689214923 28.6327538495249954
 32.4138485227977426 34.9873675805157234 28.6327538495249954
 26.7767088947577392 34.9873675805157234 28.6327538495249954
 47.9161515954701187 37.4283211689214923 28.6327538495249954
 42.2789694040103896 71.6020375533019688 28.6327538495249954
