 H  O 
 1.0000000000000000
    84.5579400000000021    0.0000000000000000    0.0000000000000000
   -42.2789706095346958   73.2293399455724767    0.0000000000000000
     0.0000000000000000    0.0000000000000000   46.9039550000000034
 H   O  
 248 348
Cartesian
 -0.0000000135450799  1.6273023922705114 28.1128704123049964
 -7.0465094519382783 43.1239527712082307 28.1128704123049964
 56.3719032894093317 40.6829991828024689 28.1128704123049964
 45.0975394753893397 40.6829991828024689 28.1128704123049964
  5.6371392894093386 40.6829991828024689 28.1128704123049964
 -8.4557943386306622 40.6829991828024689 28.1128704123049964
 -14.0930185246106596 40.6829991828024689 28.1128704123049964
 52.1440908676675789 38.2419723650567462 28.1128704123049964
 38.0510726816875717 38.2419723650567462 28.1128704123049964
 26.7767088676675797 38.2419723650567462 28.1128704123049964
 18.3209148676675753 38.2419723650567462 28.1128704123049964
 15.5022604957075725 38.2419723650567462 28.1128704123049964
 -4.2278973183124275 38.2419723650567462 28.1128704123049964
 40.8696844902278471 72.4156887494372228 28.1128704123049964
 -18.3209155042924259 38.2419723650567462 28.1128704123049964
 59.1905154230351869 35.8010187766509844 28.1128704123049964
 53.5533757949951976 35.8010187766509844 28.1128704123049964
 22.5487696090151921 35.8010187766509844 28.1128704123049964
 -4.2279396379182765 43.1239527712082307 28.1128704123049964
 -1.4092852659582757 43.1239527712082307 28.1128704123049964
  1.4092845480617260 43.1239527712082307 28.1128704123049964
  4.2278543620817208 43.1239527712082307 28.1128704123049964
 56.3719878067141025 45.5649063596139996 28.1128704123049964
 50.7347636207340997 45.5649063596139996 28.1128704123049964
 31.0046058067141033 45.5649063596139996 28.1128704123049964
  5.6372238067141032 45.5649063596139996 28.1128704123049964
 -0.0000003792658964 45.5649063596139996 28.1128704123049964
 -2.8185701932858982 45.5649063596139996 28.1128704123049964
 -5.6372245652458988 45.5649063596139996 28.1128704123049964
 -8.4557943792659014 45.5649063596139996 28.1128704123049964
 16.9115454230351894 35.8010187766509844 28.1128704123049964
 -25.3673823792659014 45.5649063596139996 28.1128704123049964
 52.1440485480617184 43.1239527712082307 28.1128704123049964
 49.3254787340417238 43.1239527712082307 28.1128704123049964
 46.5068243620817157 43.1239527712082307 28.1128704123049964
 43.6882545480617210 43.1239527712082307 28.1128704123049964
 38.0510303620817112 43.1239527712082307 28.1128704123049964
 35.2324605480617166 43.1239527712082307 28.1128704123049964
 21.1394423620817271 43.1239527712082307 28.1128704123049964
 12.6836483620817209 43.1239527712082307 28.1128704123049964
 54.9626183620817130 43.1239527712082307 28.1128704123049964
 -26.7767095855641273 48.0059331773597151 28.1128704123049964
  5.6371816090151947 35.8010187766509844 28.1128704123049964
 63.4184547223228137 33.3600651882452155 28.1128704123049964
 53.5533335972962803 26.0371311936879657 28.1128704123049964
 45.0975395972962758 26.0371311936879657 28.1128704123049964
 42.2789697832762812 26.0371311936879657 28.1128704123049964
 39.4603154113162731 26.0371311936879657 28.1128704123049964
 33.8231757832762838 26.0371311936879657 28.1128704123049964
 -0.0000002167237204 26.0371311936879657 28.1128704123049964
 -14.0930184027037182 26.0371311936879657 28.1128704123049964
 60.5998849895745124 23.5961043759422537 28.1128704123049964
 54.9626608035945097 23.5961043759422537 28.1128704123049964
 43.6882969895745106 23.5961043759422537 28.1128704123049964
 40.8696426176145025 23.5961043759422537 28.1128704123049964
 38.0510728035945078 23.5961043759422537 28.1128704123049964
 35.2325029895745132 23.5961043759422537 28.1128704123049964
 15.5022606176145086 23.5961043759422537 28.1128704123049964
  9.8651209895745122 23.5961043759422537 28.1128704123049964
  7.0464666176145112 23.5961043759422537 28.1128704123049964
 -7.0464670104254905 23.5961043759422537 28.1128704123049964
 59.1905577832762830 26.0371311936879657 28.1128704123049964
 62.0091275972962777 26.0371311936879657 28.1128704123049964
 67.6463517832762875 26.0371311936879657 28.1128704123049964
 -15.5023033300313369 28.4780847820937346 28.1128704123049964
 57.7812305363428109 33.3600651882452155 28.1128704123049964
 54.9626607223228163 33.3600651882452155 28.1128704123049964
 -7.0465516496371885 33.3600651882452155 28.1128704123049964
 -9.8651214636571893 33.3600651882452155 28.1128704123049964
 -15.5023456496371885 33.3600651882452155 28.1128704123049964
 56.3719879286210457 30.9190383704995000 28.1128704123049964
 47.9161939286210341 30.9190383704995000 28.1128704123049964
 39.4603999286210438 30.9190383704995000 28.1128704123049964
 -5.6371822050048115 35.8010187766509844 28.1128704123049964
 28.1859515566610455 30.9190383704995000 28.1128704123049964
 14.0930179286210446 30.9190383704995000 28.1128704123049964
 -8.4557942573589582 30.9190383704995000 28.1128704123049964
 57.7812728559486644 28.4780847820937346 28.1128704123049964
 32.4138908559486651 28.4780847820937346 28.1128704123049964
 18.3208726699686650 28.4780847820937346 28.1128704123049964
 12.6836484839886605 28.4780847820937346 28.1128704123049964
  4.2278544839886631 28.4780847820937346 28.1128704123049964
 -4.2279395160113378 28.4780847820937346 28.1128704123049964
 19.7301575566610410 30.9190383704995000 28.1128704123049964
 -9.8651213823854889 23.5961043759422537 28.1128704123049964
 -23.9581397715441291 48.0059331773597151 28.1128704123049964
 -7.0465517715441273 48.0059331773597151 28.1128704123049964
 -35.2325037481063035 67.5337083432857384 28.1128704123049964
 19.7301995511813146 65.0927547548799765 28.1128704123049964
  8.4557511792213162 65.0927547548799765 28.1128704123049964
 -16.9116308207786865 65.0927547548799765 28.1128704123049964
 43.6882121065489244 62.6518011664742076 28.1128704123049964
 35.2324181065489270 62.6518011664742076 28.1128704123049964
 26.7766241065489261 62.6518011664742076 28.1128704123049964
 21.1394844785089369 62.6518011664742076 28.1128704123049964
 -9.8651217074710615 62.6518011664742076 28.1128704123049964
 -26.7767097074710669 62.6518011664742076 28.1128704123049964
 47.9161936848071619 60.2107743487284921 28.1128704123049964
 39.4603996848071645 60.2107743487284921 28.1128704123049964
 11.2743633128471661 60.2107743487284921 28.1128704123049964
  5.6372236848071626 60.2107743487284921 28.1128704123049964
  2.8185693128471621 60.2107743487284921 28.1128704123049964
 -0.0000005011728327 60.2107743487284921 28.1128704123049964
 -2.8185703151928343 60.2107743487284921 28.1128704123049964
 -32.4138493761463025 67.5337083432857384 28.1128704123049964
 -12.6836915621263024 67.5337083432857384 28.1128704123049964
  7.0464662518936976 67.5337083432857384 28.1128704123049964
 15.5022602518936878 67.5337083432857384 28.1128704123049964
  7.0465084902278479 72.4156887494372228 28.1128704123049964
  4.2278541182678469 72.4156887494372228 28.1128704123049964
  1.4092843042478451 72.4156887494372228 28.1128704123049964
 -9.8650795097721549 72.4156887494372228 28.1128704123049964
 -21.1395278817321568 72.4156887494372228 28.1128704123049964
 39.4603150455954648 69.9747351610314468 28.1128704123049964
 36.6417452315754701 69.9747351610314468 28.1128704123049964
 31.0045210455954674 69.9747351610314468 28.1128704123049964
 -16.9115885011728366 60.2107743487284921 28.1128704123049964
 25.3673814175554639 69.9747351610314468 28.1128704123049964
  8.4557934175554603 69.9747351610314468 28.1128704123049964
  5.6371390455954664 69.9747351610314468 28.1128704123049964
 -11.2744489544045354 69.9747351610314468 28.1128704123049964
 -25.3673825824445345 69.9747351610314468 28.1128704123049964
 -33.8231765824445318 69.9747351610314468 28.1128704123049964
 -39.4604007684245346 69.9747351610314468 28.1128704123049964
 38.0510724378736924 67.5337083432857384 28.1128704123049964
 23.9580542518936852 67.5337083432857384 28.1128704123049964
 22.5487270455954629 69.9747351610314468 28.1128704123049964
 -18.3209155855641299 48.0059331773597151 28.1128704123049964
 -19.7301583151928384 60.2107743487284921 28.1128704123049964
 35.2324604261547876 57.7698207603227232 28.1128704123049964
 15.5022603738006346 52.8878403541712458 28.1128704123049964
  7.0464663738006301 52.8878403541712458 28.1128704123049964
 -7.0464672542393672 52.8878403541712458 28.1128704123049964
 -9.8651216261993682 52.8878403541712458 28.1128704123049964
 -12.6836914402193699 52.8878403541712458 28.1128704123049964
 -15.5022612542393716 52.8878403541712458 28.1128704123049964
 -21.1394854402193673 52.8878403541712458 28.1128704123049964
 -26.7767096261993700 52.8878403541712458 28.1128704123049964
 36.6417876730882455 50.4468867657654769 28.1128704123049964
 31.0045634871082498 50.4468867657654769 28.1128704123049964
 -8.4558366988717459 50.4468867657654769 28.1128704123049964
 -11.2744065128917477 50.4468867657654769 28.1128704123049964
 18.3208302284558755 48.0059331773597151 28.1128704123049964
 12.6836906004158720 48.0059331773597151 28.1128704123049964
  9.8650362284558710 48.0059331773597151 28.1128704123049964
  7.0464664144358764 48.0059331773597151 28.1128704123049964
 -1.4093275855641247 48.0059331773597151 28.1128704123049964
 26.7767087457606330 52.8878403541712458 28.1128704123049964
 29.5952785597806276 52.8878403541712458 28.1128704123049964
 32.4138483738006258 52.8878403541712458 28.1128704123049964
 38.0510725597806356 52.8878403541712458 28.1128704123049964
 32.4138906121347787 57.7698207603227232 28.1128704123049964
 29.5952362401747777 57.7698207603227232 28.1128704123049964
 26.7766664261547831 57.7698207603227232 28.1128704123049964
 21.1394422401747804 57.7698207603227232 28.1128704123049964
  4.2278542401747847 57.7698207603227232 28.1128704123049964
 -1.4092853878652121 57.7698207603227232 28.1128704123049964
 -4.2279397598252162 57.7698207603227232 28.1128704123049964
 47.9161091675023982 55.3288671719169614 28.1128704123049964
 -31.0046066871528367 60.2107743487284921 28.1128704123049964
 39.4603151675024009 55.3288671719169614 28.1128704123049964
 28.1859513534823982 55.3288671719169614 28.1128704123049964
 22.5487271675023955 55.3288671719169614 28.1128704123049964
 19.7301573534824009 55.3288671719169614 28.1128704123049964
 -2.8186548324975988 55.3288671719169614 28.1128704123049964
 -5.6372246465175939 55.3288671719169614 28.1128704123049964
 -25.3673824605375984 55.3288671719169614 28.1128704123049964
 49.3254363738006276 52.8878403541712458 28.1128704123049964
 46.5068665597806330 52.8878403541712458 28.1128704123049964
 33.8231755394623974 55.3288671719169614 28.1128704123049964
 67.6463095449421274 21.1551507875364884 28.1128704123049964
 -9.8651215042924267 38.2419723650567462 28.1128704123049964
 54.9626609255014458  8.9502363868277595 28.1128704123049964
 29.5952366058956002 13.8322167929792403 28.1128704123049964
 50.7347216668490617  6.5092827984219914 28.1128704123049964
 23.9580969778556039 13.8322167929792403 28.1128704123049964
 18.3208305941766909  4.0683292100162243 28.1128704123049964
 53.5533760388090698  6.5092827984219914 28.1128704123049964
 56.3719458528290644  6.5092827984219914 28.1128704123049964
 47.9161940505279844 16.2731703813850075 28.1128704123049964
 50.7347638645479790 16.2731703813850075 28.1128704123049964
 15.5022607801566892  4.0683292100162243 28.1128704123049964
 64.8277820505279863 16.2731703813850075 28.1128704123049964
  4.2278546058956001 13.8322167929792403 28.1128704123049964
  1.4092847918756004 13.8322167929792403 28.1128704123049964
 70.4649216785679755 16.2731703813850075 28.1128704123049964
 70.4649217192032182 11.3912632045734714 28.1128704123049964
  1.4092425941766900  4.0683292100162243 28.1128704123049964
 11.2744060388090670  6.5092827984219914 28.1128704123049964
 81.7393701724349171  1.6273023922705114 28.1128704123049964
 -1.4093272604785494  8.9502363868277595 28.1128704123049964
 62.0091277192032209 11.3912632045734714 28.1128704123049964
 56.3719035332232110 11.3912632045734714 28.1128704123049964
 50.7347639051832218 11.3912632045734714 28.1128704123049964
 32.4138909778556012 13.8322167929792403 28.1128704123049964
  4.2278969255014500  8.9502363868277595 28.1128704123049964
 21.1394849661366919  4.0683292100162243 28.1128704123049964
 45.0975820388090725  6.5092827984219914 28.1128704123049964
 14.0929758528290687  6.5092827984219914 28.1128704123049964
 -0.0000423331509293  6.5092827984219914 28.1128704123049964
 80.3300429661366877  4.0683292100162243 28.1128704123049964
 57.7812729778555934 13.8322167929792403 28.1128704123049964
 54.9626186058955923 13.8322167929792403 28.1128704123049964
 74.6928187801566850  4.0683292100162243 28.1128704123049964
 -2.8185699494720202 16.2731703813850075 28.1128704123049964
 66.2370247801566876  4.0683292100162243 28.1128704123049964
  8.4557938645479798 16.2731703813850075 28.1128704123049964
 16.9115878645479825 16.2731703813850075 28.1128704123049964
 57.7812307395214404  8.9502363868277595 28.1128704123049964
 36.6417880388090680  6.5092827984219914 28.1128704123049964
 54.9626609661366956  4.0683292100162243 28.1128704123049964
 49.3254367801566929  4.0683292100162243 28.1128704123049964
 22.5488120505279817 16.2731703813850075 28.1128704123049964
 25.3673818645479834 16.2731703813850075 28.1128704123049964
 28.1859516785679780 16.2731703813850075 28.1128704123049964
 31.0046060505279790 16.2731703813850075 28.1128704123049964
 39.4603578528290697  6.5092827984219914 28.1128704123049964
 29.5952789661366928  4.0683292100162243 28.1128704123049964
 39.4604000505279870 16.2731703813850075 28.1128704123049964
 26.7766245941766883  4.0683292100162243 28.1128704123049964
 12.6836908442297531 18.7141971991307194 28.1128704123049964
 -1.4093272198433096  4.0683292100162243 28.1128704123049964
 46.5068669255014484  8.9502363868277595 28.1128704123049964
 71.8742488442297542 18.7141971991307194 28.1128704123049964
 -8.4558364550578684 21.1551507875364884 28.1128704123049964
 38.0510729255014510  8.9502363868277595 28.1128704123049964
 53.5533338004749169  1.6273023922705114 28.1128704123049964
 -2.8186122690778692 21.1551507875364884 28.1128704123049964
 47.9161941724349276  1.6273023922705114 28.1128704123049964
 43.6882971114814538  8.9502363868277595 28.1128704123049964
 45.0975398004749266  1.6273023922705114 28.1128704123049964
 60.5998004722697488 18.7141971991307194 28.1128704123049964
 33.8231759864549275  1.6273023922705114 28.1128704123049964
  8.4557515449421317 21.1551507875364884 28.1128704123049964
 77.5114731114814504  8.9502363868277595 28.1128704123049964
 74.6928187395214422  8.9502363868277595 28.1128704123049964
 66.2370247395214449  8.9502363868277595 28.1128704123049964
 60.5998851114814414  8.9502363868277595 28.1128704123049964
 14.0930181724349168  1.6273023922705114 28.1128704123049964
  8.4557939864549194  1.6273023922705114 28.1128704123049964
 36.6417879169021319 21.1551507875364884 28.1128704123049964
 28.1859518004749177  1.6273023922705114 28.1128704123049964
 29.5952789255014537  8.9502363868277595 28.1128704123049964
  8.4557516668490695  6.5092827984219914 28.1128704123049964
 57.7812306582497541 18.7141971991307194 28.1128704123049964
 40.8696426582497523 18.7141971991307194 28.1128704123049964
 21.1394849255014528  8.9502363868277595 28.1128704123049964
 49.3254366582497497 18.7141971991307194 28.1128704123049964
 63.4184549525916097  5.6956316022867357 28.6327538495249954
 26.7767091385716043  5.6956316022867357 28.6327538495249954
 32.4138484008907994 49.6332355696302230 28.6327538495249954
 -0.0000004740826793 56.9561695641874692 28.6327538495249954
 32.4138487666116077  5.6956316022867357 28.6327538495249954
 47.9161518392839980  8.1365851906925037 28.6327538495249954
 49.3254364008908013 49.6332355696302230 28.6327538495249954
 -8.4557944740826727 56.9561695641874692 28.6327538495249954
 -11.2743642881026744 56.9561695641874692 28.6327538495249954
 52.1440907728507952 49.6332355696302230 28.6327538495249954
 -16.9115884740826736 56.9561695641874692 28.6327538495249954
 43.6882967728507978 49.6332355696302230 28.6327538495249954
  8.4557935259173256 56.9561695641874692 28.6327538495249954
 53.5533760252639937  8.1365851906925037 28.6327538495249954
 11.2743633399373131 56.9561695641874692 28.6327538495249954
 14.0930177118973283 56.9561695641874692 28.6327538495249954
 19.7301996595431604 52.0741891580359919 28.6327538495249954
 36.6417876595431693 52.0741891580359919 28.6327538495249954
 16.9115875259173158 56.9561695641874692 28.6327538495249954
 14.0929758392839890  8.1365851906925037 28.6327538495249954
 21.1394845868707826 49.6332355696302230 28.6327538495249954
 21.1394849525916122  5.6956316022867357 28.6327538495249954
  4.2278965868707896 49.6332355696302230 28.6327538495249954
 15.5022607666116095  5.6956316022867357 28.6327538495249954
  1.4093267728507877 49.6332355696302230 28.6327538495249954
 -1.4093275991092098 49.6332355696302230 28.6327538495249954
 -4.2278974131292042 49.6332355696302230 28.6327538495249954
 42.2790118455231720 52.0741891580359919 28.6327538495249954
 -19.7301582881026789 56.9561695641874692 28.6327538495249954
 11.2744056595431719 52.0741891580359919 28.6327538495249954
 69.0556791385716195  5.6956316022867357 28.6327538495249954
 -2.8186125264368322 52.0741891580359919 28.6327538495249954
 -1.4092430818044526 54.5151427464417537 28.6327538495249954
  0.0000418455231652 52.0741891580359919 28.6327538495249954
 -18.3208310818044460 54.5151427464417537 28.6327538495249954
  1.4093267322155492 54.5151427464417537 28.6327538495249954
 31.0045638392839891  8.1365851906925037 28.6327538495249954
 12.6836905462355407 54.5151427464417537 28.6327538495249954
 -21.1394854537644470 54.5151427464417537 28.6327538495249954
 42.2790122112439946  8.1365851906925037 28.6327538495249954
 60.5998851385716151  5.6956316022867357 28.6327538495249954
 -16.9115461544768308 52.0741891580359919 28.6327538495249954
 23.9581389181955480 54.5151427464417537 28.6327538495249954
 71.8742489525916284  5.6956316022867357 28.6327538495249954
 -22.5488126600626764 56.9561695641874692 28.6327538495249954
 29.5952785462355585 54.5151427464417537 28.6327538495249954
 50.7348058455231694 52.0741891580359919 28.6327538495249954
 -22.5487703404568300 52.0741891580359919 28.6327538495249954
  2.8186116595431669 52.0741891580359919 28.6327538495249954
 19.7302000252639935  8.1365851906925037 28.6327538495249954
 35.2325027322155506 54.5151427464417537 28.6327538495249954
 -28.1859945264368292 52.0741891580359919 28.6327538495249954
  2.8186120252639890  8.1365851906925037 28.6327538495249954
 28.1859940252639873  8.1365851906925037 28.6327538495249954
 54.9626605868708040 49.6332355696302230 28.6327538495249954
 52.1440907322155596 54.5151427464417537 28.6327538495249954
 45.0975816595431809 52.0741891580359919 28.6327538495249954
 -31.0046066600626737 56.9561695641874692 28.6327538495249954
 -28.1859522881026763 56.9561695641874692 28.6327538495249954
 -29.5952794537644479 54.5151427464417537 28.6327538495249954
 16.9116302112439918  8.1365851906925037 28.6327538495249954
 63.4184548306846807 20.3414995914012344 28.6327538495249954
 50.7347635259173302 56.9561695641874692 28.6327538495249954
 57.7812730862174604  0.8136511961352557 28.6327538495249954
 -15.5022613896913821 69.1610107355562462 28.6327538495249954
 -21.1394855756713831 69.1610107355562462 28.6327538495249954
 60.5998429002374621  0.8136511961352557 28.6327538495249954
 -26.7766252037113830 69.1610107355562462 28.6327538495249954
 -29.5952795756713840 69.1610107355562462 28.6327538495249954
 63.4184972721974631  0.8136511961352557 28.6327538495249954
 66.2370670862174649  0.8136511961352557 28.6327538495249954
 45.0975815376362448 66.7200571471504844 28.6327538495249954
 42.2790117236162359 66.7200571471504844 28.6327538495249954
 69.0556369002374737  0.8136511961352557 28.6327538495249954
 33.8232177236162386 66.7200571471504844 28.6327538495249954
 31.0045633516562411 66.7200571471504844 28.6327538495249954
 28.1859935376362323 66.7200571471504844 28.6327538495249954
 25.3674237236162377 66.7200571471504844 28.6327538495249954
 71.8742912721974676  0.8136511961352557 28.6327538495249954
 74.6928610862174764  0.8136511961352557 28.6327538495249954
 11.2744055376362251 66.7200571471504844 28.6327538495249954
 77.5114309002374711  0.8136511961352557 28.6327538495249954
 -7.0464673896913883 69.1610107355562462 28.6327538495249954
 -4.2278975756713866 69.1610107355562462 28.6327538495249954
 -1.4092432037113782 69.1610107355562462 28.6327538495249954
  1.4093266103086164 69.1610107355562462 28.6327538495249954
 31.0046055899903834 71.6020375533019688 28.6327538495249954
 19.7301572180303850 71.6020375533019688 28.6327538495249954
 14.0930175899903762 71.6020375533019688 28.6327538495249954
 11.2743632180303894 71.6020375533019688 28.6327538495249954
  1.4092849002374601  0.8136511961352557 28.6327538495249954
 -2.8185704100096114 71.6020375533019688 28.6327538495249954
 18.3208729002374611  0.8136511961352557 28.6327538495249954
 -14.0930187819696204 71.6020375533019688 28.6327538495249954
 -16.9115885959896168 71.6020375533019688 28.6327538495249954
  2.8186115376362340 66.7200571471504844 28.6327538495249954
 23.9580970862174638  0.8136511961352557 28.6327538495249954
 -31.0046067819696169 71.6020375533019688 28.6327538495249954
 -36.6417464100096169 71.6020375533019688 28.6327538495249954
 -39.4604007819696179 71.6020375533019688 28.6327538495249954
 43.6882966103086261 69.1610107355562462 28.6327538495249954
 40.8697267962886173 69.1610107355562462 28.6327538495249954
 38.0511152721974639  0.8136511961352557 28.6327538495249954
 40.8696850862174585  0.8136511961352557 28.6327538495249954
 15.5023447962886092 69.1610107355562462 28.6327538495249954
 12.6836904243286224 69.1610107355562462 28.6327538495249954
 -28.1859524100096195 71.6020375533019688 28.6327538495249954
 45.0975393399373274 56.9561695641874692 28.6327538495249954
 -2.8186126483437688 66.7200571471504844 28.6327538495249954
 -22.5487704623637697 66.7200571471504844 28.6327538495249954
  2.8186538572420905 61.8380767409990000 28.6327538495249954
 -0.0000005147179177 61.8380767409990000 28.6327538495249954
 45.0976243448698426  3.2546047845410229 28.6327538495249954
 -11.2743643287379136 61.8380767409990000 28.6327538495249954
 -14.0929341427579153 61.8380767409990000 28.6327538495249954
 -22.5487281427579163 61.8380767409990000 28.6327538495249954
 43.6882544126097088 59.3971231525932382 28.6327538495249954
 38.0511147845697053 59.3971231525932382 28.6327538495249954
 23.9580965985897052 59.3971231525932382 28.6327538495249954
 18.3208724126097096 59.3971231525932382 28.6327538495249954
 15.5023025985896936 59.3971231525932382 28.6327538495249954
 12.6837327845697061 59.3971231525932382 28.6327538495249954
 62.0092123448698445  3.2546047845410229 28.6327538495249954
 73.2835761588898578  3.2546047845410229 28.6327538495249954
 76.1021459729098524  3.2546047845410229 28.6327538495249954
 -9.8650794014102949 59.3971231525932382 28.6327538495249954
 -12.6836492154302967 59.3971231525932382 28.6327538495249954
 -15.5023035873902977 59.3971231525932382 28.6327538495249954
  4.2278969525916086  5.6956316022867357 28.6327538495249954
 14.0930176712620749 61.8380767409990000 28.6327538495249954
 39.4604001588898399  3.2546047845410229 28.6327538495249954
 25.3673814852820882 61.8380767409990000 28.6327538495249954
 33.8231754852820927 61.8380767409990000 28.6327538495249954
 -25.3673402763837679 66.7200571471504844 28.6327538495249954
 -31.0045644623637671 66.7200571471504844 28.6327538495249954
 -36.6417886483437698 66.7200571471504844 28.6327538495249954
 43.6882966509438617 64.2791035587447084 28.6327538495249954
 32.4138482789838704 64.2791035587447084 28.6327538495249954
 23.9580542789838589 64.2791035587447084 28.6327538495249954
 21.1394844649638500 64.2791035587447084 28.6327538495249954
  2.8186543448698407  3.2546047845410229 28.6327538495249954
 15.5022602789838597 64.2791035587447084 28.6327538495249954
 -8.4557522763837714 66.7200571471504844 28.6327538495249954
  4.2278964649638544 64.2791035587447084 28.6327538495249954
 -1.4093277210161486 64.2791035587447084 28.6327538495249954
 -4.2278975350361501 64.2791035587447084 28.6327538495249954
 -12.6836915350361448 64.2791035587447084 28.6327538495249954
 -18.3209157210161457 64.2791035587447084 28.6327538495249954
 -23.9580553490561456 64.2791035587447084 28.6327538495249954
 -26.7767097210161431 64.2791035587447084 28.6327538495249954
 -32.4138493490561430 64.2791035587447084 28.6327538495249954
 47.9161936712620928 61.8380767409990000 28.6327538495249954
 36.6418298572420866 61.8380767409990000 28.6327538495249954
  1.4093266509438596 64.2791035587447084 28.6327538495249954
 59.1905579729098434  3.2546047845410229 28.6327538495249954
 -2.8185702068309761 47.1922087518845075 28.6327538495249954
 53.5534179791490246 47.1922087518845075 28.6327538495249954
 60.5998427783305331 15.4595191852497500 28.6327538495249954
 66.2370668424035927 30.1053871743642461 28.6327538495249954
 60.5998426564235899 30.1053871743642461 28.6327538495249954
 52.1440486564235925 30.1053871743642461 28.6327538495249954
 66.2370669643105288 15.4595191852497500 28.6327538495249954
 40.8696848424035863 30.1053871743642461 28.6327538495249954
 38.0511150283835775 30.1053871743642461 28.6327538495249954
 -8.4557941489970982 17.9004727736555189 28.6327538495249954
 26.7766666564235685 30.1053871743642461 28.6327538495249954
 -2.8185700849240374 32.5463407627700150 28.6327538495249954
 23.9580968424035810 30.1053871743642461 28.6327538495249954
 -0.0000001489970986 17.9004727736555189 28.6327538495249954
  7.0465088424035836 30.1053871743642461 28.6327538495249954
  4.2279390283835818 30.1053871743642461 28.6327538495249954
  1.4092846564235810 30.1053871743642461 28.6327538495249954
 -1.4092851575964171 30.1053871743642461 28.6327538495249954
  5.6372240369829028 17.9004727736555189 28.6327538495249954
 -12.6836489716164174 30.1053871743642461 28.6327538495249954
 64.8277819557112025 27.6644335859584807 28.6327538495249954
 62.0091275837512086 27.6644335859584807 28.6327538495249954
 -5.6371397770370981 17.9004727736555189 28.6327538495249954
  8.4557938510029000 17.9004727736555189 28.6327538495249954
 -0.0000002709040391 32.5463407627700150 28.6327538495249954
  5.6372239150759640 32.5463407627700150 28.6327538495249954
 32.4138485227977426 34.9873675805157234 28.6327538495249954
 26.7767088947577392 34.9873675805157234 28.6327538495249954
 18.3209148947577418 34.9873675805157234 28.6327538495249954
 12.6836907087777320 34.9873675805157234 28.6327538495249954
  7.0464665227977319 34.9873675805157234 28.6327538495249954
  4.2278967087777302 34.9873675805157234 28.6327538495249954
 -1.4093274772022688 34.9873675805157234 28.6327538495249954
 -9.8651214772022673 34.9873675805157234 28.6327538495249954
 38.0511151502905278 15.4595191852497500 28.6327538495249954
  2.8186541010559618 32.5463407627700150 28.6327538495249954
 59.1905577290959641 32.5463407627700150 28.6327538495249954
 53.5534181010559607 32.5463407627700150 28.6327538495249954
 50.7347637290959668 32.5463407627700150 28.6327538495249954
 39.4603999150759606 32.5463407627700150 28.6327538495249954
 36.6418301010559517 32.5463407627700150 28.6327538495249954
 33.8231757290959649 32.5463407627700150 28.6327538495249954
 28.1860361010559650 32.5463407627700150 28.6327538495249954
 16.9115877290959595 32.5463407627700150 28.6327538495249954
 14.0930179150759578 32.5463407627700150 28.6327538495249954
  8.4557937290959586 32.5463407627700150 28.6327538495249954
 46.5069091502905181 15.4595191852497500 28.6327538495249954
 38.0510727087777383 34.9873675805157234 28.6327538495249954
 56.3719879557112051 27.6644335859584807 28.6327538495249954
 42.2789697697312050 27.6644335859584807 28.6327538495249954
 59.1906000893370532 22.7824531798069998 28.6327538495249954
 56.3719457173770593 22.7824531798069998 28.6327538495249954
 50.7348060893370558 22.7824531798069998 28.6327538495249954
 45.0975819033570531 22.7824531798069998 28.6327538495249954
 15.5022606447046662 20.3414995914012344 28.6327538495249954
 21.1394848306846654 20.3414995914012344 28.6327538495249954
 39.4603577173770574 22.7824531798069998 28.6327538495249954
 23.9580546447046672 20.3414995914012344 28.6327538495249954
 26.7767090166646753 20.3414995914012344 28.6327538495249954
  4.2278968306846716 20.3414995914012344 28.6327538495249954
 31.0045637173770388 22.7824531798069998 28.6327538495249954
 16.9116300893370450 22.7824531798069998 28.6327538495249954
 29.5952788306846699 20.3414995914012344 28.6327538495249954
 14.0929757173770476 22.7824531798069998 28.6327538495249954
 32.4138486447046574 20.3414995914012344 28.6327538495249954
  2.8186119033570516 22.7824531798069998 28.6327538495249954
 46.5068668306846718 20.3414995914012344 28.6327538495249954
 49.3254366447046735 20.3414995914012344 28.6327538495249954
 69.0556790166646692 20.3414995914012344 28.6327538495249954
 52.1440910166646745 20.3414995914012344 28.6327538495249954
 28.1859939033570512 22.7824531798069998 28.6327538495249954
 47.9161939557112078 27.6644335859584807 28.6327538495249954
 64.8277397173770566 22.7824531798069998 28.6327538495249954
 -12.6836912099505668 25.2234067682127652 28.6327538495249954
 36.6417455837512094 27.6644335859584807 28.6327538495249954
 16.9115878510028992 17.9004727736555189 28.6327538495249954
 28.1860362229629082 17.9004727736555189 28.6327538495249954
  8.4557937697312031 27.6644335859584807 28.6327538495249954
 33.8231758510028868 17.9004727736555189 28.6327538495249954
 36.6418302229629020 17.9004727736555189 28.6327538495249954
 -8.4557942302688005 27.6644335859584807 28.6327538495249954
 -11.2743640442888005 27.6644335859584807 28.6327538495249954
 45.0976242229628923 17.9004727736555189 28.6327538495249954
  1.4093270166646681 20.3414995914012344 28.6327538495249954
 66.2371091620094319 25.2234067682127652 28.6327538495249954
 49.3255211620094371 25.2234067682127652 28.6327538495249954
 59.1905578510029073 17.9004727736555189 28.6327538495249954
 29.5952787900494201 25.2234067682127652 28.6327538495249954
 26.7767089760294326 25.2234067682127652 28.6327538495249954
 21.1394847900494298 25.2234067682127652 28.6327538495249954
 18.3209149760294281 25.2234067682127652 28.6327538495249954
 15.5023451620094264 25.2234067682127652 28.6327538495249954
 -4.2278972099505676 25.2234067682127652 28.6327538495249954
 -7.0464670239705693 25.2234067682127652 28.6327538495249954
 56.3719880369828985 17.9004727736555189 28.6327538495249954
 40.8696425227977400 34.9873675805157234 28.6327538495249954
 43.6882968947577410 34.9873675805157234 28.6327538495249954
 46.5068667087777357 34.9873675805157234 28.6327538495249954
 40.8697272839163759 10.5775387790982709 28.6327538495249954
 29.5953209064766369 44.7512551634787386 28.6327538495249954
 23.9580967204966342 44.7512551634787386 28.6327538495249954
 21.1395269064766467 44.7512551634787386 28.6327538495249954
 18.3208725345166314 44.7512551634787386 28.6327538495249954
 15.5023027204966439 44.7512551634787386 28.6327538495249954
  9.8650785345166412 44.7512551634787386 28.6327538495249954
 49.3255212839163661 10.5775387790982709 28.6327538495249954
 54.9626609119563767 10.5775387790982709 28.6327538495249954
 32.4138907204966458 44.7512551634787386 28.6327538495249954
 -9.8650792795033553 44.7512551634787386 28.6327538495249954
 -21.1394430935233544 44.7512551634787386 28.6327538495249954
 -23.9580974654833554 44.7512551634787386 28.6327538495249954
 66.2371092839163680 10.5775387790982709 28.6327538495249954
 59.1905576478242708 42.3103015750729767 28.6327538495249954
 69.0556790979363768 10.5775387790982709 28.6327538495249954
 77.5114730979363742 10.5775387790982709 28.6327538495249954
 -5.6372242943418591 13.0185655968439828 28.6327538495249954
 -2.8185699223818586 13.0185655968439828 28.6327538495249954
 31.0046058338042556 42.3103015750729767 28.6327538495249954
 -12.6836490935233588 44.7512551634787386 28.6327538495249954
 25.3673816478242529 42.3103015750729767 28.6327538495249954
 43.6882545345166520 44.7512551634787386 28.6327538495249954
 32.4139332839163785 10.5775387790982709 28.6327538495249954
 47.9161937931690360 47.1922087518845075 28.6327538495249954
 45.0976239791490272 47.1922087518845075 28.6327538495249954
 42.2789696071890333 47.1922087518845075 28.6327538495249954
 39.4603997931690245 47.1922087518845075 28.6327538495249954
 33.8231756071890288 47.1922087518845075 28.6327538495249954
 25.3673816071890279 47.1922087518845075 28.6327538495249954
 22.5488117931690120 47.1922087518845075 28.6327538495249954
 19.7302419791490244 47.1922087518845075 28.6327538495249954
 16.9115876071890092 47.1922087518845075 28.6327538495249954
 38.0510729119563607 10.5775387790982709 28.6327538495249954
  2.8186539791490159 47.1922087518845075 28.6327538495249954
 54.9626608306846691 20.3414995914012344 28.6327538495249954
  9.8651210979363722 10.5775387790982709 28.6327538495249954
 -11.2743642068309775 47.1922087518845075 28.6327538495249954
 -14.0929340208509810 47.1922087518845075 28.6327538495249954
 12.6836909119563703 10.5775387790982709 28.6327538495249954
 -19.7301582068309784 47.1922087518845075 28.6327538495249954
 -22.5487280208509766 47.1922087518845075 28.6327538495249954
 15.5023452839163713 10.5775387790982709 28.6327538495249954
 26.7767090979363651 10.5775387790982709 28.6327538495249954
  4.2278969119563712 10.5775387790982709 28.6327538495249954
 22.5488118338042653 42.3103015750729767 28.6327538495249954
 14.0930180776181420 13.0185655968439828 28.6327538495249954
 19.7301574618442501 42.3103015750729767 28.6327538495249954
 50.7348059674301126 37.4283211689214923 28.6327538495249954
 47.9161515954701187 37.4283211689214923 28.6327538495249954
 39.4603575954701142 37.4283211689214923 28.6327538495249954
 70.4649217056581421 13.0185655968439828 28.6327538495249954
 31.0045635954701204 37.4283211689214923 28.6327538495249954
 28.1859937814501045 37.4283211689214923 28.6327538495249954
 73.2835760776181360 13.0185655968439828 28.6327538495249954
 76.1021458916381448 13.0185655968439828 28.6327538495249954
 -7.0465092216694787 15.4595191852497500 28.6327538495249954
 59.1905578916381430 13.0185655968439828 28.6327538495249954
 11.2744057814501097 37.4283211689214923 28.6327538495249954
  0.0000419674301133 37.4283211689214923 28.6327538495249954
 -4.2278548497094786 15.4595191852497500 28.6327538495249954
 -11.2744064045298860 37.4283211689214923 28.6327538495249954
 -14.0929762185498877 37.4283211689214923 28.6327538495249954
 -16.9115460325698876 37.4283211689214923 28.6327538495249954
 63.4184547087777446 34.9873675805157234 28.6327538495249954
 12.6837331502905215 15.4595191852497500 28.6327538495249954
 52.1440908947577384 34.9873675805157234 28.6327538495249954
 49.3254365227977445 34.9873675805157234 28.6327538495249954
  2.8186117814501150 37.4283211689214923 28.6327538495249954
 62.0091697814501188 37.4283211689214923 28.6327538495249954
 -12.6836913318575100 39.8692747573272612 28.6327538495249954
 47.9161940776181368 13.0185655968439828 28.6327538495249954
 19.7301577056581365 13.0185655968439828 28.6327538495249954
 11.2743634618442599 42.3103015750729767 28.6327538495249954
 28.1859517056581375 13.0185655968439828 28.6327538495249954
 -5.6372245381557384 42.3103015750729767 28.6327538495249954
 39.4604000776181465 13.0185655968439828 28.6327538495249954
 -11.2743641661957401 42.3103015750729767 28.6327538495249954
 -16.9115883521757375 42.3103015750729767 28.6327538495249954
 -19.7301581661957393 42.3103015750729767 28.6327538495249954
 -22.5488125381557367 42.3103015750729767 28.6327538495249954
 60.5998848541225001 39.8692747573272612 28.6327538495249954
 57.7813150401024913 39.8692747573272612 28.6327538495249954
 42.2789698916381340 13.0185655968439828 28.6327538495249954
 49.3255210401024939 39.8692747573272612 28.6327538495249954
 45.0975397056581500 13.0185655968439828 28.6327538495249954
 40.8697270401024966 39.8692747573272612 28.6327538495249954
 32.4139330401024850 39.8692747573272612 28.6327538495249954
 29.5952786681424982 39.8692747573272612 28.6327538495249954
 26.7767088541224823 39.8692747573272612 28.6327538495249954
 23.9581390401024947 39.8692747573272612 28.6327538495249954
 21.1394846681424795 39.8692747573272612 28.6327538495249954
  9.8651208541224857 39.8692747573272612 28.6327538495249954
 -21.1394854131292078 49.6332355696302230 28.6327538495249954
 42.2789694040103896 71.6020375533019688 28.6327538495249954
