 H  O 
 1.0000000000000000
    84.5579400000000021    0.0000000000000000    0.0000000000000000
   -42.2789706095346958   73.2293399455724767    0.0000000000000000
     0.0000000000000000    0.0000000000000000   46.9039550000000034
 H   O  
 270 196
Cartesian
 26.7766663042478434 72.4156887494372228 28.1128704123049964
 52.1440063503628082 33.3600651882452155 28.1128704123049964
 49.3254365363428136 33.3600651882452155 28.1128704123049964
 43.6882123503628037 33.3600651882452155 28.1128704123049964
 35.2324183503628063 33.3600651882452155 28.1128704123049964
 23.9580545363428143 33.3600651882452155 28.1128704123049964
  4.2278967223228134 33.3600651882452155 28.1128704123049964
 54.9626607223228163 33.3600651882452155 28.1128704123049964
 -0.0000005011728327 60.2107743487284921 28.1128704123049964
 -12.6836912776771893 33.3600651882452155 28.1128704123049964
 -15.5023456496371885 33.3600651882452155 28.1128704123049964
 64.8277819286210502 30.9190383704995000 28.1128704123049964
 56.3719879286210457 30.9190383704995000 28.1128704123049964
 50.7347637426410429 30.9190383704995000 28.1128704123049964
 11.2743633128471661 60.2107743487284921 28.1128704123049964
  2.8185693128471621 60.2107743487284921 28.1128704123049964
 57.7812305363428109 33.3600651882452155 28.1128704123049964
 60.5998003503628055 33.3600651882452155 28.1128704123049964
 63.4184547223228137 33.3600651882452155 28.1128704123049964
 -12.6836913183124267 38.2419723650567462 28.1128704123049964
 -15.5022611323324266 38.2419723650567462 28.1128704123049964
 59.1905154230351869 35.8010187766509844 28.1128704123049964
 -25.3673825011728376 60.2107743487284921 28.1128704123049964
 -22.5488126871528358 60.2107743487284921 28.1128704123049964
 33.8231334230351877 35.8010187766509844 28.1128704123049964
 28.1859937949951949 35.8010187766509844 28.1128704123049964
 25.3673394230351938 35.8010187766509844 28.1128704123049964
 16.9115454230351894 35.8010187766509844 28.1128704123049964
 14.0929756090151947 35.8010187766509844 28.1128704123049964
 11.2744057949951930 35.8010187766509844 28.1128704123049964
 -19.7301583151928384 60.2107743487284921 28.1128704123049964
 -5.6371822050048115 35.8010187766509844 28.1128704123049964
 -11.2744063909848098 35.8010187766509844 28.1128704123049964
 -19.7302003909848089 35.8010187766509844 28.1128704123049964
 19.7301575566610410 30.9190383704995000 28.1128704123049964
 -1.4093275042924258 38.2419723650567462 28.1128704123049964
 14.0930179286210446 30.9190383704995000 28.1128704123049964
  8.4557937426410454 30.9190383704995000 28.1128704123049964
 -1.4093277074710613 62.6518011664742076 28.1128704123049964
 56.3719034113162749 26.0371311936879657 28.1128704123049964
  1.4092421065489333 62.6518011664742076 28.1128704123049964
  7.0464662925289359 62.6518011664742076 28.1128704123049964
 39.4603154113162731 26.0371311936879657 28.1128704123049964
 23.9580542925289315 62.6518011664742076 28.1128704123049964
 67.6463517832762875 26.0371311936879657 28.1128704123049964
 47.9161514871082517 50.4468867657654769 28.1128704123049964
 16.9115877832762855 26.0371311936879657 28.1128704123049964
 11.2743635972962863 26.0371311936879657 28.1128704123049964
 -0.0000002167237204 26.0371311936879657 28.1128704123049964
 -8.4557942167237172 26.0371311936879657 28.1128704123049964
 69.0556789895745169 23.5961043759422537 28.1128704123049964
 54.9626608035945097 23.5961043759422537 28.1128704123049964
 19.7301575972962873 26.0371311936879657 28.1128704123049964
 -12.6837335160113369 28.4780847820937346 28.1128704123049964
 -4.2278975214910632 62.6518011664742076 28.1128704123049964
 -15.5023458934510643 62.6518011664742076 28.1128704123049964
 -0.0000002573589589 30.9190383704995000 28.1128704123049964
 19.7301573128471581 60.2107743487284921 28.1128704123049964
 -14.0930184433389574 30.9190383704995000 28.1128704123049964
 39.4603996848071645 60.2107743487284921 28.1128704123049964
 57.7812728559486644 28.4780847820937346 28.1128704123049964
 46.5068244839886518 28.4780847820937346 28.1128704123049964
 40.8696848559486625 28.4780847820937346 28.1128704123049964
 38.0510304839886544 28.4780847820937346 28.1128704123049964
 32.4138908559486651 28.4780847820937346 28.1128704123049964
 23.9580968559486607 28.4780847820937346 28.1128704123049964
 -26.7767097074710669 62.6518011664742076 28.1128704123049964
 18.3208726699686650 28.4780847820937346 28.1128704123049964
 15.5023028559486651 28.4780847820937346 28.1128704123049964
  9.8650786699686659 28.4780847820937346 28.1128704123049964
 -21.1394855214910677 62.6518011664742076 28.1128704123049964
 11.2743635566610401 30.9190383704995000 28.1128704123049964
 40.8696846121347903 57.7698207603227232 28.1128704123049964
 35.2324604261547876 57.7698207603227232 28.1128704123049964
 29.5952362401747777 57.7698207603227232 28.1128704123049964
 -15.5023457715441282 48.0059331773597151 28.1128704123049964
 -23.9581397715441291 48.0059331773597151 28.1128704123049964
 50.7347636207340997 45.5649063596139996 28.1128704123049964
 -31.0046066465175976 55.3288671719169614 28.1128704123049964
 36.6417454347540925 45.5649063596139996 28.1128704123049964
 31.0046058067141033 45.5649063596139996 28.1128704123049964
 40.8696423738006303 52.8878403541712458 28.1128704123049964
 -19.7302428324975985 55.3288671719169614 28.1128704123049964
 16.9115876207341032 45.5649063596139996 28.1128704123049964
 -11.2744488324975958 55.3288671719169614 28.1128704123049964
  8.4557936207341040 45.5649063596139996 28.1128704123049964
  2.8185694347540982 45.5649063596139996 28.1128704123049964
 -2.8185701932858982 45.5649063596139996 28.1128704123049964
 -8.4557943792659014 45.5649063596139996 28.1128704123049964
 22.5488118067141059 45.5649063596139996 28.1128704123049964
 21.1394846004158765 48.0059331773597151 28.1128704123049964
 26.7766242284558658 48.0059331773597151 28.1128704123049964
 40.8696424144358730 48.0059331773597151 28.1128704123049964
 -23.9580552542393690 52.8878403541712458 28.1128704123049964
 42.2789273011282489 50.4468867657654769 28.1128704123049964
 -15.5022612542393716 52.8878403541712458 28.1128704123049964
 -1.4093276261993704 52.8878403541712458 28.1128704123049964
 22.5487694871082525 50.4468867657654769 28.1128704123049964
 14.0929754871082551 50.4468867657654769 28.1128704123049964
  8.4557513011282524 50.4468867657654769 28.1128704123049964
 -2.8186125128917427 50.4468867657654769 28.1128704123049964
 -8.4558366988717459 50.4468867657654769 28.1128704123049964
 -11.2744065128917477 50.4468867657654769 28.1128704123049964
 -16.9116306988717469 50.4468867657654769 28.1128704123049964
 -28.1859945128917460 50.4468867657654769 28.1128704123049964
 23.9580543738006249 52.8878403541712458 28.1128704123049964
 52.1440062284558650 48.0059331773597151 28.1128704123049964
 43.6882122284558676 48.0059331773597151 28.1128704123049964
 -8.4557944605375948 55.3288671719169614 28.1128704123049964
 -19.7301581932858987 45.5649063596139996 28.1128704123049964
 -2.8186548324975988 55.3288671719169614 28.1128704123049964
  2.8185693534824074 55.3288671719169614 28.1128704123049964
 -23.9580975738452153 57.7698207603227232 28.1128704123049964
 -15.5023035738452162 57.7698207603227232 28.1128704123049964
  2.8185694753893440 40.6829991828024689 28.1128704123049964
 -2.8186547105906588 40.6829991828024689 28.1128704123049964
 -1.4092853878652121 57.7698207603227232 28.1128704123049964
 -14.0930185246106596 40.6829991828024689 28.1128704123049964
 -19.7302427105906588 40.6829991828024689 28.1128704123049964
  9.8650784261547866 57.7698207603227232 28.1128704123049964
 54.9626606816875736 38.2419723650567462 28.1128704123049964
 49.3254364957075708 38.2419723650567462 28.1128704123049964
 12.6836482401747883 57.7698207603227232 28.1128704123049964
 21.1394422401747804 57.7698207603227232 28.1128704123049964
 35.2325028676675771 38.2419723650567462 28.1128704123049964
 21.1394846816875770 38.2419723650567462 28.1128704123049964
 26.7766664261547831 57.7698207603227232 28.1128704123049964
 -26.7766673878652135 57.7698207603227232 28.1128704123049964
 46.5068668035945052 23.5961043759422537 28.1128704123049964
 50.7347635394624064 55.3288671719169614 28.1128704123049964
 45.0975393534824036 55.3288671719169614 28.1128704123049964
 54.9626183620817130 43.1239527712082307 28.1128704123049964
 46.5068243620817157 43.1239527712082307 28.1128704123049964
 38.0510303620817112 43.1239527712082307 28.1128704123049964
 32.4138907340417219 43.1239527712082307 28.1128704123049964
 21.1394423620817271 43.1239527712082307 28.1128704123049964
 18.3208725480617254 43.1239527712082307 28.1128704123049964
 16.9115875394624062 55.3288671719169614 28.1128704123049964
 22.5487271675023955 55.3288671719169614 28.1128704123049964
 25.3673815394624036 55.3288671719169614 28.1128704123049964
 -12.6837336379182783 43.1239527712082307 28.1128704123049964
 36.6417453534824062 55.3288671719169614 28.1128704123049964
 47.9161092894093343 40.6829991828024689 28.1128704123049964
 45.0975394753893397 40.6829991828024689 28.1128704123049964
 42.2789695394624090 55.3288671719169614 28.1128704123049964
 39.4603152894093299 40.6829991828024689 28.1128704123049964
 47.9161091675023982 55.3288671719169614 28.1128704123049964
 40.8696426176145025 23.5961043759422537 28.1128704123049964
 33.8231757832762838 26.0371311936879657 28.1128704123049964
 21.1394844378736906 67.5337083432857384 28.1128704123049964
 77.5114731114814504  8.9502363868277595 28.1128704123049964
 -31.0046067684245337 69.9747351610314468 28.1128704123049964
 71.8742489255014476  8.9502363868277595 28.1128704123049964
 66.2370247395214449  8.9502363868277595 28.1128704123049964
 57.7812307395214404  8.9502363868277595 28.1128704123049964
 46.5068669255014484  8.9502363868277595 28.1128704123049964
 -2.8186544667767790 11.3912632045734714 28.1128704123049964
 43.6882971114814538  8.9502363868277595 28.1128704123049964
 -16.9115885824445336 69.9747351610314468 28.1128704123049964
 21.1394849255014528  8.9502363868277595 28.1128704123049964
 -11.2744489544045354 69.9747351610314468 28.1128704123049964
  1.4093271114814494  8.9502363868277595 28.1128704123049964
  2.8185692315754580 69.9747351610314468 28.1128704123049964
  8.4557934175554603 69.9747351610314468 28.1128704123049964
 -19.7302429544045346 69.9747351610314468 28.1128704123049964
 56.3719458528290644  6.5092827984219914 28.1128704123049964
  2.8185697192032206 11.3912632045734714 28.1128704123049964
 11.2743637192032189 11.3912632045734714 28.1128704123049964
 23.9580969778556039 13.8322167929792403 28.1128704123049964
 21.1394426058955993 13.8322167929792403 28.1128704123049964
 18.3208727918756047 13.8322167929792403 28.1128704123049964
  7.0464662518936976 67.5337083432857384 28.1128704123049964
 -7.0465092081243990 13.8322167929792403 28.1128704123049964
  9.8651206238536986 67.5337083432857384 28.1128704123049964
  8.4557939051832172 11.3912632045734714 28.1128704123049964
 76.1021459051832210 11.3912632045734714 28.1128704123049964
 62.0091277192032209 11.3912632045734714 28.1128704123049964
 53.5533337192032164 11.3912632045734714 28.1128704123049964
 23.9580542518936852 67.5337083432857384 28.1128704123049964
 31.0045215332232189 11.3912632045734714 28.1128704123049964
 25.3673819051832226 11.3912632045734714 28.1128704123049964
 16.9115879051832216 11.3912632045734714 28.1128704123049964
 70.4649217192032182 11.3912632045734714 28.1128704123049964
 53.5533760388090698  6.5092827984219914 28.1128704123049964
 50.7347216668490617  6.5092827984219914 28.1128704123049964
 47.9161518528290671  6.5092827984219914 28.1128704123049964
 -32.4138916957521559 72.4156887494372228 28.1128704123049964
 -29.5953218817321577 72.4156887494372228 28.1128704123049964
 -1.4093272198433096  4.0683292100162243 28.1128704123049964
 81.7393701724349171  1.6273023922705114 28.1128704123049964
 -23.9580976957521585 72.4156887494372228 28.1128704123049964
 -15.5023036957521541 72.4156887494372228 28.1128704123049964
 12.6836909661366875  4.0683292100162243 28.1128704123049964
 -7.0465096957521522 72.4156887494372228 28.1128704123049964
 53.5533338004749169  1.6273023922705114 28.1128704123049964
 50.7347639864549222  1.6273023922705114 28.1128704123049964
  1.4092843042478451 72.4156887494372228 28.1128704123049964
 42.2789699864549249  1.6273023922705114 28.1128704123049964
  9.8650783042478416 72.4156887494372228 28.1128704123049964
  5.6372241724349186  1.6273023922705114 28.1128704123049964
 59.1905579864549196  1.6273023922705114 28.1128704123049964
 15.5022607801566892  4.0683292100162243 28.1128704123049964
 -35.2324615097721576 72.4156887494372228 28.1128704123049964
 26.7766245941766883  4.0683292100162243 28.1128704123049964
 28.1859940388090742  6.5092827984219914 28.1128704123049964
 25.3673396668490696  6.5092827984219914 28.1128704123049964
 22.5487270455954629 69.9747351610314468 28.1128704123049964
 16.9115456668490722  6.5092827984219914 28.1128704123049964
 11.2744060388090670  6.5092827984219914 28.1128704123049964
  8.4557516668490695  6.5092827984219914 28.1128704123049964
 31.0045210455954674 69.9747351610314468 28.1128704123049964
 80.3300429661366877  4.0683292100162243 28.1128704123049964
 74.6928187801566850  4.0683292100162243 28.1128704123049964
 36.6417452315754701 69.9747351610314468 28.1128704123049964
 42.2789694175554729 69.9747351610314468 28.1128704123049964
 52.1440065941766875  4.0683292100162243 28.1128704123049964
 46.5068669661366982  4.0683292100162243 28.1128704123049964
 -38.0511158817321586 72.4156887494372228 28.1128704123049964
 32.4138487801566981  4.0683292100162243 28.1128704123049964
 26.7766667918756056 13.8322167929792403 28.1128704123049964
 32.4138909778556012 13.8322167929792403 28.1128704123049964
 50.7347213011282463 50.4468867657654769 28.1128704123049964
 43.6882547918756003 13.8322167929792403 28.1128704123049964
 21.1394848442297523 18.7141971991307194 28.1128704123049964
 23.9580546582497540 18.7141971991307194 28.1128704123049964
 26.7766244722697486 18.7141971991307194 28.1128704123049964
 29.5952788442297496 18.7141971991307194 28.1128704123049964
 43.6882124722697469 18.7141971991307194 28.1128704123049964
 66.2370246582497515 18.7141971991307194 28.1128704123049964
 16.9115451792213065 65.0927547548799765 28.1128704123049964
 71.8742488442297542 18.7141971991307194 28.1128704123049964
 -8.4558364550578684 21.1551507875364884 28.1128704123049964
 -2.8186122690778692 21.1551507875364884 28.1128704123049964
 14.0929753652013119 65.0927547548799765 28.1128704123049964
 14.0929757309221344 21.1551507875364884 28.1128704123049964
 19.7301999169021336 21.1551507875364884 28.1128704123049964
  2.8186115511813119 65.0927547548799765 28.1128704123049964
 36.6417879169021319 21.1551507875364884 28.1128704123049964
 -5.6371824488186855 65.0927547548799765 28.1128704123049964
 45.0975819169021293 21.1551507875364884 28.1128704123049964
 50.7347215449421185 21.1551507875364884 28.1128704123049964
 -14.0929764488186855 65.0927547548799765 28.1128704123049964
 70.4649639169021356 21.1551507875364884 28.1128704123049964
 -12.6836911964054888 23.5961043759422537 28.1128704123049964
 -19.7302006347986882 65.0927547548799765 28.1128704123049964
 -9.8651213823854889 23.5961043759422537 28.1128704123049964
 -7.0464670104254905 23.5961043759422537 28.1128704123049964
 -4.2278971964054897 23.5961043759422537 28.1128704123049964
  7.0464666176145112 23.5961043759422537 28.1128704123049964
 12.6836908035945140 23.5961043759422537 28.1128704123049964
 15.5022606176145086 23.5961043759422537 28.1128704123049964
 -28.1859946347986892 65.0927547548799765 28.1128704123049964
 15.5022606582497549 18.7141971991307194 28.1128704123049964
 -4.2278971557702505 18.7141971991307194 28.1128704123049964
 22.5487693652013093 65.0927547548799765 28.1128704123049964
 59.1905578645479835 16.2731703813850075 28.1128704123049964
 50.7347638645479790 16.2731703813850075 28.1128704123049964
 39.4604000505279870 16.2731703813850075 28.1128704123049964
 45.0975815511813138 65.0927547548799765 28.1128704123049964
 -23.9580553761463051 67.5337083432857384 28.1128704123049964
 66.2370669778556049 13.8322167929792403 28.1128704123049964
 39.4603573652013111 65.0927547548799765 28.1128704123049964
 -2.8185699494720202 16.2731703813850075 28.1128704123049964
 45.0975396785679763 16.2731703813850075 28.1128704123049964
 73.2835760505279836 16.2731703813850075 28.1128704123049964
 -9.8651213417502497 18.7141971991307194 28.1128704123049964
 -7.0465515277302488 18.7141971991307194 28.1128704123049964
 36.6417875511813165 65.0927547548799765 28.1128704123049964
 46.5068246058955950 13.8322167929792403 28.1128704123049964
 -5.6372243214320203 16.2731703813850075 28.1128704123049964
 -36.6417886483437698 66.7200571471504844 28.6327538495249954
 -32.4138915873902960 59.3971231525932382 28.6327538495249954
 31.0045634735631737 52.0741891580359919 28.6327538495249954
 28.1859936595431719 52.0741891580359919 28.6327538495249954
 -15.5023035873902977 59.3971231525932382 28.6327538495249954
 -33.8231342763837688 66.7200571471504844 28.6327538495249954
 46.5068664649638706 64.2791035587447084 28.6327538495249954
 -29.5952372154302985 59.3971231525932382 28.6327538495249954
 -9.8651217210161430 64.2791035587447084 28.6327538495249954
 15.5023025985896936 59.3971231525932382 28.6327538495249954
 -23.9580553490561456 64.2791035587447084 28.6327538495249954
 25.3673814852820882 61.8380767409990000 28.6327538495249954
  8.4558358455231772 52.0741891580359919 28.6327538495249954
 31.0046056712620839 61.8380767409990000 28.6327538495249954
 -2.8185704100096114 71.6020375533019688 28.6327538495249954
 -5.6371824623637705 66.7200571471504844 28.6327538495249954
 36.6418298572420866 61.8380767409990000 28.6327538495249954
  2.8186116595431669 52.0741891580359919 28.6327538495249954
 42.2789694852820901 61.8380767409990000 28.6327538495249954
 45.0976238572420840 61.8380767409990000 28.6327538495249954
 -5.6371823404568273 52.0741891580359919 28.6327538495249954
 14.0930175899903762 71.6020375533019688 28.6327538495249954
 16.9115874040103833 71.6020375533019688 28.6327538495249954
  5.6371813516562215 66.7200571471504844 28.6327538495249954
 -23.9580552677844487 54.5151427464417537 28.6327538495249954
 -12.6836492154302967 59.3971231525932382 28.6327538495249954
 47.9161936712620928 61.8380767409990000 28.6327538495249954
 -26.7766252037113830 69.1610107355562462 28.6327538495249954
 32.4138482789838704 64.2791035587447084 28.6327538495249954
 -21.1394855756713831 69.1610107355562462 28.6327538495249954
 29.5952784649638616 64.2791035587447084 28.6327538495249954
 18.3208724126097096 59.3971231525932382 28.6327538495249954
 -4.2278975756713866 69.1610107355562462 28.6327538495249954
 -1.4092432037113782 69.1610107355562462 28.6327538495249954
 32.4139329181955560 54.5151427464417537 28.6327538495249954
  2.8185693399373224 56.9561695641874692 28.6327538495249954
 18.3209147322155452 54.5151427464417537 28.6327538495249954
 43.6882966509438617 64.2791035587447084 28.6327538495249954
  8.4557935259173256 56.9561695641874692 28.6327538495249954
 40.8696845985897141 59.3971231525932382 28.6327538495249954
  0.0000417236162395 66.7200571471504844 28.6327538495249954
 12.6836905462355407 54.5151427464417537 28.6327538495249954
 12.6836904243286224 69.1610107355562462 28.6327538495249954
  9.8651207322155532 54.5151427464417537 28.6327538495249954
 15.5023447962886092 69.1610107355562462 28.6327538495249954
  4.2278965462355513 54.5151427464417537 28.6327538495249954
 18.3209146103086198 69.1610107355562462 28.6327538495249954
 49.3254785985897115 59.3971231525932382 28.6327538495249954
 -38.0510735756713814 69.1610107355562462 28.6327538495249954
 -7.0465095873903012 59.3971231525932382 28.6327538495249954
 33.8232177236162386 66.7200571471504844 28.6327538495249954
 28.1859935376362323 66.7200571471504844 28.6327538495249954
  4.2278964649638544 64.2791035587447084 28.6327538495249954
 -11.2743643287379136 61.8380767409990000 28.6327538495249954
 -21.1394854537644470 54.5151427464417537 28.6327538495249954
 -32.4138493490561430 64.2791035587447084 28.6327538495249954
  1.4092849002374601  0.8136511961352557 28.6327538495249954
 46.5068665868708067 49.6332355696302230 28.6327538495249954
 -2.8185699223818586 13.0185655968439828 28.6327538495249954
  2.8185697056581414 13.0185655968439828 28.6327538495249954
 36.6417457056581313 13.0185655968439828 28.6327538495249954
 56.3719880776181483 13.0185655968439828 28.6327538495249954
 67.6463518916381474 13.0185655968439828 28.6327538495249954
  7.0465089643105223 15.4595191852497500 28.6327538495249954
 12.6837331502905215 15.4595191852497500 28.6327538495249954
 23.9580969643105171 15.4595191852497500 28.6327538495249954
 49.3254789643105269 15.4595191852497500 28.6327538495249954
 63.4184971502905270 15.4595191852497500 28.6327538495249954
 69.0556367783305234 15.4595191852497500 28.6327538495249954
 -8.4557941489970982 17.9004727736555189 28.6327538495249954
  2.8186542229628988 17.9004727736555189 28.6327538495249954
  5.6372240369829028 17.9004727736555189 28.6327538495249954
 50.7347638510029029 17.9004727736555189 28.6327538495249954
 67.6463518510029047 17.9004727736555189 28.6327538495249954
  9.8651210166646699 20.3414995914012344 28.6327538495249954
  1.4093269760294336 25.2234067682127652 28.6327538495249954
 64.8277397173770566 22.7824531798069998 28.6327538495249954
 59.1906000893370532 22.7824531798069998 28.6327538495249954
 56.3719457173770593 22.7824531798069998 28.6327538495249954
 31.0045637173770388 22.7824531798069998 28.6327538495249954
 25.3674240893370566 22.7824531798069998 28.6327538495249954
 77.5114730979363742 10.5775387790982709 28.6327538495249954
 19.7301999033570468 22.7824531798069998 28.6327538495249954
 -11.2744062826229499 22.7824531798069998 28.6327538495249954
 60.5998850166646719 20.3414995914012344 28.6327538495249954
 54.9626608306846691 20.3414995914012344 28.6327538495249954
 40.8696426447046761 20.3414995914012344 28.6327538495249954
 35.2325030166646727 20.3414995914012344 28.6327538495249954
 32.4138486447046574 20.3414995914012344 28.6327538495249954
  2.8186119033570516 22.7824531798069998 28.6327538495249954
  7.0465511620094325 25.2234067682127652 28.6327538495249954
 52.1440910979363750 10.5775387790982709 28.6327538495249954
 38.0510729119563607 10.5775387790982709 28.6327538495249954
 18.3208729002374611  0.8136511961352557 28.6327538495249954
 23.9580970862174638  0.8136511961352557 28.6327538495249954
 29.5953212721974559  0.8136511961352557 28.6327538495249954
 46.5069092721974613  0.8136511961352557 28.6327538495249954
 57.7812730862174604  0.8136511961352557 28.6327538495249954
 69.0556369002374737  0.8136511961352557 28.6327538495249954
 71.8742912721974676  0.8136511961352557 28.6327538495249954
 77.5114309002374711  0.8136511961352557 28.6327538495249954
  2.8186543448698407  3.2546047845410229 28.6327538495249954
  8.4557939729098397  3.2546047845410229 28.6327538495249954
 22.5488121588898416  3.2546047845410229 28.6327538495249954
 36.6418303448698452  3.2546047845410229 28.6327538495249954
 64.8277821588898462  3.2546047845410229 28.6327538495249954
 67.6463519729098550  3.2546047845410229 28.6327538495249954
  1.4093271385716108  5.6956316022867357 28.6327538495249954
 21.1394849525916122  5.6956316022867357 28.6327538495249954
 38.0510729525916105  5.6956316022867357 28.6327538495249954
 32.4139332839163785 10.5775387790982709 28.6327538495249954
 21.1394849119563659 10.5775387790982709 28.6327538495249954
 76.1021882112439840  8.1365851906925037 28.6327538495249954
 56.3719458392839954  8.1365851906925037 28.6327538495249954
 39.4603578392839793  8.1365851906925037 28.6327538495249954
 36.6417880252639918  8.1365851906925037 28.6327538495249954
 40.8697272839163759 10.5775387790982709 28.6327538495249954
 33.8232182112439972  8.1365851906925037 28.6327538495249954
 11.2744060252639908  8.1365851906925037 28.6327538495249954
  5.6371818392839907  8.1365851906925037 28.6327538495249954
 69.0556791385716195  5.6956316022867357 28.6327538495249954
 63.4184549525916097  5.6956316022867357 28.6327538495249954
 43.6882971385716132  5.6956316022867357 28.6327538495249954
 40.8696427666115980  5.6956316022867357 28.6327538495249954
 16.9116302112439918  8.1365851906925037 28.6327538495249954
 -25.3673401544768282 52.0741891580359919 28.6327538495249954
 38.0510727900494388 25.2234067682127652 28.6327538495249954
 49.3255211620094371 25.2234067682127652 28.6327538495249954
 15.5023450401024956 39.8692747573272612 28.6327538495249954
 23.9581390401024947 39.8692747573272612 28.6327538495249954
 29.5952786681424982 39.8692747573272612 28.6327538495249954
 32.4139330401024850 39.8692747573272612 28.6327538495249954
 43.6882968541224912 39.8692747573272612 28.6327538495249954
 60.5998848541225001 39.8692747573272612 28.6327538495249954
 -8.4557943521757366 42.3103015750729767 28.6327538495249954
 -5.6372245381557384 42.3103015750729767 28.6327538495249954
 -0.0000003521757358 42.3103015750729767 28.6327538495249954
  5.6372238338042564 42.3103015750729767 28.6327538495249954
 11.2743634618442599 42.3103015750729767 28.6327538495249954
 42.2789696478242618 42.3103015750729767 28.6327538495249954
 53.5533334618442680 42.3103015750729767 28.6327538495249954
 56.3719878338042619 42.3103015750729767 28.6327538495249954
 59.1905576478242708 42.3103015750729767 28.6327538495249954
 -23.9580974654833554 44.7512551634787386 28.6327538495249954
 -18.3208732795033562 44.7512551634787386 28.6327538495249954
 38.0510725868707951 49.6332355696302230 28.6327538495249954
 35.2325027728508005 49.6332355696302230 28.6327538495249954
 32.4138484008907994 49.6332355696302230 28.6327538495249954
 18.3209147728507951 49.6332355696302230 28.6327538495249954
 -21.1394854131292078 49.6332355696302230 28.6327538495249954
 56.3719877931690334 47.1922087518845075 28.6327538495249954
  9.8651208541224857 39.8692747573272612 28.6327538495249954
  2.8186539791490159 47.1922087518845075 28.6327538495249954
 -14.0929340208509810 47.1922087518845075 28.6327538495249954
 49.3254787204966547 44.7512551634787386 28.6327538495249954
 43.6882545345166520 44.7512551634787386 28.6327538495249954
 40.8696847204966431 44.7512551634787386 28.6327538495249954
 26.7766665345166501 44.7512551634787386 28.6327538495249954
 12.6837329064766493 44.7512551634787386 28.6327538495249954
 -8.4557943928109793 47.1922087518845075 28.6327538495249954
 43.6882969760294344 25.2234067682127652 28.6327538495249954
  4.2278966681424874 39.8692747573272612 28.6327538495249954
 -9.8650369598975125 39.8692747573272612 28.6327538495249954
 60.5998849760294434 25.2234067682127652 28.6327538495249954
 -11.2743640442888005 27.6644335859584807 28.6327538495249954
 -5.6372244162487979 27.6644335859584807 28.6327538495249954
  2.8185695837512008 27.6644335859584807 28.6327538495249954
  5.6372239557112023 27.6644335859584807 28.6327538495249954
 22.5488119557112086 27.6644335859584807 28.6327538495249954
 28.1859515837511907 27.6644335859584807 28.6327538495249954
 50.7347637697312024 27.6644335859584807 28.6327538495249954
 62.0091275837512086 27.6644335859584807 28.6327538495249954
 -7.0465093435764183 30.1053871743642461 28.6327538495249954
 -4.2278549716164209 30.1053871743642461 28.6327538495249954
 26.7766666564235685 30.1053871743642461 28.6327538495249954
 32.4138908424035748 30.1053871743642461 28.6327538495249954
 -8.4557942709040379 32.5463407627700150 28.6327538495249954
 -5.6371398989440404 32.5463407627700150 28.6327538495249954
 14.0930179150759578 32.5463407627700150 28.6327538495249954
 28.1860361010559650 32.5463407627700150 28.6327538495249954
 62.0091697814501188 37.4283211689214923 28.6327538495249954
 56.3719455954701161 37.4283211689214923 28.6327538495249954
 45.0975817814501099 37.4283211689214923 28.6327538495249954
 39.4603575954701142 37.4283211689214923 28.6327538495249954
 19.7301997814501142 37.4283211689214923 28.6327538495249954
  5.6371815954701097 37.4283211689214923 28.6327538495249954
 -7.0464671458775081 39.8692747573272612 28.6327538495249954
  2.8186117814501150 37.4283211689214923 28.6327538495249954
 19.7301572180303850 71.6020375533019688 28.6327538495249954
 46.5068667087777357 34.9873675805157234 28.6327538495249954
 43.6882968947577410 34.9873675805157234 28.6327538495249954
 40.8696425227977400 34.9873675805157234 28.6327538495249954
  4.2278967087777302 34.9873675805157234 28.6327538495249954
 45.0976241010559633 32.5463407627700150 28.6327538495249954
  0.0000419674301133 37.4283211689214923 28.6327538495249954
 -16.9115460325698876 37.4283211689214923 28.6327538495249954
