 H  O 
 1.0000000000000000
    84.5579400000000021    0.0000000000000000    0.0000000000000000
   -42.2789706095346958   73.2293399455724767    0.0000000000000000
     0.0000000000000000    0.0000000000000000   46.9039550000000034
 H   O  
 166 387
Cartesian
 -0.0000000135450799  1.6273023922705114 28.1128704123049964
 54.9626184839886562 28.4780847820937346 28.1128704123049964
 -2.8185700713789608 30.9190383704995000 28.1128704123049964
  8.4557937426410454 30.9190383704995000 28.1128704123049964
 11.2743635566610401 30.9190383704995000 28.1128704123049964
 14.0930179286210446 30.9190383704995000 28.1128704123049964
 59.1905577426410403 30.9190383704995000 28.1128704123049964
 -4.2278972776771910 33.3600651882452155 28.1128704123049964
 -1.4093274636571897 33.3600651882452155 28.1128704123049964
 23.9580545363428143 33.3600651882452155 28.1128704123049964
 38.0510727223228145 33.3600651882452155 28.1128704123049964
 40.8696425363428091 33.3600651882452155 28.1128704123049964
 46.5068667223228047 33.3600651882452155 28.1128704123049964
 54.9626607223228163 33.3600651882452155 28.1128704123049964
 49.3254788559486528 28.4780847820937346 28.1128704123049964
 63.4184547223228137 33.3600651882452155 28.1128704123049964
 11.2744057949951930 35.8010187766509844 28.1128704123049964
 62.0091697949951950 35.8010187766509844 28.1128704123049964
 -18.3209155042924259 38.2419723650567462 28.1128704123049964
 -12.6836913183124267 38.2419723650567462 28.1128704123049964
 -9.8651215042924267 38.2419723650567462 28.1128704123049964
 -7.0464671323324293 38.2419723650567462 28.1128704123049964
 -4.2278973183124275 38.2419723650567462 28.1128704123049964
 26.7767088676675797 38.2419723650567462 28.1128704123049964
 -22.5488125246106605 40.6829991828024689 28.1128704123049964
 -0.0000003386306579 40.6829991828024689 28.1128704123049964
  8.4557936613693432 40.6829991828024689 28.1128704123049964
 22.5487272894093422 40.6829991828024689 28.1128704123049964
 28.1859514753893379 40.6829991828024689 28.1128704123049964
  5.6371816090151947 35.8010187766509844 28.1128704123049964
 29.5952364839886641 28.4780847820937346 28.1128704123049964
 21.1394424839886597 28.4780847820937346 28.1128704123049964
 -4.2279395160113378 28.4780847820937346 28.1128704123049964
 -1.4093273417502492 18.7141971991307194 28.1128704123049964
 15.5022606582497549 18.7141971991307194 28.1128704123049964
 23.9580546582497540 18.7141971991307194 28.1128704123049964
 49.3254366582497497 18.7141971991307194 28.1128704123049964
 54.9626608442297453 18.7141971991307194 28.1128704123049964
 -8.4558364550578684 21.1551507875364884 28.1128704123049964
 -2.8186122690778692 21.1551507875364884 28.1128704123049964
 11.2744059169021327 21.1551507875364884 28.1128704123049964
 33.8231335449421309 21.1551507875364884 28.1128704123049964
 36.6417879169021319 21.1551507875364884 28.1128704123049964
 50.7347215449421185 21.1551507875364884 28.1128704123049964
 56.3719457309221283 21.1551507875364884 28.1128704123049964
 62.0091699169021311 21.1551507875364884 28.1128704123049964
 70.4649639169021356 21.1551507875364884 28.1128704123049964
  1.4093269895745080 23.5961043759422537 28.1128704123049964
  4.2278968035945095 23.5961043759422537 28.1128704123049964
  7.0464666176145112 23.5961043759422537 28.1128704123049964
 12.6836908035945140 23.5961043759422537 28.1128704123049964
 18.3209149895745149 23.5961043759422537 28.1128704123049964
 26.7767089895745123 23.5961043759422537 28.1128704123049964
 40.8696426176145025 23.5961043759422537 28.1128704123049964
 46.5068668035945052 23.5961043759422537 28.1128704123049964
 49.3254366176144998 23.5961043759422537 28.1128704123049964
 57.7812306176145043 23.5961043759422537 28.1128704123049964
 -11.2744485886837182 26.0371311936879657 28.1128704123049964
 -2.8186545886837178 26.0371311936879657 28.1128704123049964
 31.0045214113162864 26.0371311936879657 28.1128704123049964
 36.6417455972962784 26.0371311936879657 28.1128704123049964
 59.1905577832762830 26.0371311936879657 28.1128704123049964
 36.6417454753893352 40.6829991828024689 28.1128704123049964
 42.2789696613693309 40.6829991828024689 28.1128704123049964
 50.7347636613693425 40.6829991828024689 28.1128704123049964
 56.3719032894093317 40.6829991828024689 28.1128704123049964
 29.5952362401747777 57.7698207603227232 28.1128704123049964
 32.4138906121347787 57.7698207603227232 28.1128704123049964
 -2.8185703151928343 60.2107743487284921 28.1128704123049964
 11.2743633128471661 60.2107743487284921 28.1128704123049964
 42.2789694988271592 60.2107743487284921 28.1128704123049964
 -35.2325037074710679 62.6518011664742076 28.1128704123049964
 -29.5952795214910651 62.6518011664742076 28.1128704123049964
 -21.1394855214910677 62.6518011664742076 28.1128704123049964
 -15.5023458934510643 62.6518011664742076 28.1128704123049964
 -9.8651217074710615 62.6518011664742076 28.1128704123049964
 -7.0465518934510678 62.6518011664742076 28.1128704123049964
 21.1394844785089369 62.6518011664742076 28.1128704123049964
 26.7766241065489261 62.6518011664742076 28.1128704123049964
 40.8696422925289298 62.6518011664742076 28.1128704123049964
 -22.5487704488186900 65.0927547548799765 28.1128704123049964
  8.4557511792213162 65.0927547548799765 28.1128704123049964
 14.0929753652013119 65.0927547548799765 28.1128704123049964
  1.4093266238536943 67.5337083432857384 28.1128704123049964
 -39.4604007684245346 69.9747351610314468 28.1128704123049964
 -31.0046067684245337 69.9747351610314468 28.1128704123049964
 -25.3673825824445345 69.9747351610314468 28.1128704123049964
 -16.9115885824445336 69.9747351610314468 28.1128704123049964
 -11.2744489544045354 69.9747351610314468 28.1128704123049964
 -2.8186549544045376 69.9747351610314468 28.1128704123049964
  2.8185692315754580 69.9747351610314468 28.1128704123049964
 11.2743632315754621 69.9747351610314468 28.1128704123049964
 36.6417452315754701 69.9747351610314468 28.1128704123049964
 18.3208723042478390 72.4156887494372228 28.1128704123049964
 23.9580964902278346 72.4156887494372228 28.1128704123049964
 -26.7766673878652135 57.7698207603227232 28.1128704123049964
 50.7347638645479790 16.2731703813850075 28.1128704123049964
 45.0975393534824036 55.3288671719169614 28.1128704123049964
 31.0045211675023928 55.3288671719169614 28.1128704123049964
 59.1905576613693398 40.6829991828024689 28.1128704123049964
 -7.0465094519382783 43.1239527712082307 28.1128704123049964
 -4.2279396379182765 43.1239527712082307 28.1128704123049964
  1.4092845480617260 43.1239527712082307 28.1128704123049964
  9.8650785480617262 43.1239527712082307 28.1128704123049964
 -19.7301581932858987 45.5649063596139996 28.1128704123049964
 31.0046058067141033 45.5649063596139996 28.1128704123049964
 39.4603998067140935 45.5649063596139996 28.1128704123049964
 45.0975394347540970 45.5649063596139996 28.1128704123049964
 53.5533334347540944 45.5649063596139996 28.1128704123049964
 -26.7767095855641273 48.0059331773597151 28.1128704123049964
 -4.2278973995841262 48.0059331773597151 28.1128704123049964
  7.0464664144358764 48.0059331773597151 28.1128704123049964
 18.3208302284558755 48.0059331773597151 28.1128704123049964
 21.1394846004158765 48.0059331773597151 28.1128704123049964
 46.5068666004158757 48.0059331773597151 28.1128704123049964
 54.9626606004158731 48.0059331773597151 28.1128704123049964
 -16.9116306988717469 50.4468867657654769 28.1128704123049964
 -11.2744065128917477 50.4468867657654769 28.1128704123049964
 33.8231333011282445 50.4468867657654769 28.1128704123049964
 42.2789273011282489 50.4468867657654769 28.1128704123049964
 -23.9580552542393690 52.8878403541712458 28.1128704123049964
 -4.2278974402193654 52.8878403541712458 28.1128704123049964
 26.7767087457606330 52.8878403541712458 28.1128704123049964
 -31.0046066465175976 55.3288671719169614 28.1128704123049964
 -14.0930186465175975 55.3288671719169614 28.1128704123049964
 -5.6372246465175939 55.3288671719169614 28.1128704123049964
  2.8185693534824074 55.3288671719169614 28.1128704123049964
  8.4557935394624035 55.3288671719169614 28.1128704123049964
 36.6417453534824062 55.3288671719169614 28.1128704123049964
 45.0975396785679763 16.2731703813850075 28.1128704123049964
 19.7301997949951904 35.8010187766509844 28.1128704123049964
 31.0045215332232189 11.3912632045734714 28.1128704123049964
  5.6372240505279780 16.2731703813850075 28.1128704123049964
 40.8696427801566955  4.0683292100162243 28.1128704123049964
 43.6882125941766972  4.0683292100162243 28.1128704123049964
 -5.6372243214320203 16.2731703813850075 28.1128704123049964
 74.6928609778556023 13.8322167929792403 28.1128704123049964
 71.8742066058955942 13.8322167929792403 28.1128704123049964
 66.2370669778556049 13.8322167929792403 28.1128704123049964
 62.0091278004749142  1.6273023922705114 28.1128704123049964
 15.5022607801566892  4.0683292100162243 28.1128704123049964
 25.3673396668490696  6.5092827984219914 28.1128704123049964
 77.5114731114814504  8.9502363868277595 28.1128704123049964
 74.6928187395214422  8.9502363868277595 28.1128704123049964
 57.7812307395214404  8.9502363868277595 28.1128704123049964
 53.5533338004749169  1.6273023922705114 28.1128704123049964
 46.5068246058955950 13.8322167929792403 28.1128704123049964
 25.3673819051832226 11.3912632045734714 28.1128704123049964
  8.4557516668490695  6.5092827984219914 28.1128704123049964
 47.9161941724349276  1.6273023922705114 28.1128704123049964
 60.5998427918756022 13.8322167929792403 28.1128704123049964
  4.2278969255014500  8.9502363868277595 28.1128704123049964
 -0.0000001354520196 16.2731703813850075 28.1128704123049964
 14.0930180505279825 16.2731703813850075 28.1128704123049964
  2.8185697192032206 11.3912632045734714 28.1128704123049964
 11.2743637192032189 11.3912632045734714 28.1128704123049964
 21.1394849661366919  4.0683292100162243 28.1128704123049964
 50.7347216668490617  6.5092827984219914 28.1128704123049964
 22.5488120505279817 16.2731703813850075 28.1128704123049964
 59.1905579051832120 11.3912632045734714 28.1128704123049964
 16.9115879051832216 11.3912632045734714 28.1128704123049964
 29.5952789661366928  4.0683292100162243 28.1128704123049964
 39.4604000505279870 16.2731703813850075 28.1128704123049964
 26.7766245941766883  4.0683292100162243 28.1128704123049964
 36.6417456785679860 16.2731703813850075 28.1128704123049964
 70.4649640388090717  6.5092827984219914 28.1128704123049964
 -18.3208310818044460 54.5151427464417537 28.6327538495249954
 33.8231755259173212 56.9561695641874692 28.6327538495249954
 28.1859513399373292 56.9561695641874692 28.6327538495249954
 -32.4138915873902960 59.3971231525932382 28.6327538495249954
 -9.8650370818044468 54.5151427464417537 28.6327538495249954
 -29.5952794537644479 54.5151427464417537 28.6327538495249954
 16.9115875259173158 56.9561695641874692 28.6327538495249954
 64.8277821588898462  3.2546047845410229 28.6327538495249954
  1.4093271385716108  5.6956316022867357 28.6327538495249954
 53.5533756595431782 52.0741891580359919 28.6327538495249954
 50.7348058455231694 52.0741891580359919 28.6327538495249954
 67.6463519729098550  3.2546047845410229 28.6327538495249954
 -1.4092430818044526 54.5151427464417537 28.6327538495249954
 59.1905579729098434  3.2546047845410229 28.6327538495249954
 -0.0000004740826793 56.9561695641874692 28.6327538495249954
 -2.8185702881026811 56.9561695641874692 28.6327538495249954
  2.8185693399373224 56.9561695641874692 28.6327538495249954
 -11.2743642881026744 56.9561695641874692 28.6327538495249954
 -22.5488126600626764 56.9561695641874692 28.6327538495249954
 31.0046061588898354  3.2546047845410229 28.6327538495249954
 49.3255209181955507 54.5151427464417537 28.6327538495249954
 14.0930177118973283 56.9561695641874692 28.6327538495249954
 39.4604001588898399  3.2546047845410229 28.6327538495249954
  8.4557935259173256 56.9561695641874692 28.6327538495249954
 47.9161514735631755 52.0741891580359919 28.6327538495249954
 11.2743633399373131 56.9561695641874692 28.6327538495249954
 32.4139329181955560 54.5151427464417537 28.6327538495249954
 29.5952785462355585 54.5151427464417537 28.6327538495249954
 12.6836905462355407 54.5151427464417537 28.6327538495249954
 45.0976243448698426  3.2546047845410229 28.6327538495249954
 40.8697269181955534 54.5151427464417537 28.6327538495249954
 31.0045634735631737 52.0741891580359919 28.6327538495249954
 49.3254789643105269 15.4595191852497500 28.6327538495249954
 22.5487694735631763 52.0741891580359919 28.6327538495249954
 -21.1394854131292078 49.6332355696302230 28.6327538495249954
 40.8696427666115980  5.6956316022867357 28.6327538495249954
 43.6882971385716132  5.6956316022867357 28.6327538495249954
 42.2789696071890333 47.1922087518845075 28.6327538495249954
 36.6418299791490298 47.1922087518845075 28.6327538495249954
 33.8231756071890288 47.1922087518845075 28.6327538495249954
 22.5488117931690120 47.1922087518845075 28.6327538495249954
 46.5068669525916008  5.6956316022867357 28.6327538495249954
 49.3254367666116167  5.6956316022867357 28.6327538495249954
 16.9115876071890092 47.1922087518845075 28.6327538495249954
  8.4557936071890190 47.1922087518845075 28.6327538495249954
  2.8186539791490159 47.1922087518845075 28.6327538495249954
 54.9626609525916123  5.6956316022867357 28.6327538495249954
 -8.4557943928109793 47.1922087518845075 28.6327538495249954
 -14.0929340208509810 47.1922087518845075 28.6327538495249954
 -16.9115883928109767 47.1922087518845075 28.6327538495249954
 66.2370247666116256  5.6956316022867357 28.6327538495249954
 57.7812727204966521 44.7512551634787386 28.6327538495249954
 49.3254787204966547 44.7512551634787386 28.6327538495249954
 71.8742489525916284  5.6956316022867357 28.6327538495249954
 43.6882545345166520 44.7512551634787386 28.6327538495249954
 38.0510729525916105  5.6956316022867357 28.6327538495249954
 -15.5022612271492086 49.6332355696302230 28.6327538495249954
 32.4138487666116077  5.6956316022867357 28.6327538495249954
  9.8651207728507995 49.6332355696302230 28.6327538495249954
 16.9116298455231728 52.0741891580359919 28.6327538495249954
 14.0929754735631594 52.0741891580359919 28.6327538495249954
 11.2744056595431719 52.0741891580359919 28.6327538495249954
  8.4558358455231772 52.0741891580359919 28.6327538495249954
  0.0000418455231652 52.0741891580359919 28.6327538495249954
 -2.8186125264368322 52.0741891580359919 28.6327538495249954
 -11.2744065264368292 52.0741891580359919 28.6327538495249954
 -14.0929763404568273 52.0741891580359919 28.6327538495249954
 -16.9115461544768308 52.0741891580359919 28.6327538495249954
 -19.7302005264368283 52.0741891580359919 28.6327538495249954
  4.2278969525916086  5.6956316022867357 28.6327538495249954
 23.9580547666116068  5.6956316022867357 28.6327538495249954
 52.1440907728507952 49.6332355696302230 28.6327538495249954
 46.5068665868708067 49.6332355696302230 28.6327538495249954
 38.0510725868707951 49.6332355696302230 28.6327538495249954
 29.5952789525916060  5.6956316022867357 28.6327538495249954
 32.4138484008907994 49.6332355696302230 28.6327538495249954
 29.5952785868707942 49.6332355696302230 28.6327538495249954
 23.9580544008907985 49.6332355696302230 28.6327538495249954
 21.1394845868707826 49.6332355696302230 28.6327538495249954
 18.3209147728507951 49.6332355696302230 28.6327538495249954
 15.5022604008907816 49.6332355696302230 28.6327538495249954
 -28.1859945264368292 52.0741891580359919 28.6327538495249954
 -8.4557521544768282 52.0741891580359919 28.6327538495249954
  1.4092844126096999 59.3971231525932382 28.6327538495249954
 -23.9580975873902986 59.3971231525932382 28.6327538495249954
 -15.5022613896913821 69.1610107355562462 28.6327538495249954
 29.5953212721974559  0.8136511961352557 28.6327538495249954
 -21.1394855756713831 69.1610107355562462 28.6327538495249954
 32.4138910862174541  0.8136511961352557 28.6327538495249954
 -29.5952795756713840 69.1610107355562462 28.6327538495249954
 38.0511152721974639  0.8136511961352557 28.6327538495249954
 40.8696850862174585  0.8136511961352557 28.6327538495249954
 42.2790117236162359 66.7200571471504844 28.6327538495249954
 33.8232177236162386 66.7200571471504844 28.6327538495249954
 31.0045633516562411 66.7200571471504844 28.6327538495249954
 28.1859935376362323 66.7200571471504844 28.6327538495249954
 19.7301995376362349 66.7200571471504844 28.6327538495249954
  5.6371813516562215 66.7200571471504844 28.6327538495249954
 43.6882549002374461  0.8136511961352557 28.6327538495249954
  0.0000417236162395 66.7200571471504844 28.6327538495249954
 -2.8186126483437688 66.7200571471504844 28.6327538495249954
 -5.6371824623637705 66.7200571471504844 28.6327538495249954
 -8.4557522763837714 66.7200571471504844 28.6327538495249954
 -14.0929764623637634 66.7200571471504844 28.6327538495249954
 -16.9115462763837670 66.7200571471504844 28.6327538495249954
 -19.7302006483437680 66.7200571471504844 28.6327538495249954
 26.7766669002374584  0.8136511961352557 28.6327538495249954
 18.3208729002374611  0.8136511961352557 28.6327538495249954
 -1.4092432037113782 69.1610107355562462 28.6327538495249954
 15.5023030862174611  0.8136511961352557 28.6327538495249954
 36.6417452180303869 71.6020375533019688 28.6327538495249954
 33.8231754040103922 71.6020375533019688 28.6327538495249954
 31.0046055899903834 71.6020375533019688 28.6327538495249954
 28.1859512180303895 71.6020375533019688 28.6327538495249954
  1.4092849002374601  0.8136511961352557 28.6327538495249954
 19.7301572180303850 71.6020375533019688 28.6327538495249954
  4.2279392721974602  0.8136511961352557 28.6327538495249954
 14.0930175899903762 71.6020375533019688 28.6327538495249954
  8.4557934040103735 71.6020375533019688 28.6327538495249954
 -0.0000005959896168 71.6020375533019688 28.6327538495249954
 -22.5487704623637697 66.7200571471504844 28.6327538495249954
 -14.0930187819696204 71.6020375533019688 28.6327538495249954
 -33.8231765959896151 71.6020375533019688 28.6327538495249954
 40.8697267962886173 69.1610107355562462 28.6327538495249954
  9.8650789002374601  0.8136511961352557 28.6327538495249954
 32.4139327962886199 69.1610107355562462 28.6327538495249954
 26.7767086103086172 69.1610107355562462 28.6327538495249954
 21.1394844243286215 69.1610107355562462 28.6327538495249954
 18.3209146103086198 69.1610107355562462 28.6327538495249954
 15.5023447962886092 69.1610107355562462 28.6327538495249954
 12.6837332721974576  0.8136511961352557 28.6327538495249954
  7.0465507962886189 69.1610107355562462 28.6327538495249954
 -28.1859524100096195 71.6020375533019688 28.6327538495249954
 -28.1859946483437653 66.7200571471504844 28.6327538495249954
 -31.0045644623637671 66.7200571471504844 28.6327538495249954
 -36.6417886483437698 66.7200571471504844 28.6327538495249954
 80.3300852721974650  0.8136511961352557 28.6327538495249954
 -16.9115885147179164 61.8380767409990000 28.6327538495249954
 -19.7301583287379145 61.8380767409990000 28.6327538495249954
  2.8186543448698407  3.2546047845410229 28.6327538495249954
 -25.3673825147179137 61.8380767409990000 28.6327538495249954
 11.2744483448698372  3.2546047845410229 28.6327538495249954
 46.5069087845697027 59.3971231525932382 28.6327538495249954
 43.6882544126097088 59.3971231525932382 28.6327538495249954
 16.9115879729098388  3.2546047845410229 28.6327538495249954
 38.0511147845697053 59.3971231525932382 28.6327538495249954
 74.6928610862174764  0.8136511961352557 28.6327538495249954
 35.2324604126097114 59.3971231525932382 28.6327538495249954
 26.7766664126097069 59.3971231525932382 28.6327538495249954
 23.9580965985897052 59.3971231525932382 28.6327538495249954
 15.5023025985896936 59.3971231525932382 28.6327538495249954
 40.8696847204966431 44.7512551634787386 28.6327538495249954
 25.3673819729098362  3.2546047845410229 28.6327538495249954
 -4.2278552154303037 59.3971231525932382 28.6327538495249954
 -9.8650794014102949 59.3971231525932382 28.6327538495249954
 -12.6836492154302967 59.3971231525932382 28.6327538495249954
 -15.5023035873902977 59.3971231525932382 28.6327538495249954
 -21.1394432154303011 59.3971231525932382 28.6327538495249954
 29.5953207845697079 59.3971231525932382 28.6327538495249954
 -26.7766674014102968 59.3971231525932382 28.6327538495249954
 63.4184972721974631  0.8136511961352557 28.6327538495249954
  2.8186538572420905 61.8380767409990000 28.6327538495249954
 46.5068664649638706 64.2791035587447084 28.6327538495249954
 43.6882966509438617 64.2791035587447084 28.6327538495249954
 40.8696422789838678 64.2791035587447084 28.6327538495249954
 35.2325026509438644 64.2791035587447084 28.6327538495249954
 23.9580542789838589 64.2791035587447084 28.6327538495249954
 18.3209146509438554 64.2791035587447084 28.6327538495249954
 46.5069092721974613  0.8136511961352557 28.6327538495249954
 12.6836904649638509 64.2791035587447084 28.6327538495249954
  4.2278964649638544 64.2791035587447084 28.6327538495249954
 -4.2278975350361501 64.2791035587447084 28.6327538495249954
 -5.6371401427579215 61.8380767409990000 28.6327538495249954
 -9.8651217210161430 64.2791035587447084 28.6327538495249954
 -35.2325037210161440 64.2791035587447084 28.6327538495249954
 45.0976238572420840 61.8380767409990000 28.6327538495249954
 57.7812730862174604  0.8136511961352557 28.6327538495249954
 36.6418298572420866 61.8380767409990000 28.6327538495249954
 60.5998429002374621  0.8136511961352557 28.6327538495249954
 25.3673814852820882 61.8380767409990000 28.6327538495249954
 19.7302418572420777 61.8380767409990000 28.6327538495249954
 16.9115874852820909 61.8380767409990000 28.6327538495249954
 14.0930176712620749 61.8380767409990000 28.6327538495249954
 11.2744478572420874 61.8380767409990000 28.6327538495249954
 -26.7767097210161431 64.2791035587447084 28.6327538495249954
 74.6928187666116230  5.6956316022867357 28.6327538495249954
 -18.3208732795033562 44.7512551634787386 28.6327538495249954
 77.5114731385716169  5.6956316022867357 28.6327538495249954
  5.6372239557112023 27.6644335859584807 28.6327538495249954
 -0.0000002302687971 27.6644335859584807 28.6327538495249954
 -0.0000001083618602 13.0185655968439828 28.6327538495249954
 -8.4557942302688005 27.6644335859584807 28.6327538495249954
 69.0556789760294407 25.2234067682127652 28.6327538495249954
 63.4184547900494380 25.2234067682127652 28.6327538495249954
 60.5998849760294434 25.2234067682127652 28.6327538495249954
  2.8185697056581414 13.0185655968439828 28.6327538495249954
 54.9626607900494406 25.2234067682127652 28.6327538495249954
 52.1440909760294318 25.2234067682127652 28.6327538495249954
 49.3255211620094371 25.2234067682127652 28.6327538495249954
 38.0510727900494388 25.2234067682127652 28.6327538495249954
 16.9115878916381419 13.0185655968439828 28.6327538495249954
 19.7301577056581365 13.0185655968439828 28.6327538495249954
 29.5952787900494201 25.2234067682127652 28.6327538495249954
  9.8651209760294343 25.2234067682127652 28.6327538495249954
 -1.4092428379905699 25.2234067682127652 28.6327538495249954
 33.8231758916381438 13.0185655968439828 28.6327538495249954
 -7.0464670239705693 25.2234067682127652 28.6327538495249954
 39.4604000776181465 13.0185655968439828 28.6327538495249954
 70.4649639033570594 22.7824531798069998 28.6327538495249954
  8.4557937697312031 27.6644335859584807 28.6327538495249954
 67.6463940893370506 22.7824531798069998 28.6327538495249954
 11.2743635837511977 27.6644335859584807 28.6327538495249954
 19.7301575837512004 27.6644335859584807 28.6327538495249954
 26.7766666564235685 30.1053871743642461 28.6327538495249954
 23.9580968424035810 30.1053871743642461 28.6327538495249954
 49.3255212839163661 10.5775387790982709 28.6327538495249954
 60.5998850979363723 10.5775387790982709 28.6327538495249954
  4.2279390283835818 30.1053871743642461 28.6327538495249954
 -1.4092851575964171 30.1053871743642461 28.6327538495249954
 63.4184549119563812 10.5775387790982709 28.6327538495249954
 -7.0465093435764183 30.1053871743642461 28.6327538495249954
 -9.8650791575964192 30.1053871743642461 28.6327538495249954
 -12.6836489716164174 30.1053871743642461 28.6327538495249954
 64.8277819557112025 27.6644335859584807 28.6327538495249954
 62.0091275837512086 27.6644335859584807 28.6327538495249954
 59.1905577697312140 27.6644335859584807 28.6327538495249954
 56.3719879557112051 27.6644335859584807 28.6327538495249954
 69.0556790979363768 10.5775387790982709 28.6327538495249954
 71.8742489119563714 10.5775387790982709 28.6327538495249954
 45.0975395837512067 27.6644335859584807 28.6327538495249954
 39.4603999557111962 27.6644335859584807 28.6327538495249954
 74.6929032839163654 10.5775387790982709 28.6327538495249954
 25.3673817697312032 27.6644335859584807 28.6327538495249954
 -2.8185699223818586 13.0185655968439828 28.6327538495249954
 16.9115877697311987 27.6644335859584807 28.6327538495249954
 29.5953210283835837 30.1053871743642461 28.6327538495249954
 64.8277397173770566 22.7824531798069998 28.6327538495249954
 53.5533759033570504 22.7824531798069998 28.6327538495249954
  7.0464666447046698 20.3414995914012344 28.6327538495249954
  4.2278968306846716 20.3414995914012344 28.6327538495249954
 12.6837331502905215 15.4595191852497500 28.6327538495249954
 -4.2278971693153311 20.3414995914012344 28.6327538495249954
 73.2835760369829075 17.9004727736555189 28.6327538495249954
 67.6463518510029047 17.9004727736555189 28.6327538495249954
 64.8277820369829101 17.9004727736555189 28.6327538495249954
 59.1905578510029073 17.9004727736555189 28.6327538495249954
 23.9580969643105171 15.4595191852497500 28.6327538495249954
 47.9161940369829011 17.9004727736555189 28.6327538495249954
 39.4604000369828896 17.9004727736555189 28.6327538495249954
 33.8231758510028868 17.9004727736555189 28.6327538495249954
 26.7766667783305188 15.4595191852497500 28.6327538495249954
 19.7302422229628966 17.9004727736555189 28.6327538495249954
 32.4138909643105251 15.4595191852497500 28.6327538495249954
 11.2744482229629011 17.9004727736555189 28.6327538495249954
  2.8186542229628988 17.9004727736555189 28.6327538495249954
 35.2324607783305126 15.4595191852497500 28.6327538495249954
 -5.6371397770370981 17.9004727736555189 28.6327538495249954
 63.4184971502905270 15.4595191852497500 28.6327538495249954
 57.7812729643105243 15.4595191852497500 28.6327538495249954
  9.8650787783305205 15.4595191852497500 28.6327538495249954
 42.2789698916381340 13.0185655968439828 28.6327538495249954
 12.6836908306846716 20.3414995914012344 28.6327538495249954
 18.3209150166646637 20.3414995914012344 28.6327538495249954
 47.9161940776181368 13.0185655968439828 28.6327538495249954
 50.7347638916381456 13.0185655968439828 28.6327538495249954
 39.4603577173770574 22.7824531798069998 28.6327538495249954
 36.6417879033570415 22.7824531798069998 28.6327538495249954
 33.8232180893370540 22.7824531798069998 28.6327538495249954
 31.0045637173770388 22.7824531798069998 28.6327538495249954
 56.3719880776181483 13.0185655968439828 28.6327538495249954
 22.5487697173770485 22.7824531798069998 28.6327538495249954
 14.0929757173770476 22.7824531798069998 28.6327538495249954
 62.0091277056581518 13.0185655968439828 28.6327538495249954
 70.4649217056581421 13.0185655968439828 28.6327538495249954
  0.0000420893370479 22.7824531798069998 28.6327538495249954
 66.2370246447046753 20.3414995914012344 28.6327538495249954
 76.1021458916381448 13.0185655968439828 28.6327538495249954
 52.1440910166646745 20.3414995914012344 28.6327538495249954
 -1.4092850356894804 15.4595191852497500 28.6327538495249954
 46.5068668306846718 20.3414995914012344 28.6327538495249954
 43.6882970166646629 20.3414995914012344 28.6327538495249954
 32.4138486447046574 20.3414995914012344 28.6327538495249954
 29.5952788306846699 20.3414995914012344 28.6327538495249954
 21.1394848306846654 20.3414995914012344 28.6327538495249954
 15.5022606447046662 20.3414995914012344 28.6327538495249954
 32.4138908424035748 30.1053871743642461 28.6327538495249954
 35.2324606564235907 30.1053871743642461 28.6327538495249954
 38.0511150283835775 30.1053871743642461 28.6327538495249954
 14.0929758392839890  8.1365851906925037 28.6327538495249954
 19.7302000252639935  8.1365851906925037 28.6327538495249954
 54.9626606681424974 39.8692747573272612 28.6327538495249954
 22.5487698392839881  8.1365851906925037 28.6327538495249954
 46.5068666681425000 39.8692747573272612 28.6327538495249954
 25.3674242112439856  8.1365851906925037 28.6327538495249954
 28.1859940252639873  8.1365851906925037 28.6327538495249954
 32.4139330401024850 39.8692747573272612 28.6327538495249954
 31.0045638392839891  8.1365851906925037 28.6327538495249954
 23.9581390401024947 39.8692747573272612 28.6327538495249954
 33.8232182112439972  8.1365851906925037 28.6327538495249954
 21.1394846681424795 39.8692747573272612 28.6327538495249954
 18.3209148541224920 39.8692747573272612 28.6327538495249954
 12.6836906681424875 39.8692747573272612 28.6327538495249954
 36.6417880252639918  8.1365851906925037 28.6327538495249954
  7.0465510401024849 39.8692747573272612 28.6327538495249954
  4.2278966681424874 39.8692747573272612 28.6327538495249954
 39.4603578392839793  8.1365851906925037 28.6327538495249954
 -1.4092429598975091 39.8692747573272612 28.6327538495249954
 -7.0464671458775081 39.8692747573272612 28.6327538495249954
 -21.1394853318575109 39.8692747573272612 28.6327538495249954
 -19.7301581661957393 42.3103015750729767 28.6327538495249954
 45.0975820252639821  8.1365851906925037 28.6327538495249954
 -16.9115883521757375 42.3103015750729767 28.6327538495249954
 -11.2743641661957401 42.3103015750729767 28.6327538495249954
 26.7766665345166501 44.7512551634787386 28.6327538495249954
 21.1395269064766467 44.7512551634787386 28.6327538495249954
 18.3208725345166314 44.7512551634787386 28.6327538495249954
 15.5023027204966439 44.7512551634787386 28.6327538495249954
  9.8650785345166412 44.7512551634787386 28.6327538495249954
  7.0465087204966403 44.7512551634787386 28.6327538495249954
  4.2279389064766386 44.7512551634787386 28.6327538495249954
  1.4092845345166412 44.7512551634787386 28.6327538495249954
 -1.4092852795033535 44.7512551634787386 28.6327538495249954
 80.3300429525916257  5.6956316022867357 28.6327538495249954
 -23.9580974654833554 44.7512551634787386 28.6327538495249954
 53.5533334618442680 42.3103015750729767 28.6327538495249954
 33.8231756478242644 42.3103015750729767 28.6327538495249954
 31.0046058338042556 42.3103015750729767 28.6327538495249954
 28.1859514618442688 42.3103015750729767 28.6327538495249954
 19.7301574618442501 42.3103015750729767 28.6327538495249954
  2.8186120252639890  8.1365851906925037 28.6327538495249954
  5.6372238338042564 42.3103015750729767 28.6327538495249954
 -2.8185701661957374 42.3103015750729767 28.6327538495249954
  5.6371818392839907  8.1365851906925037 28.6327538495249954
  8.4558362112439873  8.1365851906925037 28.6327538495249954
 -14.0930185381557376 42.3103015750729767 28.6327538495249954
 62.0091697814501188 37.4283211689214923 28.6327538495249954
 59.1905999674301100 37.4283211689214923 28.6327538495249954
 56.3719455954701161 37.4283211689214923 28.6327538495249954
 -7.0464671052422672 34.9873675805157234 28.6327538495249954
 -9.8651214772022673 34.9873675805157234 28.6327538495249954
 -12.6836912912222672 34.9873675805157234 28.6327538495249954
  1.4093270979363695 10.5775387790982709 28.6327538495249954
 56.3719879150759695 32.5463407627700150 28.6327538495249954
 50.7347637290959668 32.5463407627700150 28.6327538495249954
  7.0465512839163686 10.5775387790982709 28.6327538495249954
 42.2789697290959623 32.5463407627700150 28.6327538495249954
 28.1860361010559650 32.5463407627700150 28.6327538495249954
 21.1394849119563659 10.5775387790982709 28.6327538495249954
 19.7302421010559677 32.5463407627700150 28.6327538495249954
 16.9115877290959595 32.5463407627700150 28.6327538495249954
 14.0930179150759578 32.5463407627700150 28.6327538495249954
 11.2744481010559561 32.5463407627700150 28.6327538495249954
  8.4557937290959586 32.5463407627700150 28.6327538495249954
 -16.9115882709040370 32.5463407627700150 28.6327538495249954
 66.2370668424035927 30.1053871743642461 28.6327538495249954
 63.4184970283835838 30.1053871743642461 28.6327538495249954
 35.2325030979363731 10.5775387790982709 28.6327538495249954
 43.6882546564235881 30.1053871743642461 28.6327538495249954
 40.8696848424035863 30.1053871743642461 28.6327538495249954
 -1.4093274772022688 34.9873675805157234 28.6327538495249954
  1.4093268947577322 34.9873675805157234 28.6327538495249954
 -1.4092427160836287 10.5775387790982709 28.6327538495249954
  9.8651208947577302 34.9873675805157234 28.6327538495249954
 53.5533757814501215 37.4283211689214923 28.6327538495249954
 47.9161515954701187 37.4283211689214923 28.6327538495249954
 45.0975817814501099 37.4283211689214923 28.6327538495249954
 42.2790119674301152 37.4283211689214923 28.6327538495249954
 39.4603575954701142 37.4283211689214923 28.6327538495249954
 33.8232179674301037 37.4283211689214923 28.6327538495249954
 31.0045635954701204 37.4283211689214923 28.6327538495249954
 47.9161518392839980  8.1365851906925037 28.6327538495249954
 22.5487695954701017 37.4283211689214923 28.6327538495249954
 -2.8186124045298877 37.4283211689214923 28.6327538495249954
 35.2324605345166475 44.7512551634787386 28.6327538495249954
 53.5533760252639937  8.1365851906925037 28.6327538495249954
 73.2835338392839901  8.1365851906925037 28.6327538495249954
 -19.7302004045298887 37.4283211689214923 28.6327538495249954
 60.5998848947577358 34.9873675805157234 28.6327538495249954
 57.7812305227977419 34.9873675805157234 28.6327538495249954
 43.6882968947577410 34.9873675805157234 28.6327538495249954
 23.9580545227977240 34.9873675805157234 28.6327538495249954
 21.1394847087777364 34.9873675805157234 28.6327538495249954
 39.4603995899903808 71.6020375533019688 28.6327538495249954
 15.5022605227977337 34.9873675805157234 28.6327538495249954
 78.9207580252639929  8.1365851906925037 28.6327538495249954
 62.0091700252639910  8.1365851906925037 28.6327538495249954
 42.2789694040103896 71.6020375533019688 28.6327538495249954
