 H  O 
 1.0000000000000000
    84.5579400000000021    0.0000000000000000    0.0000000000000000
   -42.2789706095346958   73.2293399455724767    0.0000000000000000
     0.0000000000000000    0.0000000000000000   46.9039550000000034
 H   O  
 257 295
Cartesian
 19.7301573128471581 60.2107743487284921 28.1128704123049964
 52.1440486699686616 28.4780847820937346 28.1128704123049964
 -1.4092853878652121 57.7698207603227232 28.1128704123049964
 49.3254788559486528 28.4780847820937346 28.1128704123049964
  4.2278542401747847 57.7698207603227232 28.1128704123049964
 46.5068244839886518 28.4780847820937346 28.1128704123049964
 35.2324606699686598 28.4780847820937346 28.1128704123049964
 32.4138908559486651 28.4780847820937346 28.1128704123049964
 12.6836482401747883 57.7698207603227232 28.1128704123049964
 18.3208724261547857 57.7698207603227232 28.1128704123049964
 18.3208726699686650 28.4780847820937346 28.1128704123049964
 21.1394422401747804 57.7698207603227232 28.1128704123049964
  4.2278544839886631 28.4780847820937346 28.1128704123049964
 38.0510302401747822 57.7698207603227232 28.1128704123049964
 67.6463517832762875 26.0371311936879657 28.1128704123049964
 53.5533335972962803 26.0371311936879657 28.1128704123049964
 -16.9115882573589573 30.9190383704995000 28.1128704123049964
 40.8696846121347903 57.7698207603227232 28.1128704123049964
 -9.8650793878652134 57.7698207603227232 28.1128704123049964
 -5.6372244433389582 30.9190383704995000 28.1128704123049964
  7.0464665363428152 33.3600651882452155 28.1128704123049964
 16.9115875394624062 55.3288671719169614 28.1128704123049964
 -15.5023456496371885 33.3600651882452155 28.1128704123049964
 -18.3209154636571903 33.3600651882452155 28.1128704123049964
 59.1905577426410403 30.9190383704995000 28.1128704123049964
 53.5533335566610376 30.9190383704995000 28.1128704123049964
 19.7301573534824009 55.3288671719169614 28.1128704123049964
 50.7347637426410429 30.9190383704995000 28.1128704123049964
 31.0046059286210465 30.9190383704995000 28.1128704123049964
 45.0975393534824036 55.3288671719169614 28.1128704123049964
 28.1859515566610455 30.9190383704995000 28.1128704123049964
 14.0930179286210446 30.9190383704995000 28.1128704123049964
  8.4557937426410454 30.9190383704995000 28.1128704123049964
 -32.4138915738452127 57.7698207603227232 28.1128704123049964
 -21.1395277598252136 57.7698207603227232 28.1128704123049964
 -14.0930184433389574 30.9190383704995000 28.1128704123049964
 -2.8186548324975988 55.3288671719169614 28.1128704123049964
 50.7347637832762715 26.0371311936879657 28.1128704123049964
 42.2789697832762812 26.0371311936879657 28.1128704123049964
 39.4603996848071645 60.2107743487284921 28.1128704123049964
 70.4649639169021356 21.1551507875364884 28.1128704123049964
 62.0091699169021311 21.1551507875364884 28.1128704123049964
 59.1905155449421230 21.1551507875364884 28.1128704123049964
 47.9161936848071619 60.2107743487284921 28.1128704123049964
 50.7347215449421185 21.1551507875364884 28.1128704123049964
 45.0975819169021293 21.1551507875364884 28.1128704123049964
 39.4603577309221265 21.1551507875364884 28.1128704123049964
 33.8231335449421309 21.1551507875364884 28.1128704123049964
  8.4557515449421317 21.1551507875364884 28.1128704123049964
 -23.9581398934510652 62.6518011664742076 28.1128704123049964
  5.6371817309221299 21.1551507875364884 28.1128704123049964
 -12.6836915214910633 62.6518011664742076 28.1128704123049964
 -0.0000424550578693 21.1551507875364884 28.1128704123049964
 -5.6371820830978701 21.1551507875364884 28.1128704123049964
 -7.0464670104254905 23.5961043759422537 28.1128704123049964
 -28.1859523151928357 60.2107743487284921 28.1128704123049964
 36.6417453128471564 60.2107743487284921 28.1128704123049964
 23.9580546176145113 23.5961043759422537 28.1128704123049964
 39.4603154113162731 26.0371311936879657 28.1128704123049964
 -25.3673825011728376 60.2107743487284921 28.1128704123049964
 33.8231757832762838 26.0371311936879657 28.1128704123049964
 25.3673817832762829 26.0371311936879657 28.1128704123049964
 22.5487274113162819 26.0371311936879657 28.1128704123049964
 14.0929334113162810 26.0371311936879657 28.1128704123049964
 -5.6372246871528393 60.2107743487284921 28.1128704123049964
 -0.0000002167237204 26.0371311936879657 28.1128704123049964
 -5.6372244027037182 26.0371311936879657 28.1128704123049964
 -2.8185703151928343 60.2107743487284921 28.1128704123049964
 -0.0000005011728327 60.2107743487284921 28.1128704123049964
 63.4184548035945070 23.5961043759422537 28.1128704123049964
  8.4557934988271644 60.2107743487284921 28.1128704123049964
 38.0510728035945078 23.5961043759422537 28.1128704123049964
 -7.0465517715441273 48.0059331773597151 28.1128704123049964
  7.0464666176145112 23.5961043759422537 28.1128704123049964
 -8.4558364550578684 21.1551507875364884 28.1128704123049964
 21.1394847223228126 33.3600651882452155 28.1128704123049964
 32.4138485363428117 33.3600651882452155 28.1128704123049964
 14.0929754871082551 50.4468867657654769 28.1128704123049964
 19.7301996730882578 50.4468867657654769 28.1128704123049964
 -9.8650792659582809 43.1239527712082307 28.1128704123049964
 28.1859936730882552 50.4468867657654769 28.1128704123049964
 -15.5023034519382783 43.1239527712082307 28.1128704123049964
 47.9161514871082517 50.4468867657654769 28.1128704123049964
 50.7347636613693425 40.6829991828024689 28.1128704123049964
 50.7347213011282463 50.4468867657654769 28.1128704123049964
 47.9161092894093343 40.6829991828024689 28.1128704123049964
 36.6417454753893352 40.6829991828024689 28.1128704123049964
 -23.9580552542393690 52.8878403541712458 28.1128704123049964
 22.5487272894093422 40.6829991828024689 28.1128704123049964
 -18.3209156261993691 52.8878403541712458 28.1128704123049964
 14.0929332894093395 40.6829991828024689 28.1128704123049964
  5.6371392894093386 40.6829991828024689 28.1128704123049964
 18.3208725480617254 43.1239527712082307 28.1128704123049964
 -15.5022612542393716 52.8878403541712458 28.1128704123049964
 29.5952363620817174 43.1239527712082307 28.1128704123049964
 46.5068243620817157 43.1239527712082307 28.1128704123049964
  4.2278966004158747 48.0059331773597151 28.1128704123049964
 -15.5023457715441282 48.0059331773597151 28.1128704123049964
 -21.1394853995841281 48.0059331773597151 28.1128704123049964
  7.0464664144358764 48.0059331773597151 28.1128704123049964
 47.9161938067141051 45.5649063596139996 28.1128704123049964
 32.4138484144358685 48.0059331773597151 28.1128704123049964
 25.3673816207341005 45.5649063596139996 28.1128704123049964
 14.0930178067140996 45.5649063596139996 28.1128704123049964
 38.0510726004158641 48.0059331773597151 28.1128704123049964
  5.6372238067141032 45.5649063596139996 28.1128704123049964
 -28.1859945128917460 50.4468867657654769 28.1128704123049964
 -5.6372245652458988 45.5649063596139996 28.1128704123049964
 -5.6371823269117440 50.4468867657654769 28.1128704123049964
 -25.3673823792659014 45.5649063596139996 28.1128704123049964
 -0.0000426988717480 50.4468867657654769 28.1128704123049964
 43.6882545480617210 43.1239527712082307 28.1128704123049964
 29.5952787223228171 33.3600651882452155 28.1128704123049964
 -7.0464672542393672 52.8878403541712458 28.1128704123049964
 -22.5488125246106605 40.6829991828024689 28.1128704123049964
 53.5533757949951976 35.8010187766509844 28.1128704123049964
 31.0045636090151895 35.8010187766509844 28.1128704123049964
 38.0510301182678390 72.4156887494372228 28.1128704123049964
 28.1859937949951949 35.8010187766509844 28.1128704123049964
 22.5487696090151921 35.8010187766509844 28.1128704123049964
 19.7301997949951904 35.8010187766509844 28.1128704123049964
 16.9115454230351894 35.8010187766509844 28.1128704123049964
 14.0929756090151947 35.8010187766509844 28.1128704123049964
 -0.0000425769648080 35.8010187766509844 28.1128704123049964
 49.3254363738006276 52.8878403541712458 28.1128704123049964
 -5.6371822050048115 35.8010187766509844 28.1128704123049964
 -16.9116305769648072 35.8010187766509844 28.1128704123049964
 -16.9115884605376010 55.3288671719169614 28.1128704123049964
 -14.0930186465175975 55.3288671719169614 28.1128704123049964
 43.6882123503628037 33.3600651882452155 28.1128704123049964
 46.5068665597806330 52.8878403541712458 28.1128704123049964
 -5.6372245246106605 40.6829991828024689 28.1128704123049964
 62.0091697949951950 35.8010187766509844 28.1128704123049964
 -12.6836913183124267 38.2419723650567462 28.1128704123049964
  4.2278965597806355 52.8878403541712458 28.1128704123049964
 57.7812304957075682 38.2419723650567462 28.1128704123049964
 46.5068666816875762 38.2419723650567462 28.1128704123049964
 40.8696424957075664 38.2419723650567462 28.1128704123049964
 12.6836905597806329 52.8878403541712458 28.1128704123049964
 38.0510726816875717 38.2419723650567462 28.1128704123049964
 15.5022603738006346 52.8878403541712458 28.1128704123049964
 35.2325028676675771 38.2419723650567462 28.1128704123049964
 18.3209147457606356 52.8878403541712458 28.1128704123049964
 21.1394846816875770 38.2419723650567462 28.1128704123049964
 18.3209148676675753 38.2419723650567462 28.1128704123049964
 23.9580543738006249 52.8878403541712458 28.1128704123049964
 15.5022604957075725 38.2419723650567462 28.1128704123049964
 29.5952785597806276 52.8878403541712458 28.1128704123049964
  1.4093268676675752 38.2419723650567462 28.1128704123049964
 43.6882967457606384 52.8878403541712458 28.1128704123049964
 -7.0465518934510678 62.6518011664742076 28.1128704123049964
 -4.2278973995841262 48.0059331773597151 28.1128704123049964
 21.1394844378736906 67.5337083432857384 28.1128704123049964
  9.8651206238536986 67.5337083432857384 28.1128704123049964
 66.2370247395214449  8.9502363868277595 28.1128704123049964
 -2.8186544667767790 11.3912632045734714 28.1128704123049964
  8.4557939051832172 11.3912632045734714 28.1128704123049964
 69.0555945941766822  4.0683292100162243 28.1128704123049964
  7.0464662518936976 67.5337083432857384 28.1128704123049964
 60.5998005941766849  4.0683292100162243 28.1128704123049964
  4.2278964378736958 67.5337083432857384 28.1128704123049964
 -38.0511158817321586 72.4156887494372228 28.1128704123049964
 31.0045215332232189 11.3912632045734714 28.1128704123049964
 54.9626609661366956  4.0683292100162243 28.1128704123049964
 39.4603155332232234 11.3912632045734714 28.1128704123049964
 74.6928187801566850  4.0683292100162243 28.1128704123049964
 52.1440065941766875  4.0683292100162243 28.1128704123049964
 64.8276975332232155 11.3912632045734714 28.1128704123049964
 67.6463519051832236 11.3912632045734714 28.1128704123049964
 -26.7767097481063061 67.5337083432857384 28.1128704123049964
 70.4649217192032182 11.3912632045734714 28.1128704123049964
 -7.0465092081243990 13.8322167929792403 28.1128704123049964
 49.3254367801566929  4.0683292100162243 28.1128704123049964
 -1.4092850221444004 13.8322167929792403 28.1128704123049964
 46.5068669661366982  4.0683292100162243 28.1128704123049964
  2.8185692315754580 69.9747351610314468 28.1128704123049964
 -35.2324615097721576 72.4156887494372228 28.1128704123049964
 12.6836486058956019 13.8322167929792403 28.1128704123049964
 23.9580547801566937  4.0683292100162243 28.1128704123049964
 -18.3209157481063052 67.5337083432857384 28.1128704123049964
 23.9580969778556039 13.8322167929792403 28.1128704123049964
 18.3209146238536960 67.5337083432857384 28.1128704123049964
 54.9626609255014458  8.9502363868277595 28.1128704123049964
 -2.8186549544045376 69.9747351610314468 28.1128704123049964
 53.5533760388090698  6.5092827984219914 28.1128704123049964
 -11.2744489544045354 69.9747351610314468 28.1128704123049964
  5.6371390455954664 69.9747351610314468 28.1128704123049964
 -14.0930187684245301 69.9747351610314468 28.1128704123049964
 -22.5488127684245363 69.9747351610314468 28.1128704123049964
 22.5487698528290750  6.5092827984219914 28.1128704123049964
 -4.2278970744985491  8.9502363868277595 28.1128704123049964
 14.0929758528290687  6.5092827984219914 28.1128704123049964
 -1.4093272604785494  8.9502363868277595 28.1128704123049964
 -25.3673825824445345 69.9747351610314468 28.1128704123049964
 12.6836909255014501  8.9502363868277595 28.1128704123049964
 80.3300429661366877  4.0683292100162243 28.1128704123049964
 11.2744060388090670  6.5092827984219914 28.1128704123049964
 38.0510724378736924 67.5337083432857384 28.1128704123049964
 21.1394849255014528  8.9502363868277595 28.1128704123049964
  8.4557516668490695  6.5092827984219914 28.1128704123049964
 16.9115874175554666 69.9747351610314468 28.1128704123049964
 23.9580547395214474  8.9502363868277595 28.1128704123049964
 29.5952789255014537  8.9502363868277595 28.1128704123049964
 32.4138487395214483  8.9502363868277595 28.1128704123049964
 38.0510729255014510  8.9502363868277595 28.1128704123049964
 43.6882971114814538  8.9502363868277595 28.1128704123049964
 19.7301572315754683 69.9747351610314468 28.1128704123049964
 46.5068669255014484  8.9502363868277595 28.1128704123049964
 60.5998004722697488 18.7141971991307194 28.1128704123049964
 15.5022607395214518  8.9502363868277595 28.1128704123049964
 31.0045633652013137 65.0927547548799765 28.1128704123049964
  1.4092847918756004 13.8322167929792403 28.1128704123049964
 21.1394849661366919  4.0683292100162243 28.1128704123049964
 -4.2279398817321576 72.4156887494372228 28.1128704123049964
 -31.0045644488186873 65.0927547548799765 28.1128704123049964
 39.4604000505279870 16.2731703813850075 28.1128704123049964
 45.0975396785679763 16.2731703813850075 28.1128704123049964
 38.0510306058956047 13.8322167929792403 28.1128704123049964
 50.7347638645479790 16.2731703813850075 28.1128704123049964
 59.1905578645479835 16.2731703813850075 28.1128704123049964
 62.0091276785679781 16.2731703813850075 28.1128704123049964
 50.7347639864549222  1.6273023922705114 28.1128704123049964
 -36.6417886347986865 65.0927547548799765 28.1128704123049964
 39.4604001724349231  1.6273023922705114 28.1128704123049964
 43.6882121065489244 62.6518011664742076 28.1128704123049964
 21.1394421182678336 72.4156887494372228 28.1128704123049964
 15.5022606582497549 18.7141971991307194 28.1128704123049964
 29.5952784785089271 62.6518011664742076 28.1128704123049964
 21.1394848442297523 18.7141971991307194 28.1128704123049964
 29.5952788442297496 18.7141971991307194 28.1128704123049964
 26.7766663042478434 72.4156887494372228 28.1128704123049964
 28.1859518004749177  1.6273023922705114 28.1128704123049964
 29.5952361182678381 72.4156887494372228 28.1128704123049964
 32.4138486582497549 18.7141971991307194 28.1128704123049964
 16.9115879864549186  1.6273023922705114 28.1128704123049964
 32.4138904902278497 72.4156887494372228 28.1128704123049964
  5.6372241724349186  1.6273023922705114 28.1128704123049964
 -4.2278975214910632 62.6518011664742076 28.1128704123049964
 28.1859516785679780 16.2731703813850075 28.1128704123049964
 16.9115878645479825 16.2731703813850075 28.1128704123049964
 70.4649218004749116  1.6273023922705114 28.1128704123049964
 14.0930180505279825 16.2731703813850075 28.1128704123049964
 28.1859935511813049 65.0927547548799765 28.1128704123049964
  9.8650365941766900  4.0683292100162243 28.1128704123049964
 54.9626186058955923 13.8322167929792403 28.1128704123049964
  8.4557511792213162 65.0927547548799765 28.1128704123049964
 69.0556367918755996 13.8322167929792403 28.1128704123049964
  7.0464667801566900  4.0683292100162243 28.1128704123049964
 -7.0465096957521522 72.4156887494372228 28.1128704123049964
 71.8742066058955942 13.8322167929792403 28.1128704123049964
  5.6371813652013136 65.0927547548799765 28.1128704123049964
  4.2278969661366892  4.0683292100162243 28.1128704123049964
 -1.4093272198433096  4.0683292100162243 28.1128704123049964
 47.9161518528290671  6.5092827984219914 28.1128704123049964
 -11.2744066347986838 65.0927547548799765 28.1128704123049964
  5.6372240505279780 16.2731703813850075 28.1128704123049964
 73.2835761724349197  1.6273023922705114 28.1128704123049964
  0.0000418455231652 52.0741891580359919 28.6327538495249954
 -5.6372247819696195 71.6020375533019688 28.6327538495249954
 38.0510724243286234 69.1610107355562462 28.6327538495249954
 18.3209147728507951 49.6332355696302230 28.6327538495249954
 22.5488117931690120 47.1922087518845075 28.6327538495249954
 -22.5488127819696196 71.6020375533019688 28.6327538495249954
 38.0510725868707951 49.6332355696302230 28.6327538495249954
  5.6372237931690181 47.1922087518845075 28.6327538495249954
 -16.9115461544768308 52.0741891580359919 28.6327538495249954
 19.7301996595431604 52.0741891580359919 28.6327538495249954
 21.1394845868707826 49.6332355696302230 28.6327538495249954
 -19.7301584100096186 71.6020375533019688 28.6327538495249954
  4.2278964243286037 69.1610107355562462 28.6327538495249954
  7.0465507962886189 69.1610107355562462 28.6327538495249954
 33.8231756071890288 47.1922087518845075 28.6327538495249954
  1.4093267728507877 49.6332355696302230 28.6327538495249954
 21.1394844243286215 69.1610107355562462 28.6327538495249954
 -22.5487703404568300 52.0741891580359919 28.6327538495249954
 36.6418299791490298 47.1922087518845075 28.6327538495249954
 15.5023447962886092 69.1610107355562462 28.6327538495249954
 -4.2278974131292042 49.6332355696302230 28.6327538495249954
 19.7301572180303850 71.6020375533019688 28.6327538495249954
 18.3209146103086198 69.1610107355562462 28.6327538495249954
  4.2278965868707896 49.6332355696302230 28.6327538495249954
 -25.3673401544768282 52.0741891580359919 28.6327538495249954
 -21.1394854131292078 49.6332355696302230 28.6327538495249954
  5.6371814735631682 52.0741891580359919 28.6327538495249954
 16.9115874040103833 71.6020375533019688 28.6327538495249954
 -2.8185704100096114 71.6020375533019688 28.6327538495249954
 -36.6417464100096169 71.6020375533019688 28.6327538495249954
 -26.7767095991092070 49.6332355696302230 28.6327538495249954
 52.1440907728507952 49.6332355696302230 28.6327538495249954
 -5.6371401427579215 61.8380767409990000 28.6327538495249954
 31.0045634735631737 52.0741891580359919 28.6327538495249954
 39.4603997118973240 56.9561695641874692 28.6327538495249954
 26.7767086509438528 64.2791035587447084 28.6327538495249954
  7.0464662789838490 64.2791035587447084 28.6327538495249954
 -26.7766674014102968 59.3971231525932382 28.6327538495249954
  4.2278964649638544 64.2791035587447084 28.6327538495249954
 -4.2278975350361501 64.2791035587447084 28.6327538495249954
 -23.9580975873902986 59.3971231525932382 28.6327538495249954
 -21.1394432154303011 59.3971231525932382 28.6327538495249954
 -7.0465095873903012 59.3971231525932382 28.6327538495249954
 -12.6836915350361448 64.2791035587447084 28.6327538495249954
 -4.2278552154303037 59.3971231525932382 28.6327538495249954
 -1.4092854014103018 59.3971231525932382 28.6327538495249954
  9.8650784126096909 59.3971231525932382 28.6327538495249954
 18.3208724126097096 59.3971231525932382 28.6327538495249954
 -32.4138493490561430 64.2791035587447084 28.6327538495249954
 21.1395267845696964 59.3971231525932382 28.6327538495249954
 -35.2325037210161440 64.2791035587447084 28.6327538495249954
 -8.4557945147179190 61.8380767409990000 28.6327538495249954
 -2.8185703287379194 61.8380767409990000 28.6327538495249954
  5.6372236712620847 61.8380767409990000 28.6327538495249954
  8.4557934852820722 61.8380767409990000 28.6327538495249954
 19.7302418572420777 61.8380767409990000 28.6327538495249954
 -25.3673825147179137 61.8380767409990000 28.6327538495249954
 29.5952784649638616 64.2791035587447084 28.6327538495249954
 -28.1859523287379155 61.8380767409990000 28.6327538495249954
 28.1860358572420893 61.8380767409990000 28.6327538495249954
 31.0046056712620839 61.8380767409990000 28.6327538495249954
 40.8696845985897141 59.3971231525932382 28.6327538495249954
 45.0976238572420840 61.8380767409990000 28.6327538495249954
 47.9161936712620928 61.8380767409990000 28.6327538495249954
 38.0511147845697053 59.3971231525932382 28.6327538495249954
 -33.8231765147179146 61.8380767409990000 28.6327538495249954
 28.1859936595431719 52.0741891580359919 28.6327538495249954
 36.6417453399373301 56.9561695641874692 28.6327538495249954
 32.4138482789838704 64.2791035587447084 28.6327538495249954
 -12.6836915756713875 69.1610107355562462 28.6327538495249954
 47.9161514735631755 52.0741891580359919 28.6327538495249954
 -23.9580553896913813 69.1610107355562462 28.6327538495249954
 -26.7766252037113830 69.1610107355562462 28.6327538495249954
 39.4603573516562420 66.7200571471504844 28.6327538495249954
 31.0045633516562411 66.7200571471504844 28.6327538495249954
 50.7348058455231694 52.0741891580359919 28.6327538495249954
 -26.7766250818044469 54.5151427464417537 28.6327538495249954
 -15.5022612677844460 54.5151427464417537 28.6327538495249954
 -12.6836914537644478 54.5151427464417537 28.6327538495249954
 28.1859935376362323 66.7200571471504844 28.6327538495249954
  1.4093267322155492 54.5151427464417537 28.6327538495249954
 19.7301995376362349 66.7200571471504844 28.6327538495249954
 18.3209147322155452 54.5151427464417537 28.6327538495249954
  8.4558357236162376 66.7200571471504844 28.6327538495249954
 21.1394845462355612 54.5151427464417537 28.6327538495249954
 29.5952785462355585 54.5151427464417537 28.6327538495249954
 11.2743633399373131 56.9561695641874692 28.6327538495249954
 46.5068664649638706 64.2791035587447084 28.6327538495249954
  8.4557935259173256 56.9561695641874692 28.6327538495249954
  5.6372237118973310 56.9561695641874692 28.6327538495249954
 -36.6417886483437698 66.7200571471504844 28.6327538495249954
 -5.6372246600626781 56.9561695641874692 28.6327538495249954
 19.7301573399373318 56.9561695641874692 28.6327538495249954
 -19.7302006483437680 66.7200571471504844 28.6327538495249954
 -14.0930186600626755 56.9561695641874692 28.6327538495249954
 -16.9115462763837670 66.7200571471504844 28.6327538495249954
 -14.0929764623637634 66.7200571471504844 28.6327538495249954
 46.5068665462355568 54.5151427464417537 28.6327538495249954
  5.6371813516562215 66.7200571471504844 28.6327538495249954
 43.6882967322155622 54.5151427464417537 28.6327538495249954
 -11.2743642881026744 56.9561695641874692 28.6327538495249954
  4.2279392721974602  0.8136511961352557 28.6327538495249954
 29.5952787087777267 34.9873675805157234 28.6327538495249954
 -8.4557943928109793 47.1922087518845075 28.6327538495249954
 74.6928609643105261 15.4595191852497500 28.6327538495249954
 60.5998427783305331 15.4595191852497500 28.6327538495249954
 49.3254789643105269 15.4595191852497500 28.6327538495249954
 38.0511151502905278 15.4595191852497500 28.6327538495249954
 12.6837331502905215 15.4595191852497500 28.6327538495249954
  7.0465089643105223 15.4595191852497500 28.6327538495249954
  4.2279391502905188 15.4595191852497500 28.6327538495249954
 -7.0465092216694787 15.4595191852497500 28.6327538495249954
 76.1021458916381448 13.0185655968439828 28.6327538495249954
 -8.4557941489970982 17.9004727736555189 28.6327538495249954
 70.4649217056581421 13.0185655968439828 28.6327538495249954
 53.5533337056581473 13.0185655968439828 28.6327538495249954
 50.7347638916381456 13.0185655968439828 28.6327538495249954
 39.4604000776181465 13.0185655968439828 28.6327538495249954
 36.6417457056581313 13.0185655968439828 28.6327538495249954
 22.5488120776181340 13.0185655968439828 28.6327538495249954
  2.8185697056581414 13.0185655968439828 28.6327538495249954
 -2.8185699223818586 13.0185655968439828 28.6327538495249954
 69.0556790979363768 10.5775387790982709 28.6327538495249954
 66.2371092839163680 10.5775387790982709 28.6327538495249954
 67.6463518916381474 13.0185655968439828 28.6327538495249954
 40.8697272839163759 10.5775387790982709 28.6327538495249954
 -5.6371397770370981 17.9004727736555189 28.6327538495249954
 14.0930180369829028 17.9004727736555189 28.6327538495249954
  5.6371817173770493 22.7824531798069998 28.6327538495249954
 -5.6371820966429516 22.7824531798069998 28.6327538495249954
 -8.4557519106629488 22.7824531798069998 28.6327538495249954
 60.5998850166646719 20.3414995914012344 28.6327538495249954
 52.1440910166646745 20.3414995914012344 28.6327538495249954
 32.4138486447046574 20.3414995914012344 28.6327538495249954
 23.9580546447046672 20.3414995914012344 28.6327538495249954
 21.1394848306846654 20.3414995914012344 28.6327538495249954
  7.0464666447046698 20.3414995914012344 28.6327538495249954
  5.6372240369829028 17.9004727736555189 28.6327538495249954
  4.2278968306846716 20.3414995914012344 28.6327538495249954
 62.0092122229629013 17.9004727736555189 28.6327538495249954
 59.1905578510029073 17.9004727736555189 28.6327538495249954
 53.5534182229629039 17.9004727736555189 28.6327538495249954
 50.7347638510029029 17.9004727736555189 28.6327538495249954
 47.9161940369829011 17.9004727736555189 28.6327538495249954
 45.0976242229628923 17.9004727736555189 28.6327538495249954
 31.0046060369829029 17.9004727736555189 28.6327538495249954
 28.1860362229629082 17.9004727736555189 28.6327538495249954
 16.9115878510028992 17.9004727736555189 28.6327538495249954
 -4.2278971693153311 20.3414995914012344 28.6327538495249954
 22.5487697173770485 22.7824531798069998 28.6327538495249954
 38.0510729119563607 10.5775387790982709 28.6327538495249954
 29.5952789119563668 10.5775387790982709 28.6327538495249954
  7.0464667666116103  5.6956316022867357 28.6327538495249954
 -1.4093272333883895  5.6956316022867357 28.6327538495249954
 81.7393701588898551  3.2546047845410229 28.6327538495249954
 73.2835761588898578  3.2546047845410229 28.6327538495249954
 70.4650063448698489  3.2546047845410229 28.6327538495249954
 56.3719881588898417  3.2546047845410229 28.6327538495249954
 50.7347639729098461  3.2546047845410229 28.6327538495249954
 39.4604001588898399  3.2546047845410229 28.6327538495249954
 31.0046061588898354  3.2546047845410229 28.6327538495249954
  9.8651211385716078  5.6956316022867357 28.6327538495249954
 22.5488121588898416  3.2546047845410229 28.6327538495249954
 74.6928610862174764  0.8136511961352557 28.6327538495249954
 71.8742912721974676  0.8136511961352557 28.6327538495249954
 69.0556369002374737  0.8136511961352557 28.6327538495249954
 54.9627032721974516  0.8136511961352557 28.6327538495249954
 40.8696850862174585  0.8136511961352557 28.6327538495249954
 38.0511152721974639  0.8136511961352557 28.6327538495249954
 29.5953212721974559  0.8136511961352557 28.6327538495249954
 23.9580970862174638  0.8136511961352557 28.6327538495249954
  7.0465090862174584  0.8136511961352557 28.6327538495249954
  5.6372241588898389  3.2546047845410229 28.6327538495249954
 32.4139332839163785 10.5775387790982709 28.6327538495249954
 12.6836909525916113  5.6956316022867357 28.6327538495249954
 46.5068669525916008  5.6956316022867357 28.6327538495249954
 18.3209150979363713 10.5775387790982709 28.6327538495249954
 15.5023452839163713 10.5775387790982709 28.6327538495249954
 67.6463942112439867  8.1365851906925037 28.6327538495249954
 64.8277398392839928  8.1365851906925037 28.6327538495249954
 62.0091700252639910  8.1365851906925037 28.6327538495249954
 56.3719458392839954  8.1365851906925037 28.6327538495249954
 47.9161518392839980  8.1365851906925037 28.6327538495249954
 45.0975820252639821  8.1365851906925037 28.6327538495249954
 22.5487698392839881  8.1365851906925037 28.6327538495249954
 23.9580547666116068  5.6956316022867357 28.6327538495249954
 16.9116302112439918  8.1365851906925037 28.6327538495249954
 11.2744060252639908  8.1365851906925037 28.6327538495249954
  5.6371818392839907  8.1365851906925037 28.6327538495249954
 -2.8186121607160102  8.1365851906925037 28.6327538495249954
 80.3300429525916257  5.6956316022867357 28.6327538495249954
 69.0556791385716195  5.6956316022867357 28.6327538495249954
 66.2370247666116256  5.6956316022867357 28.6327538495249954
 54.9626609525916123  5.6956316022867357 28.6327538495249954
 52.1440911385716035  5.6956316022867357 28.6327538495249954
 49.3254367666116167  5.6956316022867357 28.6327538495249954
 14.0929758392839890  8.1365851906925037 28.6327538495249954
 25.3674240893370566 22.7824531798069998 28.6327538495249954
 39.4603577173770574 22.7824531798069998 28.6327538495249954
 50.7348060893370558 22.7824531798069998 28.6327538495249954
 38.0510726681424956 39.8692747573272612 28.6327538495249954
 35.2325028541224938 39.8692747573272612 28.6327538495249954
 23.9581390401024947 39.8692747573272612 28.6327538495249954
 21.1394846681424795 39.8692747573272612 28.6327538495249954
  7.0465510401024849 39.8692747573272612 28.6327538495249954
  4.2278966681424874 39.8692747573272612 28.6327538495249954
 -4.2278973318575099 39.8692747573272612 28.6327538495249954
 -7.0464671458775081 39.8692747573272612 28.6327538495249954
 62.0091697814501188 37.4283211689214923 28.6327538495249954
 46.5068666681425000 39.8692747573272612 28.6327538495249954
 59.1905999674301100 37.4283211689214923 28.6327538495249954
 36.6417877814501125 37.4283211689214923 28.6327538495249954
 22.5487695954701017 37.4283211689214923 28.6327538495249954
 19.7301997814501142 37.4283211689214923 28.6327538495249954
 16.9116299674301196 37.4283211689214923 28.6327538495249954
 14.0929755954701115 37.4283211689214923 28.6327538495249954
  2.8186117814501150 37.4283211689214923 28.6327538495249954
  0.0000419674301133 37.4283211689214923 28.6327538495249954
 63.4184547087777446 34.9873675805157234 28.6327538495249954
 60.5998848947577358 34.9873675805157234 28.6327538495249954
 39.4603575954701142 37.4283211689214923 28.6327538495249954
 57.7812305227977419 34.9873675805157234 28.6327538495249954
 49.3255210401024939 39.8692747573272612 28.6327538495249954
 60.5998848541225001 39.8692747573272612 28.6327538495249954
 -16.9115883928109767 47.1922087518845075 28.6327538495249954
 -25.3673823928109776 47.1922087518845075 28.6327538495249954
 57.7812727204966521 44.7512551634787386 28.6327538495249954
 46.5069089064766459 44.7512551634787386 28.6327538495249954
 29.5953209064766369 44.7512551634787386 28.6327538495249954
 26.7766665345166501 44.7512551634787386 28.6327538495249954
 12.6837329064766493 44.7512551634787386 28.6327538495249954
 -4.2278550935233552 44.7512551634787386 28.6327538495249954
 -7.0465094654833562 44.7512551634787386 28.6327538495249954
 57.7813150401024913 39.8692747573272612 28.6327538495249954
 -15.5023034654833562 44.7512551634787386 28.6327538495249954
 50.7347636478242734 42.3103015750729767 28.6327538495249954
 47.9161938338042646 42.3103015750729767 28.6327538495249954
 45.0975394618442706 42.3103015750729767 28.6327538495249954
 28.1859514618442688 42.3103015750729767 28.6327538495249954
 14.0930178338042680 42.3103015750729767 28.6327538495249954
  8.4557936478242581 42.3103015750729767 28.6327538495249954
  5.6372238338042564 42.3103015750729767 28.6327538495249954
 -5.6372245381557384 42.3103015750729767 28.6327538495249954
 -14.0930185381557376 42.3103015750729767 28.6327538495249954
 -18.3208732795033562 44.7512551634787386 28.6327538495249954
 -4.2278972912222672 34.9873675805157234 28.6327538495249954
 -7.0464671052422672 34.9873675805157234 28.6327538495249954
 -15.5022611052422672 34.9873675805157234 28.6327538495249954
 22.5488119557112086 27.6644335859584807 28.6327538495249954
 19.7301575837512004 27.6644335859584807 28.6327538495249954
 16.9115877697311987 27.6644335859584807 28.6327538495249954
 14.0930179557111952 27.6644335859584807 28.6327538495249954
 -5.6372244162487979 27.6644335859584807 28.6327538495249954
 69.0556789760294407 25.2234067682127652 28.6327538495249954
 66.2371091620094319 25.2234067682127652 28.6327538495249954
 52.1440909760294318 25.2234067682127652 28.6327538495249954
 43.6882969760294344 25.2234067682127652 28.6327538495249954
 31.0046059557112059 27.6644335859584807 28.6327538495249954
 40.8697271620094256 25.2234067682127652 28.6327538495249954
 23.9581391620094379 25.2234067682127652 28.6327538495249954
 12.6836907900494289 25.2234067682127652 28.6327538495249954
  7.0465511620094325 25.2234067682127652 28.6327538495249954
  4.2278967900494315 25.2234067682127652 28.6327538495249954
 -4.2278972099505676 25.2234067682127652 28.6327538495249954
 -7.0464670239705693 25.2234067682127652 28.6327538495249954
 67.6463940893370506 22.7824531798069998 28.6327538495249954
 64.8277397173770566 22.7824531798069998 28.6327538495249954
 62.0091699033570620 22.7824531798069998 28.6327538495249954
 38.0510727900494388 25.2234067682127652 28.6327538495249954
 33.8231757697311934 27.6644335859584807 28.6327538495249954
 45.0975395837512067 27.6644335859584807 28.6327538495249954
 47.9161939557112078 27.6644335859584807 28.6327538495249954
 -18.3209154772022664 34.9873675805157234 28.6327538495249954
 59.1905577290959641 32.5463407627700150 28.6327538495249954
 45.0976241010559633 32.5463407627700150 28.6327538495249954
 31.0046059150759525 32.5463407627700150 28.6327538495249954
  8.4557937290959586 32.5463407627700150 28.6327538495249954
 -5.6371398989440404 32.5463407627700150 28.6327538495249954
 -14.0929338989440378 32.5463407627700150 28.6327538495249954
 -16.9115882709040370 32.5463407627700150 28.6327538495249954
 52.1440486564235925 30.1053871743642461 28.6327538495249954
 49.3254788424035837 30.1053871743642461 28.6327538495249954
 46.5069090283835891 30.1053871743642461 28.6327538495249954
 32.4138908424035748 30.1053871743642461 28.6327538495249954
 29.5953210283835837 30.1053871743642461 28.6327538495249954
 15.5023028424035783 30.1053871743642461 28.6327538495249954
  7.0465088424035836 30.1053871743642461 28.6327538495249954
  4.2279390283835818 30.1053871743642461 28.6327538495249954
 -4.2278549716164209 30.1053871743642461 28.6327538495249954
 -7.0465093435764183 30.1053871743642461 28.6327538495249954
 -15.5023033435764184 30.1053871743642461 28.6327538495249954
 67.6463517697312113 27.6644335859584807 28.6327538495249954
 50.7347637697312024 27.6644335859584807 28.6327538495249954
 -5.6371400208509774 47.1922087518845075 28.6327538495249954
 39.4603995899903808 71.6020375533019688 28.6327538495249954
