 H  O 
 1.0000000000000000
    84.5579400000000021    0.0000000000000000    0.0000000000000000
   -42.2789706095346958   73.2293399455724767    0.0000000000000000
     0.0000000000000000    0.0000000000000000   46.9039550000000034
 H   O  
 265 285
Cartesian
 -0.0000000135450799  1.6273023922705114 28.1128704123049964
 -21.1395276379182775 43.1239527712082307 28.1128704123049964
 53.5533334753893371 40.6829991828024689 28.1128704123049964
 39.4603152894093299 40.6829991828024689 28.1128704123049964
 31.0045212894093325 40.6829991828024689 28.1128704123049964
 22.5487272894093422 40.6829991828024689 28.1128704123049964
 19.7301574753893405 40.6829991828024689 28.1128704123049964
 11.2743634753893449 40.6829991828024689 28.1128704123049964
  2.8185694753893440 40.6829991828024689 28.1128704123049964
 -12.6837336379182783 43.1239527712082307 28.1128704123049964
 -0.0000003386306579 40.6829991828024689 28.1128704123049964
 -11.2744487105906597 40.6829991828024689 28.1128704123049964
 -19.7302427105906588 40.6829991828024689 28.1128704123049964
 -22.5488125246106605 40.6829991828024689 28.1128704123049964
 57.7812304957075682 38.2419723650567462 28.1128704123049964
 43.6882968676675674 38.2419723650567462 28.1128704123049964
 40.8696424957075664 38.2419723650567462 28.1128704123049964
 21.1394846816875770 38.2419723650567462 28.1128704123049964
 18.3209148676675753 38.2419723650567462 28.1128704123049964
 -8.4557943386306622 40.6829991828024689 28.1128704123049964
  4.2278543620817208 43.1239527712082307 28.1128704123049964
 26.7766665480617228 43.1239527712082307 28.1128704123049964
 32.4138907340417219 43.1239527712082307 28.1128704123049964
 46.5068666004158757 48.0059331773597151 28.1128704123049964
 43.6882122284558676 48.0059331773597151 28.1128704123049964
 38.0510726004158641 48.0059331773597151 28.1128704123049964
 32.4138484144358685 48.0059331773597151 28.1128704123049964
 18.3208302284558755 48.0059331773597151 28.1128704123049964
 -1.4093275855641247 48.0059331773597151 28.1128704123049964
 -12.6836913995841307 48.0059331773597151 28.1128704123049964
 -23.9581397715441291 48.0059331773597151 28.1128704123049964
 53.5533334347540944 45.5649063596139996 28.1128704123049964
 50.7347636207340997 45.5649063596139996 28.1128704123049964
 47.9161938067141051 45.5649063596139996 28.1128704123049964
 42.2789696207341024 45.5649063596139996 28.1128704123049964
 33.8231756207340979 45.5649063596139996 28.1128704123049964
 31.0046058067141033 45.5649063596139996 28.1128704123049964
 22.5488118067141059 45.5649063596139996 28.1128704123049964
 11.2743634347540986 45.5649063596139996 28.1128704123049964
 -5.6372245652458988 45.5649063596139996 28.1128704123049964
 -16.9115883792659005 45.5649063596139996 28.1128704123049964
 52.1440485480617184 43.1239527712082307 28.1128704123049964
  4.2278966816875769 38.2419723650567462 28.1128704123049964
 52.1440062284558650 48.0059331773597151 28.1128704123049964
 -9.8651215042924267 38.2419723650567462 28.1128704123049964
 -21.1394853183124276 38.2419723650567462 28.1128704123049964
  2.8185695566610427 30.9190383704995000 28.1128704123049964
 -0.0000002573589589 30.9190383704995000 28.1128704123049964
 -5.6372244433389582 30.9190383704995000 28.1128704123049964
 -11.2743640713789581 30.9190383704995000 28.1128704123049964
 -16.9115882573589573 30.9190383704995000 28.1128704123049964
 49.3254788559486528 28.4780847820937346 28.1128704123049964
 38.0510304839886544 28.4780847820937346 28.1128704123049964
  9.8650786699686659 28.4780847820937346 28.1128704123049964
 28.1859515566610455 30.9190383704995000 28.1128704123049964
 -7.0465093300313377 28.4780847820937346 28.1128704123049964
 62.0091275972962777 26.0371311936879657 28.1128704123049964
 56.3719034113162749 26.0371311936879657 28.1128704123049964
 42.2789697832762812 26.0371311936879657 28.1128704123049964
 39.4603154113162731 26.0371311936879657 28.1128704123049964
 19.7301575972962873 26.0371311936879657 28.1128704123049964
 16.9115877832762855 26.0371311936879657 28.1128704123049964
 11.2743635972962863 26.0371311936879657 28.1128704123049964
  8.4557937832762846 26.0371311936879657 28.1128704123049964
 -9.8650791440513395 28.4780847820937346 28.1128704123049964
 31.0046059286210465 30.9190383704995000 28.1128704123049964
 42.2789697426410385 30.9190383704995000 28.1128704123049964
 62.0091275566610349 30.9190383704995000 28.1128704123049964
 62.0091697949951950 35.8010187766509844 28.1128704123049964
 53.5533757949951976 35.8010187766509844 28.1128704123049964
 50.7347214230351895 35.8010187766509844 28.1128704123049964
 47.9161516090151949 35.8010187766509844 28.1128704123049964
 42.2789274230351850 35.8010187766509844 28.1128704123049964
 39.4603576090151904 35.8010187766509844 28.1128704123049964
 28.1859937949951949 35.8010187766509844 28.1128704123049964
 22.5487696090151921 35.8010187766509844 28.1128704123049964
 19.7301997949951904 35.8010187766509844 28.1128704123049964
 11.2744057949951930 35.8010187766509844 28.1128704123049964
  8.4557514230351885 35.8010187766509844 28.1128704123049964
 -19.7302003909848089 35.8010187766509844 28.1128704123049964
 57.7812305363428109 33.3600651882452155 28.1128704123049964
 52.1440063503628082 33.3600651882452155 28.1128704123049964
 35.2324183503628063 33.3600651882452155 28.1128704123049964
 32.4138485363428117 33.3600651882452155 28.1128704123049964
 29.5952787223228171 33.3600651882452155 28.1128704123049964
  1.4092423503628120 33.3600651882452155 28.1128704123049964
 -12.6836912776771893 33.3600651882452155 28.1128704123049964
 -12.6836913183124267 38.2419723650567462 28.1128704123049964
 -5.6372244027037182 26.0371311936879657 28.1128704123049964
 54.9626606004158731 48.0059331773597151 28.1128704123049964
 -19.7302005128917450 50.4468867657654769 28.1128704123049964
 21.1394844378736906 67.5337083432857384 28.1128704123049964
 -1.4093277481063067 67.5337083432857384 28.1128704123049964
 -12.6836915621263024 67.5337083432857384 28.1128704123049964
 -15.5022613761463042 67.5337083432857384 28.1128704123049964
  5.6371813652013136 65.0927547548799765 28.1128704123049964
 -5.6371824488186855 65.0927547548799765 28.1128704123049964
 -14.0929764488186855 65.0927547548799765 28.1128704123049964
 -16.9116308207786865 65.0927547548799765 28.1128704123049964
 32.4138482518936897 67.5337083432857384 28.1128704123049964
 -33.8232188207786848 65.0927547548799765 28.1128704123049964
 23.9580542925289315 62.6518011664742076 28.1128704123049964
 21.1394844785089369 62.6518011664742076 28.1128704123049964
 12.6836904785089395 62.6518011664742076 28.1128704123049964
  9.8650361065489385 62.6518011664742076 28.1128704123049964
  1.4092421065489333 62.6518011664742076 28.1128704123049964
 -1.4093277074710613 62.6518011664742076 28.1128704123049964
 -9.8651217074710615 62.6518011664742076 28.1128704123049964
 -21.1394855214910677 62.6518011664742076 28.1128704123049964
 40.8696422925289298 62.6518011664742076 28.1128704123049964
 35.2325026238536978 67.5337083432857384 28.1128704123049964
 40.8696422518936870 67.5337083432857384 28.1128704123049964
 43.6882966238536952 67.5337083432857384 28.1128704123049964
 26.7766663042478434 72.4156887494372228 28.1128704123049964
 18.3208723042478390 72.4156887494372228 28.1128704123049964
 15.5023024902278443 72.4156887494372228 28.1128704123049964
 12.6836481182678362 72.4156887494372228 28.1128704123049964
  7.0465084902278479 72.4156887494372228 28.1128704123049964
  4.2278541182678469 72.4156887494372228 28.1128704123049964
 -4.2279398817321576 72.4156887494372228 28.1128704123049964
 -23.9580976957521585 72.4156887494372228 28.1128704123049964
 -26.7766675097721567 72.4156887494372228 28.1128704123049964
 -32.4138916957521559 72.4156887494372228 28.1128704123049964
 33.8231754175554755 69.9747351610314468 28.1128704123049964
 31.0045210455954674 69.9747351610314468 28.1128704123049964
 16.9115874175554666 69.9747351610314468 28.1128704123049964
 -5.6372247684245327 69.9747351610314468 28.1128704123049964
 -16.9115885824445336 69.9747351610314468 28.1128704123049964
 -25.3673825824445345 69.9747351610314468 28.1128704123049964
 -28.1860369544045355 69.9747351610314468 28.1128704123049964
 -33.8231765824445318 69.9747351610314468 28.1128704123049964
 -36.6418309544045329 69.9747351610314468 28.1128704123049964
 -23.9581398934510652 62.6518011664742076 28.1128704123049964
 -22.5487703269117468 50.4468867657654769 28.1128704123049964
 25.3673814988271609 60.2107743487284921 28.1128704123049964
 14.0930176848071671 60.2107743487284921 28.1128704123049964
 32.4138483738006258 52.8878403541712458 28.1128704123049964
 15.5022603738006346 52.8878403541712458 28.1128704123049964
  9.8651207457606311 52.8878403541712458 28.1128704123049964
  4.2278965597806355 52.8878403541712458 28.1128704123049964
  1.4093267457606342 52.8878403541712458 28.1128704123049964
 -4.2278974402193654 52.8878403541712458 28.1128704123049964
 -7.0464672542393672 52.8878403541712458 28.1128704123049964
 -15.5022612542393716 52.8878403541712458 28.1128704123049964
 43.6882967457606384 52.8878403541712458 28.1128704123049964
 -21.1394854402193673 52.8878403541712458 28.1128704123049964
 42.2789273011282489 50.4468867657654769 28.1128704123049964
 31.0045634871082498 50.4468867657654769 28.1128704123049964
 19.7301996730882578 50.4468867657654769 28.1128704123049964
 14.0929754871082551 50.4468867657654769 28.1128704123049964
  5.6371814871082586 50.4468867657654769 28.1128704123049964
  2.8186116730882564 50.4468867657654769 28.1128704123049964
 -0.0000426988717480 50.4468867657654769 28.1128704123049964
 -2.8186125128917427 50.4468867657654769 28.1128704123049964
 -23.9580552542393690 52.8878403541712458 28.1128704123049964
 -31.0046066465175976 55.3288671719169614 28.1128704123049964
 -11.2744488324975958 55.3288671719169614 28.1128704123049964
 -8.4557944605375948 55.3288671719169614 28.1128704123049964
 11.2743633128471661 60.2107743487284921 28.1128704123049964
  5.6372236848071626 60.2107743487284921 28.1128704123049964
 -2.8185703151928343 60.2107743487284921 28.1128704123049964
 -22.5488126871528358 60.2107743487284921 28.1128704123049964
 -25.3673825011728376 60.2107743487284921 28.1128704123049964
 -31.0046066871528367 60.2107743487284921 28.1128704123049964
 -33.8231765011728385 60.2107743487284921 28.1128704123049964
 49.3254786121347877 57.7698207603227232 28.1128704123049964
 40.8696846121347903 57.7698207603227232 28.1128704123049964
 32.4138906121347787 57.7698207603227232 28.1128704123049964
 -7.0465095738452108 57.7698207603227232 28.1128704123049964
 -21.1395277598252136 57.7698207603227232 28.1128704123049964
 -32.4138915738452127 57.7698207603227232 28.1128704123049964
 45.0975393534824036 55.3288671719169614 28.1128704123049964
 42.2789695394624090 55.3288671719169614 28.1128704123049964
 36.6417453534824062 55.3288671719169614 28.1128704123049964
 33.8231755394623974 55.3288671719169614 28.1128704123049964
 31.0045211675023928 55.3288671719169614 28.1128704123049964
 22.5487271675023955 55.3288671719169614 28.1128704123049964
 22.5488116848071662 60.2107743487284921 28.1128704123049964
 -11.2744485886837182 26.0371311936879657 28.1128704123049964
 -4.2278973183124275 38.2419723650567462 28.1128704123049964
 31.0045637309221327 21.1551507875364884 28.1128704123049964
 49.3254366582497497 18.7141971991307194 28.1128704123049964
 69.0555944722697461 18.7141971991307194 28.1128704123049964
 49.3254789778556031 13.8322167929792403 28.1128704123049964
 15.5022607395214518  8.9502363868277595 28.1128704123049964
 -0.0000424550578693 21.1551507875364884 28.1128704123049964
 11.2744059169021327 21.1551507875364884 28.1128704123049964
 46.5068669255014484  8.9502363868277595 28.1128704123049964
 35.2324607918756030 13.8322167929792403 28.1128704123049964
 21.1394426058955993 13.8322167929792403 28.1128704123049964
 14.0929757309221344 21.1551507875364884 28.1128704123049964
 38.0510729661366938  4.0683292100162243 28.1128704123049964
 28.1859939169021310 21.1551507875364884 28.1128704123049964
 18.3208727918756047 13.8322167929792403 28.1128704123049964
 22.5488120505279817 16.2731703813850075 28.1128704123049964
  4.2278546058956001 13.8322167929792403 28.1128704123049964
 -1.4093272198433096  4.0683292100162243 28.1128704123049964
 39.4603577309221265 21.1551507875364884 28.1128704123049964
 81.7393701724349171  1.6273023922705114 28.1128704123049964
  1.4092847918756004 13.8322167929792403 28.1128704123049964
 50.7347215449421185 21.1551507875364884 28.1128704123049964
 53.5533759169021195 21.1551507875364884 28.1128704123049964
 12.6836909255014501  8.9502363868277595 28.1128704123049964
 18.3208304722697477 18.7141971991307194 28.1128704123049964
  9.8650364722697521 18.7141971991307194 28.1128704123049964
 69.0555945941766822  4.0683292100162243 28.1128704123049964
 36.6417880388090680  6.5092827984219914 28.1128704123049964
 50.7347216668490617  6.5092827984219914 28.1128704123049964
 31.0045638528290759  6.5092827984219914 28.1128704123049964
 59.1905156668490591  6.5092827984219914 28.1128704123049964
 67.6463096668490635  6.5092827984219914 28.1128704123049964
 -0.0000001354520196 16.2731703813850075 28.1128704123049964
 39.4604000505279870 16.2731703813850075 28.1128704123049964
 70.4649640388090717  6.5092827984219914 28.1128704123049964
 74.6928609778556023 13.8322167929792403 28.1128704123049964
 25.3673396668490696  6.5092827984219914 28.1128704123049964
 60.5998851114814414  8.9502363868277595 28.1128704123049964
 19.7302000388090732  6.5092827984219914 28.1128704123049964
 11.2744060388090670  6.5092827984219914 28.1128704123049964
 73.2835760505279836 16.2731703813850075 28.1128704123049964
 19.7301577192032234 11.3912632045734714 28.1128704123049964
  5.6371818528290705  6.5092827984219914 28.1128704123049964
 69.0556367918755996 13.8322167929792403 28.1128704123049964
  9.8651211114814483  8.9502363868277595 28.1128704123049964
 60.5998427918756022 13.8322167929792403 28.1128704123049964
 -7.0465515277302488 18.7141971991307194 28.1128704123049964
 77.5113885941766796  4.0683292100162243 28.1128704123049964
  7.0464666582497495 18.7141971991307194 28.1128704123049964
  7.0464667395214500  8.9502363868277595 28.1128704123049964
 59.1905579864549196  1.6273023922705114 28.1128704123049964
 39.4603578528290697  6.5092827984219914 28.1128704123049964
 28.1859518004749177  1.6273023922705114 28.1128704123049964
 63.4184549255014502  8.9502363868277595 28.1128704123049964
 29.5952788035945140 23.5961043759422537 28.1128704123049964
 59.1905579051832120 11.3912632045734714 28.1128704123049964
 50.7347639051832218 11.3912632045734714 28.1128704123049964
 49.3254366176144998 23.5961043759422537 28.1128704123049964
 22.5488121724349213  1.6273023922705114 28.1128704123049964
 -2.8186544667767790 11.3912632045734714 28.1128704123049964
 40.8696426176145025 23.5961043759422537 28.1128704123049964
 42.2789699864549249  1.6273023922705114 28.1128704123049964
 74.6928187395214422  8.9502363868277595 28.1128704123049964
 19.7301578004749203  1.6273023922705114 28.1128704123049964
 38.0510728035945078 23.5961043759422537 28.1128704123049964
 47.9161095332232136 11.3912632045734714 28.1128704123049964
 -1.4092850221444004 13.8322167929792403 28.1128704123049964
 28.1859517192032243 11.3912632045734714 28.1128704123049964
 52.1440909895745008 23.5961043759422537 28.1128704123049964
 47.9161941724349276  1.6273023922705114 28.1128704123049964
 54.9626608035945097 23.5961043759422537 28.1128704123049964
 66.2370246176145088 23.5961043759422537 28.1128704123049964
 64.8276975332232155 11.3912632045734714 28.1128704123049964
  1.4093269895745080 23.5961043759422537 28.1128704123049964
 56.3719881724349250  1.6273023922705114 28.1128704123049964
  9.8651209895745122 23.5961043759422537 28.1128704123049964
 16.9115879051832216 11.3912632045734714 28.1128704123049964
 36.6417457192032217 11.3912632045734714 28.1128704123049964
 -14.0930184027037182 26.0371311936879657 28.1128704123049964
 31.0046061724349222  1.6273023922705114 28.1128704123049964
 43.6882969895745106 23.5961043759422537 28.1128704123049964
 23.9580546176145113 23.5961043759422537 28.1128704123049964
 62.0091277192032209 11.3912632045734714 28.1128704123049964
 57.7812306176145043 23.5961043759422537 28.1128704123049964
 50.7347639864549222  1.6273023922705114 28.1128704123049964
 45.0975397192032190 11.3912632045734714 28.1128704123049964
 11.2744056595431719 52.0741891580359919 28.6327538495249954
  8.4558362112439873  8.1365851906925037 28.6327538495249954
 31.0046057118973302 56.9561695641874692 28.6327538495249954
 22.5488117118973186 56.9561695641874692 28.6327538495249954
 62.0091700252639910  8.1365851906925037 28.6327538495249954
 -1.4092427160836287 10.5775387790982709 28.6327538495249954
 42.2789695259173328 56.9561695641874692 28.6327538495249954
 71.8742489525916284  5.6956316022867357 28.6327538495249954
  2.8186116595431669 52.0741891580359919 28.6327538495249954
 -32.4138915873902960 59.3971231525932382 28.6327538495249954
 69.0556791385716195  5.6956316022867357 28.6327538495249954
 12.6836909119563703 10.5775387790982709 28.6327538495249954
 15.5023452839163713 10.5775387790982709 28.6327538495249954
 -5.6371823404568273 52.0741891580359919 28.6327538495249954
 -15.5023035873902977 59.3971231525932382 28.6327538495249954
  5.6371814735631682 52.0741891580359919 28.6327538495249954
 50.7347635259173302 56.9561695641874692 28.6327538495249954
 -31.0046066600626737 56.9561695641874692 28.6327538495249954
 14.0929754735631594 52.0741891580359919 28.6327538495249954
 -9.8650370818044468 54.5151427464417537 28.6327538495249954
 -12.6836914537644478 54.5151427464417537 28.6327538495249954
 -7.0464672677844442 54.5151427464417537 28.6327538495249954
  4.2278965462355513 54.5151427464417537 28.6327538495249954
 -15.5022612677844460 54.5151427464417537 28.6327538495249954
  7.0465509181955595 54.5151427464417537 28.6327538495249954
  9.8651207322155532 54.5151427464417537 28.6327538495249954
 12.6836905462355407 54.5151427464417537 28.6327538495249954
 -23.9580552677844487 54.5151427464417537 28.6327538495249954
 59.1906002112439964  8.1365851906925037 28.6327538495249954
 23.9581389181955480 54.5151427464417537 28.6327538495249954
 73.2835338392839901  8.1365851906925037 28.6327538495249954
 32.4139329181955560 54.5151427464417537 28.6327538495249954
 42.2790118455231720 52.0741891580359919 28.6327538495249954
 45.0975820252639821  8.1365851906925037 28.6327538495249954
 31.0045638392839891  8.1365851906925037 28.6327538495249954
 43.6882967322155622 54.5151427464417537 28.6327538495249954
 14.0929758392839890  8.1365851906925037 28.6327538495249954
 31.0045634735631737 52.0741891580359919 28.6327538495249954
 11.2744060252639908  8.1365851906925037 28.6327538495249954
 -14.0930186600626755 56.9561695641874692 28.6327538495249954
 76.1021882112439840  8.1365851906925037 28.6327538495249954
 -11.2743642881026744 56.9561695641874692 28.6327538495249954
 -8.4557944740826727 56.9561695641874692 28.6327538495249954
 -12.6836912099505668 25.2234067682127652 28.6327538495249954
  7.0464667666116103  5.6956316022867357 28.6327538495249954
 35.2325031385716159  5.6956316022867357 28.6327538495249954
 26.7767086103086172 69.1610107355562462 28.6327538495249954
 18.3209146103086198 69.1610107355562462 28.6327538495249954
 -1.4092432037113782 69.1610107355562462 28.6327538495249954
 49.3254790862174488  0.8136511961352557 28.6327538495249954
 -7.0464673896913883 69.1610107355562462 28.6327538495249954
 -15.5022613896913821 69.1610107355562462 28.6327538495249954
 52.1440489002374647  0.8136511961352557 28.6327538495249954
 29.5952784243286260 69.1610107355562462 28.6327538495249954
 -32.4138493896913857 69.1610107355562462 28.6327538495249954
 -35.2324192037113804 69.1610107355562462 28.6327538495249954
 60.5998429002374621  0.8136511961352557 28.6327538495249954
 42.2790117236162359 66.7200571471504844 28.6327538495249954
 69.0556369002374737  0.8136511961352557 28.6327538495249954
 83.1486550862174738  0.8136511961352557 28.6327538495249954
 31.0045633516562411 66.7200571471504844 28.6327538495249954
 16.9116297236162261 66.7200571471504844 28.6327538495249954
 57.7812730862174604  0.8136511961352557 28.6327538495249954
  5.6371813516562215 66.7200571471504844 28.6327538495249954
 46.5069092721974613  0.8136511961352557 28.6327538495249954
 35.2325026103086287 69.1610107355562462 28.6327538495249954
 28.1859512180303895 71.6020375533019688 28.6327538495249954
  1.4092849002374601  0.8136511961352557 28.6327538495249954
 25.3673814040103807 71.6020375533019688 28.6327538495249954
  7.0465090862174584  0.8136511961352557 28.6327538495249954
 16.9115874040103833 71.6020375533019688 28.6327538495249954
  9.8650789002374601  0.8136511961352557 28.6327538495249954
 18.3208729002374611  0.8136511961352557 28.6327538495249954
 32.4139327962886199 69.1610107355562462 28.6327538495249954
 21.1395272721974621  0.8136511961352557 28.6327538495249954
 -22.5488127819696196 71.6020375533019688 28.6327538495249954
 -25.3673825959896213 71.6020375533019688 28.6327538495249954
 -28.1859524100096195 71.6020375533019688 28.6327538495249954
 32.4138910862174541  0.8136511961352557 28.6327538495249954
 -33.8231765959896151 71.6020375533019688 28.6327538495249954
 -36.6417464100096169 71.6020375533019688 28.6327538495249954
 40.8697267962886173 69.1610107355562462 28.6327538495249954
 -5.6372247819696195 71.6020375533019688 28.6327538495249954
 38.0510729525916105  5.6956316022867357 28.6327538495249954
 19.7302423448698399  3.2546047845410229 28.6327538495249954
 -14.0929764623637634 66.7200571471504844 28.6327538495249954
 14.0930176712620749 61.8380767409990000 28.6327538495249954
 11.2744478572420874 61.8380767409990000 28.6327538495249954
  9.8651211385716078  5.6956316022867357 28.6327538495249954
 -0.0000005147179177 61.8380767409990000 28.6327538495249954
 -2.8185703287379194 61.8380767409990000 28.6327538495249954
 -22.5487281427579163 61.8380767409990000 28.6327538495249954
 29.5952789525916060  5.6956316022867357 28.6327538495249954
 -1.4093272333883895  5.6956316022867357 28.6327538495249954
 -25.3673825147179137 61.8380767409990000 28.6327538495249954
 49.3254785985897115 59.3971231525932382 28.6327538495249954
 43.6882544126097088 59.3971231525932382 28.6327538495249954
 40.8696845985897141 59.3971231525932382 28.6327538495249954
 38.0511147845697053 59.3971231525932382 28.6327538495249954
 32.4138905985897026 59.3971231525932382 28.6327538495249954
 26.7766664126097069 59.3971231525932382 28.6327538495249954
 23.9580965985897052 59.3971231525932382 28.6327538495249954
 -28.1859523287379155 61.8380767409990000 28.6327538495249954
 28.1860363448698337  3.2546047845410229 28.6327538495249954
 22.5488116712620865 61.8380767409990000 28.6327538495249954
 42.2789694852820901 61.8380767409990000 28.6327538495249954
 -16.9115462763837670 66.7200571471504844 28.6327538495249954
 40.8696422789838678 64.2791035587447084 28.6327538495249954
 18.3209146509438554 64.2791035587447084 28.6327538495249954
 15.5022602789838597 64.2791035587447084 28.6327538495249954
  9.8651206509438563 64.2791035587447084 28.6327538495249954
  7.0464662789838490 64.2791035587447084 28.6327538495249954
 47.9161941588898301  3.2546047845410229 28.6327538495249954
 81.7393701588898551  3.2546047845410229 28.6327538495249954
  4.2278964649638544 64.2791035587447084 28.6327538495249954
 50.7347639729098461  3.2546047845410229 28.6327538495249954
 -7.0464673490561447 64.2791035587447084 28.6327538495249954
 53.5534183448698329  3.2546047845410229 28.6327538495249954
 -15.5022613490561429 64.2791035587447084 28.6327538495249954
 67.6463519729098550  3.2546047845410229 28.6327538495249954
 -23.9580553490561456 64.2791035587447084 28.6327538495249954
 -26.7767097210161431 64.2791035587447084 28.6327538495249954
  1.4093266509438596 64.2791035587447084 28.6327538495249954
 -8.4557521544768282 52.0741891580359919 28.6327538495249954
 60.5998850979363723 10.5775387790982709 28.6327538495249954
 -19.7302005264368283 52.0741891580359919 28.6327538495249954
 12.6836908306846716 20.3414995914012344 28.6327538495249954
  1.4093268947577322 34.9873675805157234 28.6327538495249954
 62.0092121010559580 32.5463407627700150 28.6327538495249954
 26.7767090166646753 20.3414995914012344 28.6327538495249954
 53.5534181010559607 32.5463407627700150 28.6327538495249954
 50.7347637290959668 32.5463407627700150 28.6327538495249954
 29.5952788306846699 20.3414995914012344 28.6327538495249954
  9.8651208947577302 34.9873675805157234 28.6327538495249954
 33.8231757290959649 32.5463407627700150 28.6327538495249954
 32.4138486447046574 20.3414995914012344 28.6327538495249954
  2.8186541010559618 32.5463407627700150 28.6327538495249954
 -0.0000002709040391 32.5463407627700150 28.6327538495249954
 -11.2743640849240396 32.5463407627700150 28.6327538495249954
 49.3254366447046735 20.3414995914012344 28.6327538495249954
 63.4184970283835838 30.1053871743642461 28.6327538495249954
 71.8742488306846781 20.3414995914012344 28.6327538495249954
 31.0046059150759525 32.5463407627700150 28.6327538495249954
 29.5953210283835837 30.1053871743642461 28.6327538495249954
  9.8651210166646699 20.3414995914012344 28.6327538495249954
 29.5952787087777267 34.9873675805157234 28.6327538495249954
 42.2790119674301152 37.4283211689214923 28.6327538495249954
 -8.4557941489970982 17.9004727736555189 28.6327538495249954
 39.4603575954701142 37.4283211689214923 28.6327538495249954
 22.5487695954701017 37.4283211689214923 28.6327538495249954
 19.7301997814501142 37.4283211689214923 28.6327538495249954
 -5.6371397770370981 17.9004727736555189 28.6327538495249954
 31.0046055899903834 71.6020375533019688 28.6327538495249954
 -9.8651213552953294 20.3414995914012344 28.6327538495249954
 -5.6371822185498859 37.4283211689214923 28.6327538495249954
 11.2744482229629011 17.9004727736555189 28.6327538495249954
 63.4184547087777446 34.9873675805157234 28.6327538495249954
 28.1860362229629082 17.9004727736555189 28.6327538495249954
 52.1440908947577384 34.9873675805157234 28.6327538495249954
 70.4650062229628986 17.9004727736555189 28.6327538495249954
 73.2835760369829075 17.9004727736555189 28.6327538495249954
 38.0510727087777383 34.9873675805157234 28.6327538495249954
  8.4557938510029000 17.9004727736555189 28.6327538495249954
 74.6928609643105261 15.4595191852497500 28.6327538495249954
  0.0000420893370479 22.7824531798069998 28.6327538495249954
  9.8650786564235791 30.1053871743642461 28.6327538495249954
 63.4184547900494380 25.2234067682127652 28.6327538495249954
 60.5998849760294434 25.2234067682127652 28.6327538495249954
 57.7813151620094345 25.2234067682127652 28.6327538495249954
 54.9626607900494406 25.2234067682127652 28.6327538495249954
 43.6882969760294344 25.2234067682127652 28.6327538495249954
 50.7348060893370558 22.7824531798069998 28.6327538495249954
 40.8697271620094256 25.2234067682127652 28.6327538495249954
 -11.2743640442888005 27.6644335859584807 28.6327538495249954
 38.0510727900494388 25.2234067682127652 28.6327538495249954
 21.1394847900494298 25.2234067682127652 28.6327538495249954
 53.5533759033570504 22.7824531798069998 28.6327538495249954
 18.3209149760294281 25.2234067682127652 28.6327538495249954
  9.8651209760294343 25.2234067682127652 28.6327538495249954
 62.0091699033570620 22.7824531798069998 28.6327538495249954
  1.4093269760294336 25.2234067682127652 28.6327538495249954
 64.8277397173770566 22.7824531798069998 28.6327538495249954
 29.5952787900494201 25.2234067682127652 28.6327538495249954
 18.3208726564235782 30.1053871743642461 28.6327538495249954
 -8.4557942302688005 27.6644335859584807 28.6327538495249954
 -5.6372244162487979 27.6644335859584807 28.6327538495249954
  4.2279390283835818 30.1053871743642461 28.6327538495249954
  1.4092846564235810 30.1053871743642461 28.6327538495249954
 11.2744059033570529 22.7824531798069998 28.6327538495249954
 -7.0465093435764183 30.1053871743642461 28.6327538495249954
 -9.8650791575964192 30.1053871743642461 28.6327538495249954
 -12.6836489716164174 30.1053871743642461 28.6327538495249954
 28.1859939033570512 22.7824531798069998 28.6327538495249954
 39.4603577173770574 22.7824531798069998 28.6327538495249954
 64.8277819557112025 27.6644335859584807 28.6327538495249954
 59.1905577697312140 27.6644335859584807 28.6327538495249954
 45.0975395837512067 27.6644335859584807 28.6327538495249954
 39.4603999557111962 27.6644335859584807 28.6327538495249954
 36.6417879033570415 22.7824531798069998 28.6327538495249954
 22.5488119557112086 27.6644335859584807 28.6327538495249954
 19.7301575837512004 27.6644335859584807 28.6327538495249954
 11.2743635837511977 27.6644335859584807 28.6327538495249954
 62.0091275837512086 27.6644335859584807 28.6327538495249954
 45.0975817814501099 37.4283211689214923 28.6327538495249954
 53.5533757814501215 37.4283211689214923 28.6327538495249954
 62.0091697814501188 37.4283211689214923 28.6327538495249954
 42.2789696071890333 47.1922087518845075 28.6327538495249954
 -0.0000001083618602 13.0185655968439828 28.6327538495249954
 31.0046057931690235 47.1922087518845075 28.6327538495249954
 22.5488117931690120 47.1922087518845075 28.6327538495249954
  2.8185697056581414 13.0185655968439828 28.6327538495249954
 16.9115878916381419 13.0185655968439828 28.6327538495249954
 -14.0929340208509810 47.1922087518845075 28.6327538495249954
 45.0976239791490272 47.1922087518845075 28.6327538495249954
 19.7301577056581365 13.0185655968439828 28.6327538495249954
 36.6417457056581313 13.0185655968439828 28.6327538495249954
 39.4604000776181465 13.0185655968439828 28.6327538495249954
 32.4138907204966458 44.7512551634787386 28.6327538495249954
 47.9161940776181368 13.0185655968439828 28.6327538495249954
 29.5953209064766369 44.7512551634787386 28.6327538495249954
 12.6837329064766493 44.7512551634787386 28.6327538495249954
 50.7347638916381456 13.0185655968439828 28.6327538495249954
 52.1440485345166493 44.7512551634787386 28.6327538495249954
  4.2279389064766386 44.7512551634787386 28.6327538495249954
 63.4184549119563812 10.5775387790982709 28.6327538495249954
 -23.9580552271492060 49.6332355696302230 28.6327538495249954
 -22.5487703404568300 52.0741891580359919 28.6327538495249954
 26.7767090979363651 10.5775387790982709 28.6327538495249954
 -25.3673401544768282 52.0741891580359919 28.6327538495249954
 52.1440907728507952 49.6332355696302230 28.6327538495249954
 43.6882967728507978 49.6332355696302230 28.6327538495249954
 40.8696424008908039 49.6332355696302230 28.6327538495249954
 32.4138484008907994 49.6332355696302230 28.6327538495249954
 53.5534179791490246 47.1922087518845075 28.6327538495249954
 29.5952789119563668 10.5775387790982709 28.6327538495249954
 18.3209147728507951 49.6332355696302230 28.6327538495249954
 15.5022604008907816 49.6332355696302230 28.6327538495249954
 46.5068669119563793 10.5775387790982709 28.6327538495249954
  1.4093267728507877 49.6332355696302230 28.6327538495249954
 49.3255212839163661 10.5775387790982709 28.6327538495249954
 -1.4093275991092098 49.6332355696302230 28.6327538495249954
 -21.1394854131292078 49.6332355696302230 28.6327538495249954
 21.1394845868707826 49.6332355696302230 28.6327538495249954
 53.5533337056581473 13.0185655968439828 28.6327538495249954
 -12.6836490935233588 44.7512551634787386 28.6327538495249954
 -15.5023034654833562 44.7512551634787386 28.6327538495249954
 29.5953211502905269 15.4595191852497500 28.6327538495249954
 18.3209148541224920 39.8692747573272612 28.6327538495249954
 15.5023450401024956 39.8692747573272612 28.6327538495249954
 38.0511151502905278 15.4595191852497500 28.6327538495249954
  9.8651208541224857 39.8692747573272612 28.6327538495249954
  4.2278966681424874 39.8692747573272612 28.6327538495249954
  1.4093268541224926 39.8692747573272612 28.6327538495249954
 21.1394846681424795 39.8692747573272612 28.6327538495249954
 40.8696849643105153 15.4595191852497500 28.6327538495249954
 52.1440487783305286 15.4595191852497500 28.6327538495249954
 -9.8650369598975125 39.8692747573272612 28.6327538495249954
 54.9627031502905297 15.4595191852497500 28.6327538495249954
 -12.6836913318575100 39.8692747573272612 28.6327538495249954
 69.0556367783305234 15.4595191852497500 28.6327538495249954
 -21.1394853318575109 39.8692747573272612 28.6327538495249954
 71.8742911502905173 15.4595191852497500 28.6327538495249954
 -7.0464671458775081 39.8692747573272612 28.6327538495249954
 23.9580969643105171 15.4595191852497500 28.6327538495249954
 21.1395271502905153 15.4595191852497500 28.6327538495249954
 40.8697270401024966 39.8692747573272612 28.6327538495249954
 59.1905578916381430 13.0185655968439828 28.6327538495249954
 53.5533334618442680 42.3103015750729767 28.6327538495249954
 33.8231756478242644 42.3103015750729767 28.6327538495249954
 31.0046058338042556 42.3103015750729767 28.6327538495249954
 70.4649217056581421 13.0185655968439828 28.6327538495249954
 14.0930178338042680 42.3103015750729767 28.6327538495249954
 11.2743634618442599 42.3103015750729767 28.6327538495249954
  2.8185694618442589 42.3103015750729767 28.6327538495249954
 -0.0000003521757358 42.3103015750729767 28.6327538495249954
 -8.4557943521757366 42.3103015750729767 28.6327538495249954
 -11.2743641661957401 42.3103015750729767 28.6327538495249954
 -1.4092850356894804 15.4595191852497500 28.6327538495249954
 -14.0930185381557376 42.3103015750729767 28.6327538495249954
 -22.5488125381557367 42.3103015750729767 28.6327538495249954
  1.4092847783305213 15.4595191852497500 28.6327538495249954
 52.1440908541225028 39.8692747573272612 28.6327538495249954
 43.6882968541224912 39.8692747573272612 28.6327538495249954
 18.3209150979363713 10.5775387790982709 28.6327538495249954
 39.4603995899903808 71.6020375533019688 28.6327538495249954
