 H  O 
 1.0000000000000000
    84.5579400000000021    0.0000000000000000    0.0000000000000000
   -42.2789706095346958   73.2293399455724767    0.0000000000000000
     0.0000000000000000    0.0000000000000000   46.9039550000000034
 H   O  
 206 323
Cartesian
 46.5068668035945052 23.5961043759422537 28.1128704123049964
 28.1859515972962846 26.0371311936879657 28.1128704123049964
 35.2324604261547876 57.7698207603227232 28.1128704123049964
 47.9161094113162704 26.0371311936879657 28.1128704123049964
 29.5952362401747777 57.7698207603227232 28.1128704123049964
 50.7347637832762715 26.0371311936879657 28.1128704123049964
 64.8276974113162794 26.0371311936879657 28.1128704123049964
 67.6463517832762875 26.0371311936879657 28.1128704123049964
 15.5023026121347893 57.7698207603227232 28.1128704123049964
 -4.2279395160113378 28.4780847820937346 28.1128704123049964
 -9.8650793878652134 57.7698207603227232 28.1128704123049964
 32.4138908559486651 28.4780847820937346 28.1128704123049964
 40.8696848559486625 28.4780847820937346 28.1128704123049964
 -21.1395277598252136 57.7698207603227232 28.1128704123049964
 57.7812728559486644 28.4780847820937346 28.1128704123049964
 66.2370668559486688 28.4780847820937346 28.1128704123049964
 -29.5953217598252145 57.7698207603227232 28.1128704123049964
 -8.4557942573589582 30.9190383704995000 28.1128704123049964
 -32.4138915738452127 57.7698207603227232 28.1128704123049964
 14.0930179286210446 30.9190383704995000 28.1128704123049964
 19.7301575566610410 30.9190383704995000 28.1128704123049964
 50.7347635394624064 55.3288671719169614 28.1128704123049964
 16.9115875394624062 55.3288671719169614 28.1128704123049964
  8.4557935394624035 55.3288671719169614 28.1128704123049964
  2.8185693534824074 55.3288671719169614 28.1128704123049964
 -15.5023456496371885 33.3600651882452155 28.1128704123049964
 -9.8651214636571893 33.3600651882452155 28.1128704123049964
 -7.0465516496371885 33.3600651882452155 28.1128704123049964
 -25.3673825011728376 60.2107743487284921 28.1128704123049964
 19.7301575972962873 26.0371311936879657 28.1128704123049964
 14.0929334113162810 26.0371311936879657 28.1128704123049964
  5.6371394113162827 26.0371311936879657 28.1128704123049964
 54.9626608442297453 18.7141971991307194 28.1128704123049964
  1.4092421065489333 62.6518011664742076 28.1128704123049964
 57.7812306582497541 18.7141971991307194 28.1128704123049964
 60.5998004722697488 18.7141971991307194 28.1128704123049964
 69.0555944722697461 18.7141971991307194 28.1128704123049964
 -1.4093277074710613 62.6518011664742076 28.1128704123049964
 -5.6371820830978701 21.1551507875364884 28.1128704123049964
 -9.8651217074710615 62.6518011664742076 28.1128704123049964
  5.6371817309221299 21.1551507875364884 28.1128704123049964
 19.7301999169021336 21.1551507875364884 28.1128704123049964
 31.0045637309221327 21.1551507875364884 28.1128704123049964
 39.4603577309221265 21.1551507875364884 28.1128704123049964
 47.9161517309221239 21.1551507875364884 28.1128704123049964
 -8.4557944605375948 55.3288671719169614 28.1128704123049964
 45.0975393128471538 60.2107743487284921 28.1128704123049964
 -9.8651213823854889 23.5961043759422537 28.1128704123049964
  1.4093269895745080 23.5961043759422537 28.1128704123049964
  4.2278968035945095 23.5961043759422537 28.1128704123049964
 31.0046056848071565 60.2107743487284921 28.1128704123049964
 28.1859513128471555 60.2107743487284921 28.1128704123049964
 16.9115874988271635 60.2107743487284921 28.1128704123049964
 35.2325029895745132 23.5961043759422537 28.1128704123049964
 36.6417454347540925 45.5649063596139996 28.1128704123049964
 49.3254366176144998 23.5961043759422537 28.1128704123049964
 11.2743633128471661 60.2107743487284921 28.1128704123049964
 -0.0000005011728327 60.2107743487284921 28.1128704123049964
  2.8185695972962814 26.0371311936879657 28.1128704123049964
 -16.9115885011728366 60.2107743487284921 28.1128704123049964
 42.2789694988271592 60.2107743487284921 28.1128704123049964
 26.7766241065489261 62.6518011664742076 28.1128704123049964
  1.4092423503628120 33.3600651882452155 28.1128704123049964
 -11.2744488324975958 55.3288671719169614 28.1128704123049964
 22.5487694871082525 50.4468867657654769 28.1128704123049964
 11.2743634753893449 40.6829991828024689 28.1128704123049964
  8.4557513011282524 50.4468867657654769 28.1128704123049964
 22.5487272894093422 40.6829991828024689 28.1128704123049964
 -2.8186125128917427 50.4468867657654769 28.1128704123049964
 -11.2744065128917477 50.4468867657654769 28.1128704123049964
 47.9161092894093343 40.6829991828024689 28.1128704123049964
 -21.1395276379182775 43.1239527712082307 28.1128704123049964
 -19.7302005128917450 50.4468867657654769 28.1128704123049964
 -15.5023034519382783 43.1239527712082307 28.1128704123049964
 -12.6837336379182783 43.1239527712082307 28.1128704123049964
 -4.2279396379182765 43.1239527712082307 28.1128704123049964
 -1.4092852659582757 43.1239527712082307 28.1128704123049964
 43.6882122284558676 48.0059331773597151 28.1128704123049964
 18.3208725480617254 43.1239527712082307 28.1128704123049964
 35.2324605480617166 43.1239527712082307 28.1128704123049964
 32.4138484144358685 48.0059331773597151 28.1128704123049964
 40.8696847340417122 43.1239527712082307 28.1128704123049964
 29.5952786004158739 48.0059331773597151 28.1128704123049964
 54.9626183620817130 43.1239527712082307 28.1128704123049964
 18.3208302284558755 48.0059331773597151 28.1128704123049964
 -2.8185701932858982 45.5649063596139996 28.1128704123049964
 -0.0000003792658964 45.5649063596139996 28.1128704123049964
  2.8185694347540982 45.5649063596139996 28.1128704123049964
 14.0930178067140996 45.5649063596139996 28.1128704123049964
 31.0046058067141033 45.5649063596139996 28.1128704123049964
 -26.7767095855641273 48.0059331773597151 28.1128704123049964
  5.6371392894093386 40.6829991828024689 28.1128704123049964
 -8.4557943386306622 40.6829991828024689 28.1128704123049964
 60.5998848676675763 38.2419723650567462 28.1128704123049964
 25.3673393011282471 50.4468867657654769 28.1128704123049964
 -31.0046066465175976 55.3288671719169614 28.1128704123049964
 29.5952787223228171 33.3600651882452155 28.1128704123049964
 35.2324183503628063 33.3600651882452155 28.1128704123049964
 43.6882967457606384 52.8878403541712458 28.1128704123049964
 40.8696425363428091 33.3600651882452155 28.1128704123049964
 57.7812305363428109 33.3600651882452155 28.1128704123049964
 38.0510725597806356 52.8878403541712458 28.1128704123049964
 63.4184547223228137 33.3600651882452155 28.1128704123049964
 21.1394845597806302 52.8878403541712458 28.1128704123049964
  2.8186117949951930 35.8010187766509844 28.1128704123049964
  9.8651207457606311 52.8878403541712458 28.1128704123049964
 11.2744057949951930 35.8010187766509844 28.1128704123049964
 14.0929756090151947 35.8010187766509844 28.1128704123049964
  4.2278967223228134 33.3600651882452155 28.1128704123049964
  7.0464663738006301 52.8878403541712458 28.1128704123049964
 -7.0464672542393672 52.8878403541712458 28.1128704123049964
 50.7347214230351895 35.8010187766509844 28.1128704123049964
 -9.8651216261993682 52.8878403541712458 28.1128704123049964
 -18.3209155042924259 38.2419723650567462 28.1128704123049964
 -26.7767096261993700 52.8878403541712458 28.1128704123049964
 47.9161514871082517 50.4468867657654769 28.1128704123049964
 23.9580964902278346 72.4156887494372228 28.1128704123049964
 23.9580544957075787 38.2419723650567462 28.1128704123049964
 45.0975816730882570 50.4468867657654769 28.1128704123049964
 26.7767088676675797 38.2419723650567462 28.1128704123049964
 38.0510726816875717 38.2419723650567462 28.1128704123049964
 42.2789273011282489 50.4468867657654769 28.1128704123049964
 43.6882968676675674 38.2419723650567462 28.1128704123049964
 25.3673394230351938 35.8010187766509844 28.1128704123049964
  4.2278968442297478 18.7141971991307194 28.1128704123049964
 47.9161938067141051 45.5649063596139996 28.1128704123049964
 29.5952784785089271 62.6518011664742076 28.1128704123049964
 28.1859517192032243 11.3912632045734714 28.1128704123049964
 33.8231759051832199 11.3912632045734714 28.1128704123049964
  5.6371818528290705  6.5092827984219914 28.1128704123049964
 36.6417457192032217 11.3912632045734714 28.1128704123049964
 36.6417452315754701 69.9747351610314468 28.1128704123049964
 45.0975397192032190 11.3912632045734714 28.1128704123049964
  2.8186120388090696  6.5092827984219914 28.1128704123049964
 62.0091277192032209 11.3912632045734714 28.1128704123049964
 -40.8696856957521533 72.4156887494372228 28.1128704123049964
 74.6928187801566850  4.0683292100162243 28.1128704123049964
 57.7812307801566902  4.0683292100162243 28.1128704123049964
 67.6463519051832236 11.3912632045734714 28.1128704123049964
 -9.8651217481063078 67.5337083432857384 28.1128704123049964
 -29.5953218817321577 72.4156887494372228 28.1128704123049964
 -15.5022613761463042 67.5337083432857384 28.1128704123049964
 -4.2279393941043990 13.8322167929792403 28.1128704123049964
 12.6836909255014501  8.9502363868277595 28.1128704123049964
  9.8650787918756002 13.8322167929792403 28.1128704123049964
 -21.1395278817321568 72.4156887494372228 28.1128704123049964
 26.7766245941766883  4.0683292100162243 28.1128704123049964
 12.6836486058956019 13.8322167929792403 28.1128704123049964
 16.9115456668490722  6.5092827984219914 28.1128704123049964
 16.9115879051832216 11.3912632045734714 28.1128704123049964
 25.3673396668490696  6.5092827984219914 28.1128704123049964
 40.8696422518936870 67.5337083432857384 28.1128704123049964
 23.9580547395214474  8.9502363868277595 28.1128704123049964
  1.4093271114814494  8.9502363868277595 28.1128704123049964
  2.8185692315754580 69.9747351610314468 28.1128704123049964
 26.7767091114814519  8.9502363868277595 28.1128704123049964
 -2.8186549544045376 69.9747351610314468 28.1128704123049964
 11.2743632315754621 69.9747351610314468 28.1128704123049964
 29.5952789255014537  8.9502363868277595 28.1128704123049964
 -4.2278970744985491  8.9502363868277595 28.1128704123049964
 73.2835338528290663  6.5092827984219914 28.1128704123049964
 46.5068669255014484  8.9502363868277595 28.1128704123049964
 15.5023029778556030 13.8322167929792403 28.1128704123049964
 49.3254367395214430  8.9502363868277595 28.1128704123049964
 59.1905156668490591  6.5092827984219914 28.1128704123049964
 -33.8231765824445318 69.9747351610314468 28.1128704123049964
 22.5487270455954629 69.9747351610314468 28.1128704123049964
 45.0975820388090725  6.5092827984219914 28.1128704123049964
 -36.6418309544045329 69.9747351610314468 28.1128704123049964
 11.2743637192032189 11.3912632045734714 28.1128704123049964
 31.0045210455954674 69.9747351610314468 28.1128704123049964
 31.0045638528290759  6.5092827984219914 28.1128704123049964
 28.1859940388090742  6.5092827984219914 28.1128704123049964
 14.0929335332232206 11.3912632045734714 28.1128704123049964
 67.6463096668490635  6.5092827984219914 28.1128704123049964
  4.2278969661366892  4.0683292100162243 28.1128704123049964
 -21.1394855621263069 67.5337083432857384 28.1128704123049964
 19.7301576785679771 16.2731703813850075 28.1128704123049964
 14.0929753652013119 65.0927547548799765 28.1128704123049964
  5.6372240505279780 16.2731703813850075 28.1128704123049964
  8.4557511792213162 65.0927547548799765 28.1128704123049964
  1.4092425941766900  4.0683292100162243 28.1128704123049964
  7.0465084902278479 72.4156887494372228 28.1128704123049964
 -0.0000428207786890 65.0927547548799765 28.1128704123049964
 -5.6371824488186855 65.0927547548799765 28.1128704123049964
 25.3673818645479834 16.2731703813850075 28.1128704123049964
 59.1905579864549196  1.6273023922705114 28.1128704123049964
 36.6417458004749221  1.6273023922705114 28.1128704123049964
 42.2789698645479817 16.2731703813850075 28.1128704123049964
 47.9161940505279844 16.2731703813850075 28.1128704123049964
  9.8650783042478416 72.4156887494372228 28.1128704123049964
 56.3719880505279747 16.2731703813850075 28.1128704123049964
 43.6882121065489244 62.6518011664742076 28.1128704123049964
 59.1905578645479835 16.2731703813850075 28.1128704123049964
 21.1394421182678336 72.4156887494372228 28.1128704123049964
 16.9115879864549186  1.6273023922705114 28.1128704123049964
 -28.1859946347986892 65.0927547548799765 28.1128704123049964
 -9.8650795097721549 72.4156887494372228 28.1128704123049964
  8.4557934175554603 69.9747351610314468 28.1128704123049964
 78.9207158004749090  1.6273023922705114 28.1128704123049964
 35.2324607918756030 13.8322167929792403 28.1128704123049964
 -15.5023036957521541 72.4156887494372228 28.1128704123049964
 52.1440487918755977 13.8322167929792403 28.1128704123049964
 38.0510306058956047 13.8322167929792403 28.1128704123049964
 22.5487693652013093 65.0927547548799765 28.1128704123049964
 36.6417875511813165 65.0927547548799765 28.1128704123049964
 53.5534179791490246 47.1922087518845075 28.6327538495249954
 -8.4557943928109793 47.1922087518845075 28.6327538495249954
 -19.7302005264368283 52.0741891580359919 28.6327538495249954
 -25.3673825959896213 71.6020375533019688 28.6327538495249954
 -11.2744065264368292 52.0741891580359919 28.6327538495249954
 -12.6836914131292051 49.6332355696302230 28.6327538495249954
 -8.4557521544768282 52.0741891580359919 28.6327538495249954
 -39.4604007819696179 71.6020375533019688 28.6327538495249954
 -19.7301582068309784 47.1922087518845075 28.6327538495249954
 -16.9115885959896168 71.6020375533019688 28.6327538495249954
 -22.5487280208509766 47.1922087518845075 28.6327538495249954
 -25.3673823928109776 47.1922087518845075 28.6327538495249954
 -21.1394854131292078 49.6332355696302230 28.6327538495249954
 22.5488115899903860 71.6020375533019688 28.6327538495249954
  8.4558358455231772 52.0741891580359919 28.6327538495249954
  9.8651206103086064 69.1610107355562462 28.6327538495249954
 57.7812727204966521 44.7512551634787386 28.6327538495249954
 21.1394844243286215 69.1610107355562462 28.6327538495249954
 -19.7301584100096186 71.6020375533019688 28.6327538495249954
 -2.8185702068309761 47.1922087518845075 28.6327538495249954
  8.4557934040103735 71.6020375533019688 28.6327538495249954
 31.0046057931690235 47.1922087518845075 28.6327538495249954
 38.0510724243286234 69.1610107355562462 28.6327538495249954
 23.9580544008907985 49.6332355696302230 28.6327538495249954
  9.8651207728507995 49.6332355696302230 28.6327538495249954
 -36.6417464100096169 71.6020375533019688 28.6327538495249954
  2.8185692180303707 71.6020375533019688 28.6327538495249954
 26.7767087728507853 49.6332355696302230 28.6327538495249954
 28.1860359791490147 47.1922087518845075 28.6327538495249954
 29.5952785868707942 49.6332355696302230 28.6327538495249954
 46.5068665868708067 49.6332355696302230 28.6327538495249954
  7.0464664008907913 49.6332355696302230 28.6327538495249954
 -11.2743644100096230 71.6020375533019688 28.6327538495249954
 33.8231756071890288 47.1922087518845075 28.6327538495249954
 11.2744479791490271 47.1922087518845075 28.6327538495249954
 43.6882967728507978 49.6332355696302230 28.6327538495249954
 35.2325026103086287 69.1610107355562462 28.6327538495249954
 42.2789696071890333 47.1922087518845075 28.6327538495249954
  8.4557936071890190 47.1922087518845075 28.6327538495249954
 -14.0930187819696204 71.6020375533019688 28.6327538495249954
 -0.0000003928109814 47.1922087518845075 28.6327538495249954
  5.6372235899903860 71.6020375533019688 28.6327538495249954
 56.3719877931690334 47.1922087518845075 28.6327538495249954
 -7.0464672677844442 54.5151427464417537 28.6327538495249954
 25.3674238455231631 52.0741891580359919 28.6327538495249954
 21.1394844649638500 64.2791035587447084 28.6327538495249954
 15.5023025985896936 59.3971231525932382 28.6327538495249954
 12.6837327845697061 59.3971231525932382 28.6327538495249954
 23.9580542789838589 64.2791035587447084 28.6327538495249954
  1.4092844126096999 59.3971231525932382 28.6327538495249954
 35.2325026509438644 64.2791035587447084 28.6327538495249954
 -1.4092854014103018 59.3971231525932382 28.6327538495249954
 -15.5023035873902977 59.3971231525932382 28.6327538495249954
 38.0510724649638732 64.2791035587447084 28.6327538495249954
 -18.3208734014102959 59.3971231525932382 28.6327538495249954
 43.6882966509438617 64.2791035587447084 28.6327538495249954
 -21.1394432154303011 59.3971231525932382 28.6327538495249954
 -23.9580975873902986 59.3971231525932382 28.6327538495249954
 -33.8231342763837688 66.7200571471504844 28.6327538495249954
 -26.7766674014102968 59.3971231525932382 28.6327538495249954
 26.7766664126097069 59.3971231525932382 28.6327538495249954
 29.5953207845697079 59.3971231525932382 28.6327538495249954
  9.8651206509438563 64.2791035587447084 28.6327538495249954
  1.4093266509438596 64.2791035587447084 28.6327538495249954
 25.3673814852820882 61.8380767409990000 28.6327538495249954
 22.5488116712620865 61.8380767409990000 28.6327538495249954
 11.2744478572420874 61.8380767409990000 28.6327538495249954
  8.4557934852820722 61.8380767409990000 28.6327538495249954
 31.0046056712620839 61.8380767409990000 28.6327538495249954
 42.2789694852820901 61.8380767409990000 28.6327538495249954
 -0.0000005147179177 61.8380767409990000 28.6327538495249954
 50.7347635259173302 56.9561695641874692 28.6327538495249954
 45.0976238572420840 61.8380767409990000 28.6327538495249954
 -26.7767097210161431 64.2791035587447084 28.6327538495249954
 -19.7301583287379145 61.8380767409990000 28.6327538495249954
 -22.5487281427579163 61.8380767409990000 28.6327538495249954
 -7.0464673490561447 64.2791035587447084 28.6327538495249954
 -25.3673825147179137 61.8380767409990000 28.6327538495249954
 46.5069087845697027 59.3971231525932382 28.6327538495249954
 43.6882544126097088 59.3971231525932382 28.6327538495249954
 -11.2743643287379136 61.8380767409990000 28.6327538495249954
 22.5487694735631763 52.0741891580359919 28.6327538495249954
 36.6417453399373301 56.9561695641874692 28.6327538495249954
 31.0046057118973302 56.9561695641874692 28.6327538495249954
 -38.0510735756713814 69.1610107355562462 28.6327538495249954
  7.0465509181955595 54.5151427464417537 28.6327538495249954
  1.4093267322155492 54.5151427464417537 28.6327538495249954
 -35.2324192037113804 69.1610107355562462 28.6327538495249954
 28.1860358572420893 61.8380767409990000 28.6327538495249954
 -32.4138493896913857 69.1610107355562462 28.6327538495249954
 -18.3208312037113821 69.1610107355562462 28.6327538495249954
 -15.5022613896913821 69.1610107355562462 28.6327538495249954
 -9.8650370818044468 54.5151427464417537 28.6327538495249954
 -12.6836915756713875 69.1610107355562462 28.6327538495249954
 -7.0464673896913883 69.1610107355562462 28.6327538495249954
 47.9161514735631755 52.0741891580359919 28.6327538495249954
 -4.2278975756713866 69.1610107355562462 28.6327538495249954
 42.2790118455231720 52.0741891580359919 28.6327538495249954
 36.6417876595431693 52.0741891580359919 28.6327538495249954
 15.5023449181955559 54.5151427464417537 28.6327538495249954
 18.3209147322155452 54.5151427464417537 28.6327538495249954
 38.0510725462355595 54.5151427464417537 28.6327538495249954
 52.1440907322155596 54.5151427464417537 28.6327538495249954
 16.9115875259173158 56.9561695641874692 28.6327538495249954
 -8.4557522763837714 66.7200571471504844 28.6327538495249954
 14.0930177118973283 56.9561695641874692 28.6327538495249954
 11.2743633399373131 56.9561695641874692 28.6327538495249954
  8.4557935259173256 56.9561695641874692 28.6327538495249954
  2.8185693399373224 56.9561695641874692 28.6327538495249954
 -0.0000004740826793 56.9561695641874692 28.6327538495249954
 -31.0045644623637671 66.7200571471504844 28.6327538495249954
 -5.6371824623637705 66.7200571471504844 28.6327538495249954
  8.4558357236162376 66.7200571471504844 28.6327538495249954
 -19.7301582881026789 56.9561695641874692 28.6327538495249954
 22.5487693516562366 66.7200571471504844 28.6327538495249954
 -28.1859522881026763 56.9561695641874692 28.6327538495249954
 36.6417875376362474 66.7200571471504844 28.6327538495249954
 -31.0046066600626737 56.9561695641874692 28.6327538495249954
 39.4603573516562420 66.7200571471504844 28.6327538495249954
 -11.2743642881026744 56.9561695641874692 28.6327538495249954
 12.6837332721974576  0.8136511961352557 28.6327538495249954
 14.0929755954701115 37.4283211689214923 28.6327538495249954
 35.2324605345166475 44.7512551634787386 28.6327538495249954
 74.6928609643105261 15.4595191852497500 28.6327538495249954
 69.0556367783305234 15.4595191852497500 28.6327538495249954
 57.7812729643105243 15.4595191852497500 28.6327538495249954
 54.9627031502905297 15.4595191852497500 28.6327538495249954
 40.8696849643105153 15.4595191852497500 28.6327538495249954
 38.0511151502905278 15.4595191852497500 28.6327538495249954
 35.2324607783305126 15.4595191852497500 28.6327538495249954
 23.9580969643105171 15.4595191852497500 28.6327538495249954
 21.1395271502905153 15.4595191852497500 28.6327538495249954
 18.3208727783305179 15.4595191852497500 28.6327538495249954
  7.0465089643105223 15.4595191852497500 28.6327538495249954
  4.2279391502905188 15.4595191852497500 28.6327538495249954
 -4.2278548497094786 15.4595191852497500 28.6327538495249954
 67.6463518916381474 13.0185655968439828 28.6327538495249954
 53.5533337056581473 13.0185655968439828 28.6327538495249954
 39.4604000776181465 13.0185655968439828 28.6327538495249954
 36.6417457056581313 13.0185655968439828 28.6327538495249954
 33.8231758916381438 13.0185655968439828 28.6327538495249954
 19.7301577056581365 13.0185655968439828 28.6327538495249954
 16.9115878916381419 13.0185655968439828 28.6327538495249954
 14.0930180776181420 13.0185655968439828 28.6327538495249954
 -2.8185699630171004 17.9004727736555189 28.6327538495249954
 11.2743637056581409 13.0185655968439828 28.6327538495249954
  2.8186542229628988 17.9004727736555189 28.6327538495249954
 19.7302422229628966 17.9004727736555189 28.6327538495249954
 33.8232180893370540 22.7824531798069998 28.6327538495249954
 31.0045637173770388 22.7824531798069998 28.6327538495249954
 19.7301999033570468 22.7824531798069998 28.6327538495249954
 14.0929757173770476 22.7824531798069998 28.6327538495249954
 11.2744059033570529 22.7824531798069998 28.6327538495249954
  5.6371817173770493 22.7824531798069998 28.6327538495249954
 -11.2744062826229499 22.7824531798069998 28.6327538495249954
 66.2370246447046753 20.3414995914012344 28.6327538495249954
 57.7812306447046780 20.3414995914012344 28.6327538495249954
 49.3254366447046735 20.3414995914012344 28.6327538495249954
 46.5068668306846718 20.3414995914012344 28.6327538495249954
 29.5952788306846699 20.3414995914012344 28.6327538495249954
 21.1394848306846654 20.3414995914012344 28.6327538495249954
  4.2278968306846716 20.3414995914012344 28.6327538495249954
 -4.2278971693153311 20.3414995914012344 28.6327538495249954
 73.2835760369829075 17.9004727736555189 28.6327538495249954
 59.1905578510029073 17.9004727736555189 28.6327538495249954
 56.3719880369828985 17.9004727736555189 28.6327538495249954
 47.9161940369829011 17.9004727736555189 28.6327538495249954
 45.0976242229628923 17.9004727736555189 28.6327538495249954
 22.5488120369828984 17.9004727736555189 28.6327538495249954
  5.6372240369829028 17.9004727736555189 28.6327538495249954
 -2.8185699223818586 13.0185655968439828 28.6327538495249954
 -5.6372242943418591 13.0185655968439828 28.6327538495249954
 69.0556790979363768 10.5775387790982709 28.6327538495249954
  4.2278969525916086  5.6956316022867357 28.6327538495249954
  1.4093271385716108  5.6956316022867357 28.6327538495249954
 78.9208003448698463  3.2546047845410229 28.6327538495249954
 73.2835761588898578  3.2546047845410229 28.6327538495249954
 59.1905579729098434  3.2546047845410229 28.6327538495249954
 56.3719881588898417  3.2546047845410229 28.6327538495249954
 39.4604001588898399  3.2546047845410229 28.6327538495249954
 36.6418303448698452  3.2546047845410229 28.6327538495249954
 16.9115879729098388  3.2546047845410229 28.6327538495249954
 14.0930181588898407  3.2546047845410229 28.6327538495249954
 80.3300852721974650  0.8136511961352557 28.6327538495249954
 71.8742912721974676  0.8136511961352557 28.6327538495249954
 69.0556369002374737  0.8136511961352557 28.6327538495249954
 60.5998429002374621  0.8136511961352557 28.6327538495249954
 57.7812730862174604  0.8136511961352557 28.6327538495249954
 49.3254790862174488  0.8136511961352557 28.6327538495249954
 46.5069092721974613  0.8136511961352557 28.6327538495249954
 38.0511152721974639  0.8136511961352557 28.6327538495249954
 26.7766669002374584  0.8136511961352557 28.6327538495249954
 18.3208729002374611  0.8136511961352557 28.6327538495249954
 15.5023030862174611  0.8136511961352557 28.6327538495249954
 26.7767091385716043  5.6956316022867357 28.6327538495249954
 43.6882971385716132  5.6956316022867357 28.6327538495249954
 57.7812307666116141  5.6956316022867357 28.6327538495249954
 69.0556791385716195  5.6956316022867357 28.6327538495249954
 66.2371092839163680 10.5775387790982709 28.6327538495249954
 63.4184549119563812 10.5775387790982709 28.6327538495249954
 46.5068669119563793 10.5775387790982709 28.6327538495249954
 38.0510729119563607 10.5775387790982709 28.6327538495249954
 35.2325030979363731 10.5775387790982709 28.6327538495249954
 26.7767090979363651 10.5775387790982709 28.6327538495249954
 15.5023452839163713 10.5775387790982709 28.6327538495249954
 12.6836909119563703 10.5775387790982709 28.6327538495249954
 -1.4092427160836287 10.5775387790982709 28.6327538495249954
 -4.2278970880436288 10.5775387790982709 28.6327538495249954
 47.9161517173770548 22.7824531798069998 28.6327538495249954
 70.4649640252639955  8.1365851906925037 28.6327538495249954
 64.8277398392839928  8.1365851906925037 28.6327538495249954
 59.1906002112439964  8.1365851906925037 28.6327538495249954
 47.9161518392839980  8.1365851906925037 28.6327538495249954
 45.0975820252639821  8.1365851906925037 28.6327538495249954
 31.0045638392839891  8.1365851906925037 28.6327538495249954
 28.1859940252639873  8.1365851906925037 28.6327538495249954
 25.3674242112439856  8.1365851906925037 28.6327538495249954
  8.4558362112439873  8.1365851906925037 28.6327538495249954
  2.8186120252639890  8.1365851906925037 28.6327538495249954
 -2.8186121607160102  8.1365851906925037 28.6327538495249954
 67.6463942112439867  8.1365851906925037 28.6327538495249954
 54.9627029064766432 44.7512551634787386 28.6327538495249954
 50.7348060893370558 22.7824531798069998 28.6327538495249954
 67.6463940893370506 22.7824531798069998 28.6327538495249954
 21.1394846681424795 39.8692747573272612 28.6327538495249954
 12.6836906681424875 39.8692747573272612 28.6327538495249954
  7.0465510401024849 39.8692747573272612 28.6327538495249954
 -9.8650369598975125 39.8692747573272612 28.6327538495249954
 59.1905999674301100 37.4283211689214923 28.6327538495249954
 50.7348059674301126 37.4283211689214923 28.6327538495249954
 47.9161515954701187 37.4283211689214923 28.6327538495249954
 42.2790119674301152 37.4283211689214923 28.6327538495249954
 28.1859937814501045 37.4283211689214923 28.6327538495249954
 25.3674239674301170 37.4283211689214923 28.6327538495249954
  0.0000419674301133 37.4283211689214923 28.6327538495249954
 -2.8186124045298877 37.4283211689214923 28.6327538495249954
 -14.0929762185498877 37.4283211689214923 28.6327538495249954
 -16.9115460325698876 37.4283211689214923 28.6327538495249954
 -19.7302004045298887 37.4283211689214923 28.6327538495249954
 57.7812305227977419 34.9873675805157234 28.6327538495249954
 52.1440908947577384 34.9873675805157234 28.6327538495249954
 35.2325028947577295 34.9873675805157234 28.6327538495249954
 23.9580545227977240 34.9873675805157234 28.6327538495249954
 12.6836907087777320 34.9873675805157234 28.6327538495249954
  4.2278967087777302 34.9873675805157234 28.6327538495249954
 23.9581390401024947 39.8692747573272612 28.6327538495249954
  1.4093268947577322 34.9873675805157234 28.6327538495249954
 43.6882968541224912 39.8692747573272612 28.6327538495249954
 49.3255210401024939 39.8692747573272612 28.6327538495249954
 32.4138907204966458 44.7512551634787386 28.6327538495249954
 18.3208725345166314 44.7512551634787386 28.6327538495249954
 15.5023027204966439 44.7512551634787386 28.6327538495249954
 12.6837329064766493 44.7512551634787386 28.6327538495249954
  1.4092845345166412 44.7512551634787386 28.6327538495249954
 -1.4092852795033535 44.7512551634787386 28.6327538495249954
 -4.2278550935233552 44.7512551634787386 28.6327538495249954
 -12.6836490935233588 44.7512551634787386 28.6327538495249954
 -21.1394430935233544 44.7512551634787386 28.6327538495249954
 59.1905576478242708 42.3103015750729767 28.6327538495249954
 50.7347636478242734 42.3103015750729767 28.6327538495249954
 45.0975394618442706 42.3103015750729767 28.6327538495249954
 39.4603998338042672 42.3103015750729767 28.6327538495249954
 36.6417454618442662 42.3103015750729767 28.6327538495249954
 22.5488118338042653 42.3103015750729767 28.6327538495249954
 19.7301574618442501 42.3103015750729767 28.6327538495249954
 16.9115876478242626 42.3103015750729767 28.6327538495249954
 -0.0000003521757358 42.3103015750729767 28.6327538495249954
 -2.8185701661957374 42.3103015750729767 28.6327538495249954
 -14.0930185381557376 42.3103015750729767 28.6327538495249954
 -16.9115883521757375 42.3103015750729767 28.6327538495249954
 46.5068666681425000 39.8692747573272612 28.6327538495249954
 -1.4093274772022688 34.9873675805157234 28.6327538495249954
 -9.8651214772022673 34.9873675805157234 28.6327538495249954
 -15.5022611052422672 34.9873675805157234 28.6327538495249954
 31.0046059557112059 27.6644335859584807 28.6327538495249954
 28.1859515837511907 27.6644335859584807 28.6327538495249954
 14.0930179557111952 27.6644335859584807 28.6327538495249954
 11.2743635837511977 27.6644335859584807 28.6327538495249954
  2.8185695837512008 27.6644335859584807 28.6327538495249954
 -2.8185700442888009 27.6644335859584807 28.6327538495249954
 69.0556789760294407 25.2234067682127652 28.6327538495249954
 66.2371091620094319 25.2234067682127652 28.6327538495249954
 49.3255211620094371 25.2234067682127652 28.6327538495249954
 46.5068667900494361 25.2234067682127652 28.6327538495249954
 38.0510727900494388 25.2234067682127652 28.6327538495249954
 35.2325029760294228 25.2234067682127652 28.6327538495249954
 32.4139331620094353 25.2234067682127652 28.6327538495249954
 29.5952787900494201 25.2234067682127652 28.6327538495249954
 23.9581391620094379 25.2234067682127652 28.6327538495249954
 21.1394847900494298 25.2234067682127652 28.6327538495249954
 15.5023451620094264 25.2234067682127652 28.6327538495249954
 12.6836907900494289 25.2234067682127652 28.6327538495249954
  4.2278967900494315 25.2234067682127652 28.6327538495249954
  1.4093269760294336 25.2234067682127652 28.6327538495249954
 -9.8650368379905675 25.2234067682127652 28.6327538495249954
 39.4603999557111962 27.6644335859584807 28.6327538495249954
 42.2789697697312050 27.6644335859584807 28.6327538495249954
 56.3719879557112051 27.6644335859584807 28.6327538495249954
 59.1905577697312140 27.6644335859584807 28.6327538495249954
 59.1905577290959641 32.5463407627700150 28.6327538495249954
 42.2789697290959623 32.5463407627700150 28.6327538495249954
 39.4603999150759606 32.5463407627700150 28.6327538495249954
 36.6418301010559517 32.5463407627700150 28.6327538495249954
 14.0930179150759578 32.5463407627700150 28.6327538495249954
 11.2744481010559561 32.5463407627700150 28.6327538495249954
  5.6372239150759640 32.5463407627700150 28.6327538495249954
 -5.6371398989440404 32.5463407627700150 28.6327538495249954
 -8.4557942709040379 32.5463407627700150 28.6327538495249954
 -11.2743640849240396 32.5463407627700150 28.6327538495249954
 64.8277397173770566 22.7824531798069998 28.6327538495249954
 66.2370668424035927 30.1053871743642461 28.6327538495249954
 57.7812728424035953 30.1053871743642461 28.6327538495249954
 54.9627030283835865 30.1053871743642461 28.6327538495249954
 43.6882546564235881 30.1053871743642461 28.6327538495249954
 40.8696848424035863 30.1053871743642461 28.6327538495249954
 26.7766666564235685 30.1053871743642461 28.6327538495249954
 23.9580968424035810 30.1053871743642461 28.6327538495249954
 21.1395270283835863 30.1053871743642461 28.6327538495249954
 12.6837330283835765 30.1053871743642461 28.6327538495249954
 -9.8650791575964192 30.1053871743642461 28.6327538495249954
 67.6463517697312113 27.6644335859584807 28.6327538495249954
 60.5998426564235899 30.1053871743642461 28.6327538495249954
 31.0046055899903834 71.6020375533019688 28.6327538495249954
