 H  O 
 1.0000000000000000
    84.5579400000000021    0.0000000000000000    0.0000000000000000
   -42.2789706095346958   73.2293399455724767    0.0000000000000000
     0.0000000000000000    0.0000000000000000   46.9039550000000034
 H   O  
 188 331
Cartesian
 -0.0000000135450799  1.6273023922705114 28.1128704123049964
 40.8696425363428091 33.3600651882452155 28.1128704123049964
 49.3254365363428136 33.3600651882452155 28.1128704123049964
 57.7812305363428109 33.3600651882452155 28.1128704123049964
 60.5998003503628055 33.3600651882452155 28.1128704123049964
 63.4184547223228137 33.3600651882452155 28.1128704123049964
 -8.4558365769648098 35.8010187766509844 28.1128704123049964
 -2.8186123909848098 35.8010187766509844 28.1128704123049964
 16.9115454230351894 35.8010187766509844 28.1128704123049964
 28.1859937949951949 35.8010187766509844 28.1128704123049964
 39.4603576090151904 35.8010187766509844 28.1128704123049964
 42.2789274230351850 35.8010187766509844 28.1128704123049964
 -1.4093275042924258 38.2419723650567462 28.1128704123049964
 29.5952786816875744 38.2419723650567462 28.1128704123049964
 32.4138484957075690 38.2419723650567462 28.1128704123049964
  1.4092423503628120 33.3600651882452155 28.1128704123049964
  5.6371392894093386 40.6829991828024689 28.1128704123049964
 19.7301574753893405 40.6829991828024689 28.1128704123049964
 25.3673816613693432 40.6829991828024689 28.1128704123049964
 47.9161092894093343 40.6829991828024689 28.1128704123049964
 50.7347636613693425 40.6829991828024689 28.1128704123049964
 -18.3208732659582765 43.1239527712082307 28.1128704123049964
  4.2278543620817208 43.1239527712082307 28.1128704123049964
  7.0465087340417254 43.1239527712082307 28.1128704123049964
 43.6882545480617210 43.1239527712082307 28.1128704123049964
 54.9626183620817130 43.1239527712082307 28.1128704123049964
 -22.5488125652458997 45.5649063596139996 28.1128704123049964
 -19.7301581932858987 45.5649063596139996 28.1128704123049964
 -8.4557943792659014 45.5649063596139996 28.1128704123049964
 -2.8185701932858982 45.5649063596139996 28.1128704123049964
 11.2743634347540986 45.5649063596139996 28.1128704123049964
  8.4557936613693432 40.6829991828024689 28.1128704123049964
 39.4603998067140935 45.5649063596139996 28.1128704123049964
 59.1905577426410403 30.9190383704995000 28.1128704123049964
 31.0046059286210465 30.9190383704995000 28.1128704123049964
 22.5487697309221353 21.1551507875364884 28.1128704123049964
 33.8231335449421309 21.1551507875364884 28.1128704123049964
 36.6417879169021319 21.1551507875364884 28.1128704123049964
 -12.6836911964054888 23.5961043759422537 28.1128704123049964
 -7.0464670104254905 23.5961043759422537 28.1128704123049964
 -4.2278971964054897 23.5961043759422537 28.1128704123049964
 35.2325029895745132 23.5961043759422537 28.1128704123049964
 43.6882969895745106 23.5961043759422537 28.1128704123049964
 60.5998849895745124 23.5961043759422537 28.1128704123049964
 -5.6372244027037182 26.0371311936879657 28.1128704123049964
 -2.8186545886837178 26.0371311936879657 28.1128704123049964
 22.5487274113162819 26.0371311936879657 28.1128704123049964
 33.8231757832762838 26.0371311936879657 28.1128704123049964
 36.6417455972962784 26.0371311936879657 28.1128704123049964
 56.3719879286210457 30.9190383704995000 28.1128704123049964
 39.4603154113162731 26.0371311936879657 28.1128704123049964
 64.8276974113162794 26.0371311936879657 28.1128704123049964
 -15.5023033300313369 28.4780847820937346 28.1128704123049964
 -1.4092851440513405 28.4780847820937346 28.1128704123049964
  7.0465088559486642 28.4780847820937346 28.1128704123049964
 12.6836484839886605 28.4780847820937346 28.1128704123049964
 23.9580968559486607 28.4780847820937346 28.1128704123049964
 26.7766666699686624 28.4780847820937346 28.1128704123049964
 46.5068244839886518 28.4780847820937346 28.1128704123049964
 49.3254788559486528 28.4780847820937346 28.1128704123049964
 60.5998426699686590 28.4780847820937346 28.1128704123049964
 -16.9115882573589573 30.9190383704995000 28.1128704123049964
 -11.2743640713789581 30.9190383704995000 28.1128704123049964
  8.4557937426410454 30.9190383704995000 28.1128704123049964
 16.9115877426410464 30.9190383704995000 28.1128704123049964
 53.5533335972962803 26.0371311936879657 28.1128704123049964
  5.6371817309221299 21.1551507875364884 28.1128704123049964
 47.9161938067141051 45.5649063596139996 28.1128704123049964
 15.5022604144358738 48.0059331773597151 28.1128704123049964
 -35.2325037074710679 62.6518011664742076 28.1128704123049964
 -26.7767097074710669 62.6518011664742076 28.1128704123049964
 -7.0465518934510678 62.6518011664742076 28.1128704123049964
 -4.2278975214910632 62.6518011664742076 28.1128704123049964
  4.2278964785089341 62.6518011664742076 28.1128704123049964
 38.0510724785089351 62.6518011664742076 28.1128704123049964
 43.6882121065489244 62.6518011664742076 28.1128704123049964
 46.5068664785089325 62.6518011664742076 28.1128704123049964
 -36.6417886347986865 65.0927547548799765 28.1128704123049964
 -33.8232188207786848 65.0927547548799765 28.1128704123049964
 -28.1859946347986892 65.0927547548799765 28.1128704123049964
 -16.9116308207786865 65.0927547548799765 28.1128704123049964
 11.2744055511813173 65.0927547548799765 28.1128704123049964
 16.9115451792213065 65.0927547548799765 28.1128704123049964
 28.1859513128471555 60.2107743487284921 28.1128704123049964
 28.1859935511813049 65.0927547548799765 28.1128704123049964
 -1.4093277481063067 67.5337083432857384 28.1128704123049964
 35.2325026238536978 67.5337083432857384 28.1128704123049964
 -31.0046067684245337 69.9747351610314468 28.1128704123049964
 -16.9115885824445336 69.9747351610314468 28.1128704123049964
 -14.0930187684245301 69.9747351610314468 28.1128704123049964
 -2.8186549544045376 69.9747351610314468 28.1128704123049964
 19.7301572315754683 69.9747351610314468 28.1128704123049964
 25.3673814175554639 69.9747351610314468 28.1128704123049964
 39.4603150455954648 69.9747351610314468 28.1128704123049964
 -40.8696856957521533 72.4156887494372228 28.1128704123049964
 -32.4138916957521559 72.4156887494372228 28.1128704123049964
 -29.5953218817321577 72.4156887494372228 28.1128704123049964
 -1.4092855097721566 72.4156887494372228 28.1128704123049964
 38.0510301182678390 72.4156887494372228 28.1128704123049964
 -15.5022613761463042 67.5337083432857384 28.1128704123049964
 50.7347636207340997 45.5649063596139996 28.1128704123049964
 19.7301573128471581 60.2107743487284921 28.1128704123049964
 -5.6372246871528393 60.2107743487284921 28.1128704123049964
 23.9580544144358711 48.0059331773597151 28.1128704123049964
 32.4138484144358685 48.0059331773597151 28.1128704123049964
 -28.1859945128917460 50.4468867657654769 28.1128704123049964
 -0.0000426988717480 50.4468867657654769 28.1128704123049964
 19.7301996730882578 50.4468867657654769 28.1128704123049964
 50.7347213011282463 50.4468867657654769 28.1128704123049964
 -23.9580552542393690 52.8878403541712458 28.1128704123049964
 -12.6836914402193699 52.8878403541712458 28.1128704123049964
 -9.8651216261993682 52.8878403541712458 28.1128704123049964
 -1.4093276261993704 52.8878403541712458 28.1128704123049964
  1.4093267457606342 52.8878403541712458 28.1128704123049964
  7.0464663738006301 52.8878403541712458 28.1128704123049964
 12.6836905597806329 52.8878403541712458 28.1128704123049964
 15.5022603738006346 52.8878403541712458 28.1128704123049964
  8.4557934988271644 60.2107743487284921 28.1128704123049964
 26.7767087457606330 52.8878403541712458 28.1128704123049964
 40.8696423738006303 52.8878403541712458 28.1128704123049964
 46.5068665597806330 52.8878403541712458 28.1128704123049964
 -28.1860368324975958 55.3288671719169614 28.1128704123049964
 -16.9115884605376010 55.3288671719169614 28.1128704123049964
 -8.4557944605375948 55.3288671719169614 28.1128704123049964
 -23.9580975738452153 57.7698207603227232 28.1128704123049964
 15.5023026121347893 57.7698207603227232 28.1128704123049964
 23.9580966121347885 57.7698207603227232 28.1128704123049964
 32.4138906121347787 57.7698207603227232 28.1128704123049964
 38.0510302401747822 57.7698207603227232 28.1128704123049964
 49.3254786121347877 57.7698207603227232 28.1128704123049964
 -31.0046066871528367 60.2107743487284921 28.1128704123049964
 -19.7301583151928384 60.2107743487284921 28.1128704123049964
 -8.4557945011728339 60.2107743487284921 28.1128704123049964
 32.4138483738006258 52.8878403541712458 28.1128704123049964
 63.4184548442297569 18.7141971991307194 28.1128704123049964
 40.8696844902278471 72.4156887494372228 28.1128704123049964
 54.9626186058955923 13.8322167929792403 28.1128704123049964
  2.8185696785679806 16.2731703813850075 28.1128704123049964
 11.2743636785679815 16.2731703813850075 28.1128704123049964
 14.0930180505279825 16.2731703813850075 28.1128704123049964
 22.5488120505279817 16.2731703813850075 28.1128704123049964
 73.2835761724349197  1.6273023922705114 28.1128704123049964
 42.2789699051832244 11.3912632045734714 28.1128704123049964
 22.5487698528290750  6.5092827984219914 28.1128704123049964
 63.4184549661366859  4.0683292100162243 28.1128704123049964
 50.7347638645479790 16.2731703813850075 28.1128704123049964
 53.5533336785679737 16.2731703813850075 28.1128704123049964
 33.8231336668490670  6.5092827984219914 28.1128704123049964
 56.3719880505279747 16.2731703813850075 28.1128704123049964
 62.0091278004749142  1.6273023922705114 28.1128704123049964
 42.2789276668490714  6.5092827984219914 28.1128704123049964
 67.6463518645479809 16.2731703813850075 28.1128704123049964
 73.2834915332232129 11.3912632045734714 28.1128704123049964
 -2.8185699494720202 16.2731703813850075 28.1128704123049964
 16.9115456668490722  6.5092827984219914 28.1128704123049964
 32.4138487801566981  4.0683292100162243 28.1128704123049964
 12.6836486058956019 13.8322167929792403 28.1128704123049964
 35.2324607918756030 13.8322167929792403 28.1128704123049964
 77.5113885941766796  4.0683292100162243 28.1128704123049964
 60.5998005941766849  4.0683292100162243 28.1128704123049964
 -0.0000423331509293  6.5092827984219914 28.1128704123049964
 52.1440487918755977 13.8322167929792403 28.1128704123049964
 52.1440065941766875  4.0683292100162243 28.1128704123049964
 50.7347639864549222  1.6273023922705114 28.1128704123049964
 26.7767091114814519  8.9502363868277595 28.1128704123049964
  1.4092847918756004 13.8322167929792403 28.1128704123049964
 49.3254367801566929  4.0683292100162243 28.1128704123049964
 71.8742066058955942 13.8322167929792403 28.1128704123049964
 46.5068669661366982  4.0683292100162243 28.1128704123049964
 74.6928609778556023 13.8322167929792403 28.1128704123049964
 -1.4092850221444004 13.8322167929792403 28.1128704123049964
 -8.4557941354520185 16.2731703813850075 28.1128704123049964
 11.2744060388090670  6.5092827984219914 28.1128704123049964
 56.3719458528290644  6.5092827984219914 28.1128704123049964
 31.0045638528290759  6.5092827984219914 28.1128704123049964
 23.9580546582497540 18.7141971991307194 28.1128704123049964
 31.0046061724349222  1.6273023922705114 28.1128704123049964
 26.7766244722697486 18.7141971991307194 28.1128704123049964
 19.7301578004749203  1.6273023922705114 28.1128704123049964
 12.6836909255014501  8.9502363868277595 28.1128704123049964
 33.8231759864549275  1.6273023922705114 28.1128704123049964
 12.6836908442297531 18.7141971991307194 28.1128704123049964
  5.6372241724349186  1.6273023922705114 28.1128704123049964
 47.9161941724349276  1.6273023922705114 28.1128704123049964
 69.0556791114814530  8.9502363868277595 28.1128704123049964
 40.8696426582497523 18.7141971991307194 28.1128704123049964
  9.8650364722697521 18.7141971991307194 28.1128704123049964
  2.8185697192032206 11.3912632045734714 28.1128704123049964
 25.3674242112439856  8.1365851906925037 28.6327538495249954
 47.9161937931690360 47.1922087518845075 28.6327538495249954
 39.4603997931690245 47.1922087518845075 28.6327538495249954
  5.6372237118973310 56.9561695641874692 28.6327538495249954
 -0.0000004740826793 56.9561695641874692 28.6327538495249954
 76.1021459729098524  3.2546047845410229 28.6327538495249954
 21.1394845868707826 49.6332355696302230 28.6327538495249954
 23.9580544008907985 49.6332355696302230 28.6327538495249954
 -5.6372246600626781 56.9561695641874692 28.6327538495249954
 33.8231756071890288 47.1922087518845075 28.6327538495249954
 -8.4557944740826727 56.9561695641874692 28.6327538495249954
 -16.9115884740826736 56.9561695641874692 28.6327538495249954
  8.4557935259173256 56.9561695641874692 28.6327538495249954
 14.0929758392839890  8.1365851906925037 28.6327538495249954
 18.3209147728507951 49.6332355696302230 28.6327538495249954
 39.4603997118973240 56.9561695641874692 28.6327538495249954
 12.6836909525916113  5.6956316022867357 28.6327538495249954
 19.7301573399373318 56.9561695641874692 28.6327538495249954
 47.9161937118973214 56.9561695641874692 28.6327538495249954
 -19.7301582881026789 56.9561695641874692 28.6327538495249954
 15.5022604008907816 49.6332355696302230 28.6327538495249954
 22.5487698392839881  8.1365851906925037 28.6327538495249954
 25.3673815259173274 56.9561695641874692 28.6327538495249954
 31.0046057118973302 56.9561695641874692 28.6327538495249954
 -1.4093275991092098 49.6332355696302230 28.6327538495249954
 -26.7767095991092070 49.6332355696302230 28.6327538495249954
  4.2278969525916086  5.6956316022867357 28.6327538495249954
 33.8231755259173212 56.9561695641874692 28.6327538495249954
 14.0930177118973283 56.9561695641874692 28.6327538495249954
 32.4138484008907994 49.6332355696302230 28.6327538495249954
  0.0000418455231652 52.0741891580359919 28.6327538495249954
 49.3255209181955507 54.5151427464417537 28.6327538495249954
 -14.0929763404568273 52.0741891580359919 28.6327538495249954
 32.4138487666116077  5.6956316022867357 28.6327538495249954
 74.6928187666116230  5.6956316022867357 28.6327538495249954
 39.4603574735631781 52.0741891580359919 28.6327538495249954
 40.8696427666115980  5.6956316022867357 28.6327538495249954
 31.0045634735631737 52.0741891580359919 28.6327538495249954
 50.7348058455231694 52.0741891580359919 28.6327538495249954
 -11.2744065264368292 52.0741891580359919 28.6327538495249954
 25.3674238455231631 52.0741891580359919 28.6327538495249954
 16.9116298455231728 52.0741891580359919 28.6327538495249954
 60.5998851385716151  5.6956316022867357 28.6327538495249954
 52.1440911385716035  5.6956316022867357 28.6327538495249954
 14.0929754735631594 52.0741891580359919 28.6327538495249954
 54.9626609525916123  5.6956316022867357 28.6327538495249954
 71.8742489525916284  5.6956316022867357 28.6327538495249954
 38.0510725868707951 49.6332355696302230 28.6327538495249954
 11.2744060252639908  8.1365851906925037 28.6327538495249954
 -25.3673401544768282 52.0741891580359919 28.6327538495249954
 46.5068665462355568 54.5151427464417537 28.6327538495249954
 57.7812307666116141  5.6956316022867357 28.6327538495249954
 40.8697269181955534 54.5151427464417537 28.6327538495249954
 38.0510725462355595 54.5151427464417537 28.6327538495249954
 26.7767087322155568 54.5151427464417537 28.6327538495249954
  9.8651207322155532 54.5151427464417537 28.6327538495249954
 -18.3208310818044460 54.5151427464417537 28.6327538495249954
  7.0465509181955595 54.5151427464417537 28.6327538495249954
 -1.4092430818044526 54.5151427464417537 28.6327538495249954
 -4.2278974537644496 54.5151427464417537 28.6327538495249954
 -7.0464672677844442 54.5151427464417537 28.6327538495249954
 21.1394849525916122  5.6956316022867357 28.6327538495249954
 -9.8650370818044468 54.5151427464417537 28.6327538495249954
 54.9626605868708040 49.6332355696302230 28.6327538495249954
 49.3254364008908013 49.6332355696302230 28.6327538495249954
 -29.5952372154302985 59.3971231525932382 28.6327538495249954
 50.7347638510029029 17.9004727736555189 28.6327538495249954
 -18.3208734014102959 59.3971231525932382 28.6327538495249954
 39.4603573516562420 66.7200571471504844 28.6327538495249954
 36.6417875376362474 66.7200571471504844 28.6327538495249954
 49.3254790862174488  0.8136511961352557 28.6327538495249954
 33.8232177236162386 66.7200571471504844 28.6327538495249954
 31.0045633516562411 66.7200571471504844 28.6327538495249954
 19.7301995376362349 66.7200571471504844 28.6327538495249954
 16.9116297236162261 66.7200571471504844 28.6327538495249954
 11.2744055376362251 66.7200571471504844 28.6327538495249954
  8.4558357236162376 66.7200571471504844 28.6327538495249954
  2.8186115376362340 66.7200571471504844 28.6327538495249954
 -2.8186126483437688 66.7200571471504844 28.6327538495249954
 -11.2744066483437688 66.7200571471504844 28.6327538495249954
 -14.0929764623637634 66.7200571471504844 28.6327538495249954
 -28.1859946483437653 66.7200571471504844 28.6327538495249954
 -31.0045644623637671 66.7200571471504844 28.6327538495249954
 46.5068664649638706 64.2791035587447084 28.6327538495249954
 38.0510724649638732 64.2791035587447084 28.6327538495249954
 42.2790117236162359 66.7200571471504844 28.6327538495249954
 -29.5952795756713840 69.1610107355562462 28.6327538495249954
 46.5069092721974613  0.8136511961352557 28.6327538495249954
 -15.5022613896913821 69.1610107355562462 28.6327538495249954
  1.4092849002374601  0.8136511961352557 28.6327538495249954
  4.2279392721974602  0.8136511961352557 28.6327538495249954
 -2.8185704100096114 71.6020375533019688 28.6327538495249954
 -8.4557945959896212 71.6020375533019688 28.6327538495249954
 -11.2743644100096230 71.6020375533019688 28.6327538495249954
 -19.7301584100096186 71.6020375533019688 28.6327538495249954
 -22.5488127819696196 71.6020375533019688 28.6327538495249954
 -31.0046067819696169 71.6020375533019688 28.6327538495249954
 32.4138482789838704 64.2791035587447084 28.6327538495249954
 12.6837332721974576  0.8136511961352557 28.6327538495249954
 38.0510724243286234 69.1610107355562462 28.6327538495249954
 35.2325026103086287 69.1610107355562462 28.6327538495249954
 21.1395272721974621  0.8136511961352557 28.6327538495249954
 21.1394844243286215 69.1610107355562462 28.6327538495249954
 18.3209146103086198 69.1610107355562462 28.6327538495249954
  9.8651206103086064 69.1610107355562462 28.6327538495249954
 -1.4092432037113782 69.1610107355562462 28.6327538495249954
 32.4138910862174541  0.8136511961352557 28.6327538495249954
 18.3208729002374611  0.8136511961352557 28.6327538495249954
 73.2835761588898578  3.2546047845410229 28.6327538495249954
 63.4184972721974631  0.8136511961352557 28.6327538495249954
 71.8742912721974676  0.8136511961352557 28.6327538495249954
  5.6372236712620847 61.8380767409990000 28.6327538495249954
 47.9161941588898301  3.2546047845410229 28.6327538495249954
 -5.6371401427579215 61.8380767409990000 28.6327538495249954
 -8.4557945147179190 61.8380767409990000 28.6327538495249954
 -14.0929341427579153 61.8380767409990000 28.6327538495249954
 -16.9115885147179164 61.8380767409990000 28.6327538495249954
 50.7347639729098461  3.2546047845410229 28.6327538495249954
 -28.1859523287379155 61.8380767409990000 28.6327538495249954
 -31.0045221427579136 61.8380767409990000 28.6327538495249954
 38.0511147845697053 59.3971231525932382 28.6327538495249954
 53.5534183448698329  3.2546047845410229 28.6327538495249954
 26.7766664126097069 59.3971231525932382 28.6327538495249954
 23.9580965985897052 59.3971231525932382 28.6327538495249954
 59.1905579729098434  3.2546047845410229 28.6327538495249954
  7.0465085985897025 59.3971231525932382 28.6327538495249954
 62.0092123448698445  3.2546047845410229 28.6327538495249954
 -7.0465095873903012 59.3971231525932382 28.6327538495249954
  8.4557934852820722 61.8380767409990000 28.6327538495249954
 19.7302418572420777 61.8380767409990000 28.6327538495249954
 22.5488116712620865 61.8380767409990000 28.6327538495249954
 25.3673814852820882 61.8380767409990000 28.6327538495249954
 15.5022602789838597 64.2791035587447084 28.6327538495249954
 12.6836904649638509 64.2791035587447084 28.6327538495249954
  7.0464662789838490 64.2791035587447084 28.6327538495249954
  1.4093266509438596 64.2791035587447084 28.6327538495249954
 -1.4093277210161486 64.2791035587447084 28.6327538495249954
 -15.5022613490561429 64.2791035587447084 28.6327538495249954
 74.6928610862174764  0.8136511961352557 28.6327538495249954
 -23.9580553490561456 64.2791035587447084 28.6327538495249954
 26.7767086509438528 64.2791035587447084 28.6327538495249954
 -26.7767097210161431 64.2791035587447084 28.6327538495249954
 -29.5952795350361448 64.2791035587447084 28.6327538495249954
  2.8186543448698407  3.2546047845410229 28.6327538495249954
 -35.2325037210161440 64.2791035587447084 28.6327538495249954
  5.6372241588898389  3.2546047845410229 28.6327538495249954
 47.9161936712620928 61.8380767409990000 28.6327538495249954
 19.7302423448698399  3.2546047845410229 28.6327538495249954
 33.8231759729098371  3.2546047845410229 28.6327538495249954
 28.1860358572420893 61.8380767409990000 28.6327538495249954
 83.1486550862174738  0.8136511961352557 28.6327538495249954
 31.0046057931690235 47.1922087518845075 28.6327538495249954
 56.3719458392839954  8.1365851906925037 28.6327538495249954
 39.4603578392839793  8.1365851906925037 28.6327538495249954
 -15.5023033435764184 30.1053871743642461 28.6327538495249954
 -1.4092850356894804 15.4595191852497500 28.6327538495249954
  1.4092847783305213 15.4595191852497500 28.6327538495249954
 59.1905577697312140 27.6644335859584807 28.6327538495249954
 50.7347637697312024 27.6644335859584807 28.6327538495249954
 47.9161939557112078 27.6644335859584807 28.6327538495249954
 39.4603999557111962 27.6644335859584807 28.6327538495249954
 28.1859515837511907 27.6644335859584807 28.6327538495249954
 -12.6836489716164174 30.1053871743642461 28.6327538495249954
 12.6837331502905215 15.4595191852497500 28.6327538495249954
 11.2743635837511977 27.6644335859584807 28.6327538495249954
 35.2324607783305126 15.4595191852497500 28.6327538495249954
 40.8696849643105153 15.4595191852497500 28.6327538495249954
 -2.8185700442888009 27.6644335859584807 28.6327538495249954
 -11.2743640442888005 27.6644335859584807 28.6327538495249954
 -14.0930184162487979 27.6644335859584807 28.6327538495249954
 52.1440487783305286 15.4595191852497500 28.6327538495249954
 52.1440909760294318 25.2234067682127652 28.6327538495249954
 25.3673817697312032 27.6644335859584807 28.6327538495249954
 40.8697271620094256 25.2234067682127652 28.6327538495249954
  4.2279390283835818 30.1053871743642461 28.6327538495249954
 -4.2278548497094786 15.4595191852497500 28.6327538495249954
 47.9161939150759579 32.5463407627700150 28.6327538495249954
 42.2789697290959623 32.5463407627700150 28.6327538495249954
 39.4603999150759606 32.5463407627700150 28.6327538495249954
 19.7302421010559677 32.5463407627700150 28.6327538495249954
 16.9115877290959595 32.5463407627700150 28.6327538495249954
  8.4557937290959586 32.5463407627700150 28.6327538495249954
  5.6372239150759640 32.5463407627700150 28.6327538495249954
  2.8186541010559618 32.5463407627700150 28.6327538495249954
  7.0465088424035836 30.1053871743642461 28.6327538495249954
 -11.2743640849240396 32.5463407627700150 28.6327538495249954
 73.2835760776181360 13.0185655968439828 28.6327538495249954
 57.7812728424035953 30.1053871743642461 28.6327538495249954
 40.8696848424035863 30.1053871743642461 28.6327538495249954
 29.5953210283835837 30.1053871743642461 28.6327538495249954
 26.7766666564235685 30.1053871743642461 28.6327538495249954
 18.3208726564235782 30.1053871743642461 28.6327538495249954
 -7.0465092216694787 15.4595191852497500 28.6327538495249954
  9.8650786564235791 30.1053871743642461 28.6327538495249954
 60.5998426564235899 30.1053871743642461 28.6327538495249954
 54.9627031502905297 15.4595191852497500 28.6327538495249954
 38.0510727900494388 25.2234067682127652 28.6327538495249954
 35.2325029760294228 25.2234067682127652 28.6327538495249954
 52.1440910166646745 20.3414995914012344 28.6327538495249954
 46.5068668306846718 20.3414995914012344 28.6327538495249954
 25.3673818510029001 17.9004727736555189 28.6327538495249954
 32.4138486447046574 20.3414995914012344 28.6327538495249954
 26.7767090166646753 20.3414995914012344 28.6327538495249954
 23.9580546447046672 20.3414995914012344 28.6327538495249954
 21.1394848306846654 20.3414995914012344 28.6327538495249954
 18.3209150166646637 20.3414995914012344 28.6327538495249954
 60.5998850166646719 20.3414995914012344 28.6327538495249954
 12.6836908306846716 20.3414995914012344 28.6327538495249954
  7.0464666447046698 20.3414995914012344 28.6327538495249954
 28.1860362229629082 17.9004727736555189 28.6327538495249954
  4.2278968306846716 20.3414995914012344 28.6327538495249954
 67.6463518510029047 17.9004727736555189 28.6327538495249954
 64.8277820369829101 17.9004727736555189 28.6327538495249954
 62.0092122229629013 17.9004727736555189 28.6327538495249954
 59.1905578510029073 17.9004727736555189 28.6327538495249954
 53.5534182229629039 17.9004727736555189 28.6327538495249954
  9.8651210166646699 20.3414995914012344 28.6327538495249954
 63.4184548306846807 20.3414995914012344 28.6327538495249954
 69.0556790166646692 20.3414995914012344 28.6327538495249954
 22.5488120369828984 17.9004727736555189 28.6327538495249954
 60.5998427783305331 15.4595191852497500 28.6327538495249954
 -1.4092428379905699 25.2234067682127652 28.6327538495249954
 74.6928609643105261 15.4595191852497500 28.6327538495249954
 -4.2278972099505676 25.2234067682127652 28.6327538495249954
 -5.6371397770370981 17.9004727736555189 28.6327538495249954
 -7.0464670239705693 25.2234067682127652 28.6327538495249954
 70.4649639033570594 22.7824531798069998 28.6327538495249954
 -2.8185699630171004 17.9004727736555189 28.6327538495249954
 59.1906000893370532 22.7824531798069998 28.6327538495249954
 47.9161517173770548 22.7824531798069998 28.6327538495249954
  8.4557938510029000 17.9004727736555189 28.6327538495249954
 36.6417879033570415 22.7824531798069998 28.6327538495249954
 33.8232180893370540 22.7824531798069998 28.6327538495249954
 19.7301999033570468 22.7824531798069998 28.6327538495249954
 16.9116300893370450 22.7824531798069998 28.6327538495249954
  8.4558360893370512 22.7824531798069998 28.6327538495249954
  5.6371817173770493 22.7824531798069998 28.6327538495249954
 -2.8186122826229494 22.7824531798069998 28.6327538495249954
 11.2744482229629011 17.9004727736555189 28.6327538495249954
 53.5533337056581473 13.0185655968439828 28.6327538495249954
 59.1905577290959641 32.5463407627700150 28.6327538495249954
 50.7347638916381456 13.0185655968439828 28.6327538495249954
 62.0092121010559580 32.5463407627700150 28.6327538495249954
 -18.3208732795033562 44.7512551634787386 28.6327538495249954
 -21.1394430935233544 44.7512551634787386 28.6327538495249954
 12.6836909119563703 10.5775387790982709 28.6327538495249954
 -23.9580974654833554 44.7512551634787386 28.6327538495249954
 56.3719878338042619 42.3103015750729767 28.6327538495249954
 18.3209150979363713 10.5775387790982709 28.6327538495249954
 21.1394849119563659 10.5775387790982709 28.6327538495249954
 39.4603998338042672 42.3103015750729767 28.6327538495249954
 -9.8650792795033553 44.7512551634787386 28.6327538495249954
 25.3673816478242529 42.3103015750729767 28.6327538495249954
  8.4557936478242581 42.3103015750729767 28.6327538495249954
 23.9581392839163634 10.5775387790982709 28.6327538495249954
  5.6372238338042564 42.3103015750729767 28.6327538495249954
 26.7767090979363651 10.5775387790982709 28.6327538495249954
 -16.9115883521757375 42.3103015750729767 28.6327538495249954
 38.0510729119563607 10.5775387790982709 28.6327538495249954
 -19.7301581661957393 42.3103015750729767 28.6327538495249954
 52.1440908541225028 39.8692747573272612 28.6327538495249954
 22.5488118338042653 42.3103015750729767 28.6327538495249954
  1.4093270979363695 10.5775387790982709 28.6327538495249954
 -7.0465094654833562 44.7512551634787386 28.6327538495249954
 -4.2278550935233552 44.7512551634787386 28.6327538495249954
 14.0930177931690217 47.1922087518845075 28.6327538495249954
 -0.0000003928109814 47.1922087518845075 28.6327538495249954
 -2.8185702068309761 47.1922087518845075 28.6327538495249954
 -8.4557943928109793 47.1922087518845075 28.6327538495249954
 -11.2743642068309775 47.1922087518845075 28.6327538495249954
 -19.7301582068309784 47.1922087518845075 28.6327538495249954
 -22.5487280208509766 47.1922087518845075 28.6327538495249954
 -25.3673823928109776 47.1922087518845075 28.6327538495249954
 42.2790122112439946  8.1365851906925037 28.6327538495249954
 49.3254787204966547 44.7512551634787386 28.6327538495249954
 53.5533760252639937  8.1365851906925037 28.6327538495249954
 42.2789698510029055 17.9004727736555189 28.6327538495249954
 38.0511149064766485 44.7512551634787386 28.6327538495249954
 15.5023027204966439 44.7512551634787386 28.6327538495249954
 12.6837329064766493 44.7512551634787386 28.6327538495249954
 67.6463942112439867  8.1365851906925037 28.6327538495249954
  9.8650785345166412 44.7512551634787386 28.6327538495249954
  7.0465087204966403 44.7512551634787386 28.6327538495249954
 -1.4092852795033535 44.7512551634787386 28.6327538495249954
 40.8697272839163759 10.5775387790982709 28.6327538495249954
 28.1859940252639873  8.1365851906925037 28.6327538495249954
 49.3255210401024939 39.8692747573272612 28.6327538495249954
 40.8697270401024966 39.8692747573272612 28.6327538495249954
 -19.7302004045298887 37.4283211689214923 28.6327538495249954
 63.4184547087777446 34.9873675805157234 28.6327538495249954
 60.5998848947577358 34.9873675805157234 28.6327538495249954
 52.1440908947577384 34.9873675805157234 28.6327538495249954
  2.8185697056581414 13.0185655968439828 28.6327538495249954
 39.4603995899903808 71.6020375533019688 28.6327538495249954
  5.6372240776181393 13.0185655968439828 28.6327538495249954
 38.0510727087777383 34.9873675805157234 28.6327538495249954
 -8.4557520325698885 37.4283211689214923 28.6327538495249954
 18.3209148947577418 34.9873675805157234 28.6327538495249954
  7.0464665227977319 34.9873675805157234 28.6327538495249954
 33.8231758916381438 13.0185655968439828 28.6327538495249954
 -4.2278972912222672 34.9873675805157234 28.6327538495249954
 -7.0464671052422672 34.9873675805157234 28.6327538495249954
 -9.8651214772022673 34.9873675805157234 28.6327538495249954
 -18.3209154772022664 34.9873675805157234 28.6327538495249954
 64.8277819150759740 32.5463407627700150 28.6327538495249954
 42.2789698916381340 13.0185655968439828 28.6327538495249954
 22.5488120776181340 13.0185655968439828 28.6327538495249954
 -2.8186124045298877 37.4283211689214923 28.6327538495249954
  0.0000419674301133 37.4283211689214923 28.6327538495249954
 14.0929755954701115 37.4283211689214923 28.6327538495249954
 32.4139330401024850 39.8692747573272612 28.6327538495249954
 29.5952786681424982 39.8692747573272612 28.6327538495249954
 26.7767088541224823 39.8692747573272612 28.6327538495249954
 43.6882970979363634 10.5775387790982709 28.6327538495249954
 23.9581390401024947 39.8692747573272612 28.6327538495249954
 21.1394846681424795 39.8692747573272612 28.6327538495249954
 69.0556790979363768 10.5775387790982709 28.6327538495249954
 18.3209148541224920 39.8692747573272612 28.6327538495249954
  7.0465510401024849 39.8692747573272612 28.6327538495249954
 74.6929032839163654 10.5775387790982709 28.6327538495249954
 -9.8650369598975125 39.8692747573272612 28.6327538495249954
 50.7348059674301126 37.4283211689214923 28.6327538495249954
 47.9161515954701187 37.4283211689214923 28.6327538495249954
 39.4603575954701142 37.4283211689214923 28.6327538495249954
 33.8232179674301037 37.4283211689214923 28.6327538495249954
 31.0045635954701204 37.4283211689214923 28.6327538495249954
 -0.0000001083618602 13.0185655968439828 28.6327538495249954
 28.1859937814501045 37.4283211689214923 28.6327538495249954
 16.9116299674301196 37.4283211689214923 28.6327538495249954
 46.5068666681425000 39.8692747573272612 28.6327538495249954
 40.8696425227977400 34.9873675805157234 28.6327538495249954
