 H  O 
 1.0000000000000000
    84.5579400000000021    0.0000000000000000    0.0000000000000000
   -42.2789706095346958   73.2293399455724767    0.0000000000000000
     0.0000000000000000    0.0000000000000000   46.9039550000000034
 H   O  
 258 305
Cartesian
  7.0464666176145112 23.5961043759422537 28.1128704123049964
 25.3673814988271609 60.2107743487284921 28.1128704123049964
 22.5488116848071662 60.2107743487284921 28.1128704123049964
 -1.4093273823854895 23.5961043759422537 28.1128704123049964
  4.2278968035945095 23.5961043759422537 28.1128704123049964
 56.3719878067141025 45.5649063596139996 28.1128704123049964
 33.8231333011282445 50.4468867657654769 28.1128704123049964
 19.7301573128471581 60.2107743487284921 28.1128704123049964
 16.9115874988271635 60.2107743487284921 28.1128704123049964
 21.1394848035945166 23.5961043759422537 28.1128704123049964
 11.2743633128471661 60.2107743487284921 28.1128704123049964
  2.8185693128471621 60.2107743487284921 28.1128704123049964
 36.6417876730882455 50.4468867657654769 28.1128704123049964
 -22.5488125246106605 40.6829991828024689 28.1128704123049964
 38.0510728035945078 23.5961043759422537 28.1128704123049964
 33.8231754988271618 60.2107743487284921 28.1128704123049964
 43.6882969895745106 23.5961043759422537 28.1128704123049964
 -5.6372246871528393 60.2107743487284921 28.1128704123049964
 -8.4557945011728339 60.2107743487284921 28.1128704123049964
 -16.9115885011728366 60.2107743487284921 28.1128704123049964
 -19.7301583151928384 60.2107743487284921 28.1128704123049964
 -8.4557942167237172 26.0371311936879657 28.1128704123049964
 -22.5488126871528358 60.2107743487284921 28.1128704123049964
 -2.8186545886837178 26.0371311936879657 28.1128704123049964
  2.8185695972962814 26.0371311936879657 28.1128704123049964
 11.2743635972962863 26.0371311936879657 28.1128704123049964
 -33.8231765011728385 60.2107743487284921 28.1128704123049964
 60.5998848676675763 38.2419723650567462 28.1128704123049964
 23.9580966121347885 57.7698207603227232 28.1128704123049964
 21.1394422401747804 57.7698207603227232 28.1128704123049964
 18.3208724261547857 57.7698207603227232 28.1128704123049964
 49.3254366176144998 23.5961043759422537 28.1128704123049964
 36.6417455972962784 26.0371311936879657 28.1128704123049964
 50.7347215449421185 21.1551507875364884 28.1128704123049964
 39.4603996848071645 60.2107743487284921 28.1128704123049964
 18.3208301065489287 62.6518011664742076 28.1128704123049964
  4.2278968442297478 18.7141971991307194 28.1128704123049964
  9.8650364722697521 18.7141971991307194 28.1128704123049964
 35.2324603042478444 72.4156887494372228 28.1128704123049964
 15.5022606582497549 18.7141971991307194 28.1128704123049964
 18.3208304722697477 18.7141971991307194 28.1128704123049964
  7.0464662925289359 62.6518011664742076 28.1128704123049964
 36.6417454753893352 40.6829991828024689 28.1128704123049964
 38.0510728442297577 18.7141971991307194 28.1128704123049964
 -1.4093277074710613 62.6518011664742076 28.1128704123049964
 33.8231756613693406 40.6829991828024689 28.1128704123049964
 -12.6836915214910633 62.6518011664742076 28.1128704123049964
 25.3673816613693432 40.6829991828024689 28.1128704123049964
 54.9626608442297453 18.7141971991307194 28.1128704123049964
 36.6417453128471564 60.2107743487284921 28.1128704123049964
 -21.1394855214910677 62.6518011664742076 28.1128704123049964
 66.2370246582497515 18.7141971991307194 28.1128704123049964
 69.0555944722697461 18.7141971991307194 28.1128704123049964
 71.8742488442297542 18.7141971991307194 28.1128704123049964
 -8.4558364550578684 21.1551507875364884 28.1128704123049964
 -29.5952795214910651 62.6518011664742076 28.1128704123049964
  8.4557515449421317 21.1551507875364884 28.1128704123049964
 14.0929757309221344 21.1551507875364884 28.1128704123049964
 16.9115455449421290 21.1551507875364884 28.1128704123049964
 19.7301999169021336 21.1551507875364884 28.1128704123049964
 22.5487697309221353 21.1551507875364884 28.1128704123049964
 28.1859936730882552 50.4468867657654769 28.1128704123049964
 31.0045634871082498 50.4468867657654769 28.1128704123049964
 36.6417879169021319 21.1551507875364884 28.1128704123049964
 42.2789694988271592 60.2107743487284921 28.1128704123049964
 16.9115453011282568 50.4468867657654769 28.1128704123049964
 21.1394844785089369 62.6518011664742076 28.1128704123049964
 39.4603154113162731 26.0371311936879657 28.1128704123049964
 12.6836482401747883 57.7698207603227232 28.1128704123049964
 -7.0465516496371885 33.3600651882452155 28.1128704123049964
 -4.2278972776771910 33.3600651882452155 28.1128704123049964
 -1.4093274636571897 33.3600651882452155 28.1128704123049964
  1.4092423503628120 33.3600651882452155 28.1128704123049964
 -2.8186548324975988 55.3288671719169614 28.1128704123049964
 -8.4557944605375948 55.3288671719169614 28.1128704123049964
 18.3209148676675753 38.2419723650567462 28.1128704123049964
 23.9580545363428143 33.3600651882452155 28.1128704123049964
 32.4138485363428117 33.3600651882452155 28.1128704123049964
 -22.5488126465175966 55.3288671719169614 28.1128704123049964
 38.0510727223228145 33.3600651882452155 28.1128704123049964
 12.6836906816875779 38.2419723650567462 28.1128704123049964
 46.5068667223228047 33.3600651882452155 28.1128704123049964
 -31.0046066465175976 55.3288671719169614 28.1128704123049964
 -9.8651214636571893 33.3600651882452155 28.1128704123049964
 57.7812305363428109 33.3600651882452155 28.1128704123049964
 49.3254363738006276 52.8878403541712458 28.1128704123049964
 -16.9116305769648072 35.8010187766509844 28.1128704123049964
 -11.2744063909848098 35.8010187766509844 28.1128704123049964
 -0.0000425769648080 35.8010187766509844 28.1128704123049964
  7.0464664957075716 38.2419723650567462 28.1128704123049964
  8.4557514230351885 35.8010187766509844 28.1128704123049964
 16.9115454230351894 35.8010187766509844 28.1128704123049964
 38.0510725597806356 52.8878403541712458 28.1128704123049964
 32.4138483738006258 52.8878403541712458 28.1128704123049964
  4.2278966816875769 38.2419723650567462 28.1128704123049964
  1.4093268676675752 38.2419723650567462 28.1128704123049964
 21.1394845597806302 52.8878403541712458 28.1128704123049964
 -7.0464672542393672 52.8878403541712458 28.1128704123049964
 -7.0464671323324293 38.2419723650567462 28.1128704123049964
 52.1440907457606357 52.8878403541712458 28.1128704123049964
 54.9626606816875736 38.2419723650567462 28.1128704123049964
 -21.1394854402193673 52.8878403541712458 28.1128704123049964
 47.9161939286210341 30.9190383704995000 28.1128704123049964
 59.1905577832762830 26.0371311936879657 28.1128704123049964
 67.6463517832762875 26.0371311936879657 28.1128704123049964
 -1.4092853878652121 57.7698207603227232 28.1128704123049964
 -7.0465095738452108 57.7698207603227232 28.1128704123049964
 -4.2279395160113378 28.4780847820937346 28.1128704123049964
 -9.8650793878652134 57.7698207603227232 28.1128704123049964
 50.7347213011282463 50.4468867657654769 28.1128704123049964
 -18.3208733878652161 57.7698207603227232 28.1128704123049964
 21.1394424839886597 28.4780847820937346 28.1128704123049964
 26.7766666699686624 28.4780847820937346 28.1128704123049964
 -26.7766673878652135 57.7698207603227232 28.1128704123049964
 35.2324606699686598 28.4780847820937346 28.1128704123049964
 38.0510304839886544 28.4780847820937346 28.1128704123049964
 40.8696848559486625 28.4780847820937346 28.1128704123049964
 29.5952786816875744 38.2419723650567462 28.1128704123049964
 -29.5953217598252145 57.7698207603227232 28.1128704123049964
 52.1440486699686616 28.4780847820937346 28.1128704123049964
 54.9626184839886562 28.4780847820937346 28.1128704123049964
 39.4603151675024009 55.3288671719169614 28.1128704123049964
 36.6417453534824062 55.3288671719169614 28.1128704123049964
 31.0045211675023928 55.3288671719169614 28.1128704123049964
 -5.6372244433389582 30.9190383704995000 28.1128704123049964
 -0.0000002573589589 30.9190383704995000 28.1128704123049964
 19.7301573534824009 55.3288671719169614 28.1128704123049964
 16.9115875394624062 55.3288671719169614 28.1128704123049964
 11.2743635566610401 30.9190383704995000 28.1128704123049964
 35.2325028676675771 38.2419723650567462 28.1128704123049964
 19.7301575566610410 30.9190383704995000 28.1128704123049964
 31.0046059286210465 30.9190383704995000 28.1128704123049964
 45.0975395566610331 30.9190383704995000 28.1128704123049964
 45.0975393534824036 55.3288671719169614 28.1128704123049964
 47.9161092894093343 40.6829991828024689 28.1128704123049964
 12.6836908442297531 18.7141971991307194 28.1128704123049964
 29.5952784785089271 62.6518011664742076 28.1128704123049964
 -0.0000423331509293  6.5092827984219914 28.1128704123049964
  2.8186120388090696  6.5092827984219914 28.1128704123049964
  5.6371818528290705  6.5092827984219914 28.1128704123049964
 11.2744060388090670  6.5092827984219914 28.1128704123049964
 -8.4557945824445344 69.9747351610314468 28.1128704123049964
 -11.2744489544045354 69.9747351610314468 28.1128704123049964
 -16.9115885824445336 69.9747351610314468 28.1128704123049964
 57.7812727340417212 43.1239527712082307 28.1128704123049964
 39.4603578528290697  6.5092827984219914 28.1128704123049964
 -25.3673825824445345 69.9747351610314468 28.1128704123049964
 -31.0046067684245337 69.9747351610314468 28.1128704123049964
 43.6882966238536952 67.5337083432857384 28.1128704123049964
 35.2324182284558631 48.0059331773597151 28.1128704123049964
 29.5952784378736951 67.5337083432857384 28.1128704123049964
 67.6463096668490635  6.5092827984219914 28.1128704123049964
 23.9580542518936852 67.5337083432857384 28.1128704123049964
 73.2835338528290663  6.5092827984219914 28.1128704123049964
 76.1021036668490609  6.5092827984219914 28.1128704123049964
 21.1394844378736906 67.5337083432857384 28.1128704123049964
 -4.2278970744985491  8.9502363868277595 28.1128704123049964
 18.3209146238536960 67.5337083432857384 28.1128704123049964
 15.5022602518936878 67.5337083432857384 28.1128704123049964
 12.6836904378736932 67.5337083432857384 28.1128704123049964
  4.2278964378736958 67.5337083432857384 28.1128704123049964
 -1.4093277481063067 67.5337083432857384 28.1128704123049964
 -12.6836915621263024 67.5337083432857384 28.1128704123049964
 49.3254367395214430  8.9502363868277595 28.1128704123049964
 52.1440911114814512  8.9502363868277595 28.1128704123049964
 54.9626609255014458  8.9502363868277595 28.1128704123049964
 -25.3673823792659014 45.5649063596139996 28.1128704123049964
 38.0510303620817112 43.1239527712082307 28.1128704123049964
 77.5113885941766796  4.0683292100162243 28.1128704123049964
 69.0555945941766822  4.0683292100162243 28.1128704123049964
 11.2743638004749194  1.6273023922705114 28.1128704123049964
 50.7347636207340997 45.5649063596139996 28.1128704123049964
  1.4092843042478451 72.4156887494372228 28.1128704123049964
  1.4092422284558699 48.0059331773597151 28.1128704123049964
 45.0975398004749266  1.6273023922705114 28.1128704123049964
 -29.5953218817321577 72.4156887494372228 28.1128704123049964
 50.7347639864549222  1.6273023922705114 28.1128704123049964
 -32.4138916957521559 72.4156887494372228 28.1128704123049964
  9.8650362284558710 48.0059331773597151 28.1128704123049964
 70.4649218004749116  1.6273023922705114 28.1128704123049964
 -38.0511158817321586 72.4156887494372228 28.1128704123049964
 33.8231756207340979 45.5649063596139996 28.1128704123049964
 31.0046058067141033 45.5649063596139996 28.1128704123049964
 25.3673816207341005 45.5649063596139996 28.1128704123049964
  4.2278969661366892  4.0683292100162243 28.1128704123049964
  7.0464667801566900  4.0683292100162243 28.1128704123049964
  9.8650365941766900  4.0683292100162243 28.1128704123049964
 15.5022607801566892  4.0683292100162243 28.1128704123049964
 31.0045210455954674 69.9747351610314468 28.1128704123049964
 21.1394849661366919  4.0683292100162243 28.1128704123049964
 23.9580547801566937  4.0683292100162243 28.1128704123049964
 -11.2743641932859031 45.5649063596139996 28.1128704123049964
 14.0929330455954638 69.9747351610314468 28.1128704123049964
 21.1394846004158765 48.0059331773597151 28.1128704123049964
 49.3254367801566929  4.0683292100162243 28.1128704123049964
  5.6371390455954664 69.9747351610314468 28.1128704123049964
 -19.7301581932858987 45.5649063596139996 28.1128704123049964
 -0.0000005824445366 69.9747351610314468 28.1128704123049964
 -2.8186549544045376 69.9747351610314468 28.1128704123049964
 71.8742489661366903  4.0683292100162243 28.1128704123049964
 66.2370247395214449  8.9502363868277595 28.1128704123049964
 43.6882545480617210 43.1239527712082307 28.1128704123049964
 -32.4138493761463025 67.5337083432857384 28.1128704123049964
 18.3208725480617254 43.1239527712082307 28.1128704123049964
 12.6836483620817209 43.1239527712082307 28.1128704123049964
 35.2324607918756030 13.8322167929792403 28.1128704123049964
 71.8742489255014476  8.9502363868277595 28.1128704123049964
 49.3254364144358703 48.0059331773597151 28.1128704123049964
 54.9626186058955923 13.8322167929792403 28.1128704123049964
 52.1440062284558650 48.0059331773597151 28.1128704123049964
 60.5998427918756022 13.8322167929792403 28.1128704123049964
 66.2370669778556049 13.8322167929792403 28.1128704123049964
 69.0556367918755996 13.8322167929792403 28.1128704123049964
 71.8742066058955942 13.8322167929792403 28.1128704123049964
 74.6928609778556023 13.8322167929792403 28.1128704123049964
 -1.4092852659582757 43.1239527712082307 28.1128704123049964
 18.3208727918756047 13.8322167929792403 28.1128704123049964
 -4.2279396379182765 43.1239527712082307 28.1128704123049964
 -0.0000001354520196 16.2731703813850075 28.1128704123049964
 -7.0465094519382783 43.1239527712082307 28.1128704123049964
  8.4557938645479798 16.2731703813850075 28.1128704123049964
 19.7301576785679771 16.2731703813850075 28.1128704123049964
 28.1859516785679780 16.2731703813850075 28.1128704123049964
 31.0046060505279790 16.2731703813850075 28.1128704123049964
 33.8231758645479843 16.2731703813850075 28.1128704123049964
 -33.8232188207786848 65.0927547548799765 28.1128704123049964
 -14.0929763269117494 50.4468867657654769 28.1128704123049964
 -8.4558366988717459 50.4468867657654769 28.1128704123049964
 46.5068664785089325 62.6518011664742076 28.1128704123049964
 53.5533334753893371 40.6829991828024689 28.1128704123049964
 64.8277820505279863 16.2731703813850075 28.1128704123049964
 -16.9116308207786865 65.0927547548799765 28.1128704123049964
 19.7301995511813146 65.0927547548799765 28.1128704123049964
 -21.1394853183124276 38.2419723650567462 28.1128704123049964
 26.7766665480617228 43.1239527712082307 28.1128704123049964
 32.4138907340417219 43.1239527712082307 28.1128704123049964
  2.8185697192032206 11.3912632045734714 28.1128704123049964
 16.9115879051832216 11.3912632045734714 28.1128704123049964
 28.1859517192032243 11.3912632045734714 28.1128704123049964
 40.8696424144358730 48.0059331773597151 28.1128704123049964
  9.8650787918756002 13.8322167929792403 28.1128704123049964
 -0.0000000948167802 11.3912632045734714 28.1128704123049964
 -2.8186544667767790 11.3912632045734714 28.1128704123049964
 36.6417457192032217 11.3912632045734714 28.1128704123049964
 42.2789699051832244 11.3912632045734714 28.1128704123049964
 45.0975397192032190 11.3912632045734714 28.1128704123049964
 -5.6372242807967794 11.3912632045734714 28.1128704123049964
  5.6371395332232206 11.3912632045734714 28.1128704123049964
 47.9161095332232136 11.3912632045734714 28.1128704123049964
 35.2324605480617166 43.1239527712082307 28.1128704123049964
 73.2834915332232129 11.3912632045734714 28.1128704123049964
 22.5487693652013093 65.0927547548799765 28.1128704123049964
 59.1905579051832120 11.3912632045734714 28.1128704123049964
 62.0091277192032209 11.3912632045734714 28.1128704123049964
 70.4649217192032182 11.3912632045734714 28.1128704123049964
 50.7347639051832218 11.3912632045734714 28.1128704123049964
 76.1021459051832210 11.3912632045734714 28.1128704123049964
  7.0465089778555976 13.8322167929792403 28.1128704123049964
 43.6882967728507978 49.6332355696302230 28.6327538495249954
 -4.2278974131292042 49.6332355696302230 28.6327538495249954
 -5.6371400208509774 47.1922087518845075 28.6327538495249954
 -0.0000003928109814 47.1922087518845075 28.6327538495249954
 39.4603997931690245 47.1922087518845075 28.6327538495249954
 -2.8185702068309761 47.1922087518845075 28.6327538495249954
  5.6372237931690181 47.1922087518845075 28.6327538495249954
 -11.2744065264368292 52.0741891580359919 28.6327538495249954
 -1.4093275991092098 49.6332355696302230 28.6327538495249954
 54.9626605868708040 49.6332355696302230 28.6327538495249954
 -26.7767095991092070 49.6332355696302230 28.6327538495249954
 46.5068665868708067 49.6332355696302230 28.6327538495249954
 -14.0929763404568273 52.0741891580359919 28.6327538495249954
 14.0930177931690217 47.1922087518845075 28.6327538495249954
 18.3209147728507951 49.6332355696302230 28.6327538495249954
 16.9115876071890092 47.1922087518845075 28.6327538495249954
 21.1394845868707826 49.6332355696302230 28.6327538495249954
 -16.9115461544768308 52.0741891580359919 28.6327538495249954
 22.5488117931690120 47.1922087518845075 28.6327538495249954
 47.9161937931690360 47.1922087518845075 28.6327538495249954
 32.4138484008907994 49.6332355696302230 28.6327538495249954
 -28.1859945264368292 52.0741891580359919 28.6327538495249954
 42.2789696071890333 47.1922087518845075 28.6327538495249954
 -23.9580552271492060 49.6332355696302230 28.6327538495249954
 26.7767087728507853 49.6332355696302230 28.6327538495249954
  1.4092849002374601  0.8136511961352557 28.6327538495249954
  5.6371814735631682 52.0741891580359919 28.6327538495249954
 -14.0929764623637634 66.7200571471504844 28.6327538495249954
 -28.1859946483437653 66.7200571471504844 28.6327538495249954
 38.0510724649638732 64.2791035587447084 28.6327538495249954
 35.2325026509438644 64.2791035587447084 28.6327538495249954
 32.4138482789838704 64.2791035587447084 28.6327538495249954
 23.9580542789838589 64.2791035587447084 28.6327538495249954
 18.3209146509438554 64.2791035587447084 28.6327538495249954
 12.6836904649638509 64.2791035587447084 28.6327538495249954
  9.8651206509438563 64.2791035587447084 28.6327538495249954
  7.0464662789838490 64.2791035587447084 28.6327538495249954
  4.2278964649638544 64.2791035587447084 28.6327538495249954
 -4.2278975350361501 64.2791035587447084 28.6327538495249954
 -9.8651217210161430 64.2791035587447084 28.6327538495249954
 -15.5022613490561429 64.2791035587447084 28.6327538495249954
 -18.3209157210161457 64.2791035587447084 28.6327538495249954
 -8.4557522763837714 66.7200571471504844 28.6327538495249954
 36.6417875376362474 66.7200571471504844 28.6327538495249954
 -38.0510735756713814 69.1610107355562462 28.6327538495249954
 -21.1394855756713831 69.1610107355562462 28.6327538495249954
 28.1859512180303895 71.6020375533019688 28.6327538495249954
 25.3673814040103807 71.6020375533019688 28.6327538495249954
 19.7301572180303850 71.6020375533019688 28.6327538495249954
 14.0930175899903762 71.6020375533019688 28.6327538495249954
 -16.9115885959896168 71.6020375533019688 28.6327538495249954
 -19.7301584100096186 71.6020375533019688 28.6327538495249954
 -36.6417464100096169 71.6020375533019688 28.6327538495249954
 -23.9580553490561456 64.2791035587447084 28.6327538495249954
 43.6882966103086261 69.1610107355562462 28.6327538495249954
 38.0510724243286234 69.1610107355562462 28.6327538495249954
 35.2325026103086287 69.1610107355562462 28.6327538495249954
 29.5952784243286260 69.1610107355562462 28.6327538495249954
 26.7767086103086172 69.1610107355562462 28.6327538495249954
  9.8651206103086064 69.1610107355562462 28.6327538495249954
  1.4093266103086164 69.1610107355562462 28.6327538495249954
 -7.0464673896913883 69.1610107355562462 28.6327538495249954
 40.8697267962886173 69.1610107355562462 28.6327538495249954
 -26.7767097210161431 64.2791035587447084 28.6327538495249954
 -35.2325037210161440 64.2791035587447084 28.6327538495249954
 47.9161936712620928 61.8380767409990000 28.6327538495249954
  8.4557935259173256 56.9561695641874692 28.6327538495249954
 -14.0930186600626755 56.9561695641874692 28.6327538495249954
 35.2325027322155506 54.5151427464417537 28.6327538495249954
 26.7767087322155568 54.5151427464417537 28.6327538495249954
 12.6836905462355407 54.5151427464417537 28.6327538495249954
  9.8651207322155532 54.5151427464417537 28.6327538495249954
  4.2278965462355513 54.5151427464417537 28.6327538495249954
 14.0930177118973283 56.9561695641874692 28.6327538495249954
  1.4093267322155492 54.5151427464417537 28.6327538495249954
 -18.3208310818044460 54.5151427464417537 28.6327538495249954
 -26.7766250818044469 54.5151427464417537 28.6327538495249954
 42.2790118455231720 52.0741891580359919 28.6327538495249954
 25.3674238455231631 52.0741891580359919 28.6327538495249954
 22.5487694735631763 52.0741891580359919 28.6327538495249954
 11.2744056595431719 52.0741891580359919 28.6327538495249954
  8.4558358455231772 52.0741891580359919 28.6327538495249954
 -15.5022612677844460 54.5151427464417537 28.6327538495249954
 -2.8186125264368322 52.0741891580359919 28.6327538495249954
 42.2789695259173328 56.9561695641874692 28.6327538495249954
 -4.2278552154303037 59.3971231525932382 28.6327538495249954
 45.0976238572420840 61.8380767409990000 28.6327538495249954
 28.1860358572420893 61.8380767409990000 28.6327538495249954
 25.3673814852820882 61.8380767409990000 28.6327538495249954
 14.0930176712620749 61.8380767409990000 28.6327538495249954
  5.6372236712620847 61.8380767409990000 28.6327538495249954
 -2.8185703287379194 61.8380767409990000 28.6327538495249954
 -14.0929341427579153 61.8380767409990000 28.6327538495249954
 47.9161937118973214 56.9561695641874692 28.6327538495249954
 -22.5487281427579163 61.8380767409990000 28.6327538495249954
 -28.1859523287379155 61.8380767409990000 28.6327538495249954
 -31.0045221427579136 61.8380767409990000 28.6327538495249954
 49.3254785985897115 59.3971231525932382 28.6327538495249954
 43.6882544126097088 59.3971231525932382 28.6327538495249954
 29.5953207845697079 59.3971231525932382 28.6327538495249954
 21.1395267845696964 59.3971231525932382 28.6327538495249954
  1.4092844126096999 59.3971231525932382 28.6327538495249954
 -25.3673825147179137 61.8380767409990000 28.6327538495249954
 -14.0929340208509810 47.1922087518845075 28.6327538495249954
 60.5998848947577358 34.9873675805157234 28.6327538495249954
 54.9627029064766432 44.7512551634787386 28.6327538495249954
 66.2370669643105288 15.4595191852497500 28.6327538495249954
 60.5998427783305331 15.4595191852497500 28.6327538495249954
 54.9627031502905297 15.4595191852497500 28.6327538495249954
 46.5069091502905181 15.4595191852497500 28.6327538495249954
 43.6882547783305313 15.4595191852497500 28.6327538495249954
 40.8696849643105153 15.4595191852497500 28.6327538495249954
 23.9580969643105171 15.4595191852497500 28.6327538495249954
 12.6837331502905215 15.4595191852497500 28.6327538495249954
  1.4092847783305213 15.4595191852497500 28.6327538495249954
 -1.4092850356894804 15.4595191852497500 28.6327538495249954
 -4.2278548497094786 15.4595191852497500 28.6327538495249954
 -7.0465092216694787 15.4595191852497500 28.6327538495249954
 56.3719880776181483 13.0185655968439828 28.6327538495249954
 53.5533337056581473 13.0185655968439828 28.6327538495249954
 39.4604000776181465 13.0185655968439828 28.6327538495249954
 31.0046060776181456 13.0185655968439828 28.6327538495249954
 22.5488120776181340 13.0185655968439828 28.6327538495249954
 14.0930180776181420 13.0185655968439828 28.6327538495249954
 11.2743637056581409 13.0185655968439828 28.6327538495249954
 54.9626609119563767 10.5775387790982709 28.6327538495249954
 32.4139332839163785 10.5775387790982709 28.6327538495249954
 71.8742911502905173 15.4595191852497500 28.6327538495249954
 29.5952789119563668 10.5775387790982709 28.6327538495249954
 -8.4557941489970982 17.9004727736555189 28.6327538495249954
 -2.8185699630171004 17.9004727736555189 28.6327538495249954
 -11.2744062826229499 22.7824531798069998 28.6327538495249954
 66.2370246447046753 20.3414995914012344 28.6327538495249954
 60.5998850166646719 20.3414995914012344 28.6327538495249954
 46.5068668306846718 20.3414995914012344 28.6327538495249954
 43.6882970166646629 20.3414995914012344 28.6327538495249954
 40.8696426447046761 20.3414995914012344 28.6327538495249954
 35.2325030166646727 20.3414995914012344 28.6327538495249954
 29.5952788306846699 20.3414995914012344 28.6327538495249954
 23.9580546447046672 20.3414995914012344 28.6327538495249954
  1.4093270166646681 20.3414995914012344 28.6327538495249954
 -1.4093273552953294 20.3414995914012344 28.6327538495249954
 -4.2278971693153311 20.3414995914012344 28.6327538495249954
 62.0092122229629013 17.9004727736555189 28.6327538495249954
 56.3719880369828985 17.9004727736555189 28.6327538495249954
 50.7347638510029029 17.9004727736555189 28.6327538495249954
 45.0976242229628923 17.9004727736555189 28.6327538495249954
 42.2789698510029055 17.9004727736555189 28.6327538495249954
 39.4604000369828896 17.9004727736555189 28.6327538495249954
 28.1860362229629082 17.9004727736555189 28.6327538495249954
 22.5488120369828984 17.9004727736555189 28.6327538495249954
  5.6372240369829028 17.9004727736555189 28.6327538495249954
 -5.6371397770370981 17.9004727736555189 28.6327538495249954
 -5.6371820966429516 22.7824531798069998 28.6327538495249954
 15.5023452839163713 10.5775387790982709 28.6327538495249954
 76.1021882112439840  8.1365851906925037 28.6327538495249954
 53.5534183448698329  3.2546047845410229 28.6327538495249954
 39.4604001588898399  3.2546047845410229 28.6327538495249954
 36.6418303448698452  3.2546047845410229 28.6327538495249954
 33.8231759729098371  3.2546047845410229 28.6327538495249954
 31.0046061588898354  3.2546047845410229 28.6327538495249954
 19.7302423448698399  3.2546047845410229 28.6327538495249954
 16.9115879729098388  3.2546047845410229 28.6327538495249954
 83.1486550862174738  0.8136511961352557 28.6327538495249954
 80.3300852721974650  0.8136511961352557 28.6327538495249954
 74.6928610862174764  0.8136511961352557 28.6327538495249954
 71.8742912721974676  0.8136511961352557 28.6327538495249954
 60.5998429002374621  0.8136511961352557 28.6327538495249954
 52.1440489002374647  0.8136511961352557 28.6327538495249954
 46.5069092721974613  0.8136511961352557 28.6327538495249954
 43.6882549002374461  0.8136511961352557 28.6327538495249954
 40.8696850862174585  0.8136511961352557 28.6327538495249954
 35.2324609002374558  0.8136511961352557 28.6327538495249954
 29.5953212721974559  0.8136511961352557 28.6327538495249954
 26.7766669002374584  0.8136511961352557 28.6327538495249954
 21.1395272721974621  0.8136511961352557 28.6327538495249954
 15.5023030862174611  0.8136511961352557 28.6327538495249954
 56.3719881588898417  3.2546047845410229 28.6327538495249954
  9.8651210979363722 10.5775387790982709 28.6327538495249954
 62.0092123448698445  3.2546047845410229 28.6327538495249954
 -1.4093272333883895  5.6956316022867357 28.6327538495249954
 62.0091700252639910  8.1365851906925037 28.6327538495249954
 59.1906002112439964  8.1365851906925037 28.6327538495249954
 33.8232182112439972  8.1365851906925037 28.6327538495249954
 28.1859940252639873  8.1365851906925037 28.6327538495249954
 25.3674242112439856  8.1365851906925037 28.6327538495249954
 22.5487698392839881  8.1365851906925037 28.6327538495249954
 19.7302000252639935  8.1365851906925037 28.6327538495249954
 11.2744060252639908  8.1365851906925037 28.6327538495249954
  8.4558362112439873  8.1365851906925037 28.6327538495249954
 80.3300429525916257  5.6956316022867357 28.6327538495249954
 71.8742489525916284  5.6956316022867357 28.6327538495249954
 60.5998851385716151  5.6956316022867357 28.6327538495249954
 57.7812307666116141  5.6956316022867357 28.6327538495249954
 54.9626609525916123  5.6956316022867357 28.6327538495249954
 52.1440911385716035  5.6956316022867357 28.6327538495249954
 43.6882971385716132  5.6956316022867357 28.6327538495249954
 40.8696427666115980  5.6956316022867357 28.6327538495249954
 32.4138487666116077  5.6956316022867357 28.6327538495249954
 29.5952789525916060  5.6956316022867357 28.6327538495249954
 18.3209151385716105  5.6956316022867357 28.6327538495249954
 15.5022607666116095  5.6956316022867357 28.6327538495249954
 64.8277821588898462  3.2546047845410229 28.6327538495249954
 11.2744059033570529 22.7824531798069998 28.6327538495249954
 14.0929757173770476 22.7824531798069998 28.6327538495249954
 16.9116300893370450 22.7824531798069998 28.6327538495249954
  7.0465510401024849 39.8692747573272612 28.6327538495249954
 -4.2278973318575099 39.8692747573272612 28.6327538495249954
 -9.8650369598975125 39.8692747573272612 28.6327538495249954
 -12.6836913318575100 39.8692747573272612 28.6327538495249954
 -15.5022611458775117 39.8692747573272612 28.6327538495249954
 -18.3208309598975099 39.8692747573272612 28.6327538495249954
 59.1905999674301100 37.4283211689214923 28.6327538495249954
 50.7348059674301126 37.4283211689214923 28.6327538495249954
 42.2790119674301152 37.4283211689214923 28.6327538495249954
 39.4603575954701142 37.4283211689214923 28.6327538495249954
 36.6417877814501125 37.4283211689214923 28.6327538495249954
 28.1859937814501045 37.4283211689214923 28.6327538495249954
 25.3674239674301170 37.4283211689214923 28.6327538495249954
 14.0929755954701115 37.4283211689214923 28.6327538495249954
 -2.8186124045298877 37.4283211689214923 28.6327538495249954
 -5.6371822185498859 37.4283211689214923 28.6327538495249954
 63.4184547087777446 34.9873675805157234 28.6327538495249954
 49.3254365227977445 34.9873675805157234 28.6327538495249954
 46.5068667087777357 34.9873675805157234 28.6327538495249954
 40.8696425227977400 34.9873675805157234 28.6327538495249954
 38.0510727087777383 34.9873675805157234 28.6327538495249954
 12.6836906681424875 39.8692747573272612 28.6327538495249954
 35.2325028947577295 34.9873675805157234 28.6327538495249954
 18.3209148541224920 39.8692747573272612 28.6327538495249954
 38.0510726681424956 39.8692747573272612 28.6327538495249954
 49.3254787204966547 44.7512551634787386 28.6327538495249954
 46.5069089064766459 44.7512551634787386 28.6327538495249954
 43.6882545345166520 44.7512551634787386 28.6327538495249954
 40.8696847204966431 44.7512551634787386 28.6327538495249954
 35.2324605345166475 44.7512551634787386 28.6327538495249954
  7.0465087204966403 44.7512551634787386 28.6327538495249954
 -12.6836490935233588 44.7512551634787386 28.6327538495249954
 -15.5023034654833562 44.7512551634787386 28.6327538495249954
 53.5533334618442680 42.3103015750729767 28.6327538495249954
 50.7347636478242734 42.3103015750729767 28.6327538495249954
 39.4603998338042672 42.3103015750729767 28.6327538495249954
 28.1859514618442688 42.3103015750729767 28.6327538495249954
 22.5488118338042653 42.3103015750729767 28.6327538495249954
  8.4557936478242581 42.3103015750729767 28.6327538495249954
  5.6372238338042564 42.3103015750729767 28.6327538495249954
  2.8185694618442589 42.3103015750729767 28.6327538495249954
 -11.2743641661957401 42.3103015750729767 28.6327538495249954
 -14.0930185381557376 42.3103015750729767 28.6327538495249954
 -16.9115883521757375 42.3103015750729767 28.6327538495249954
 57.7813150401024913 39.8692747573272612 28.6327538495249954
 49.3255210401024939 39.8692747573272612 28.6327538495249954
 23.9581390401024947 39.8692747573272612 28.6327538495249954
 26.7767088947577392 34.9873675805157234 28.6327538495249954
 23.9580545227977240 34.9873675805157234 28.6327538495249954
 21.1394847087777364 34.9873675805157234 28.6327538495249954
  2.8185695837512008 27.6644335859584807 28.6327538495249954
 -8.4557942302688005 27.6644335859584807 28.6327538495249954
 -11.2743640442888005 27.6644335859584807 28.6327538495249954
 -14.0930184162487979 27.6644335859584807 28.6327538495249954
 54.9626607900494406 25.2234067682127652 28.6327538495249954
 43.6882969760294344 25.2234067682127652 28.6327538495249954
 35.2325029760294228 25.2234067682127652 28.6327538495249954
 29.5952787900494201 25.2234067682127652 28.6327538495249954
 23.9581391620094379 25.2234067682127652 28.6327538495249954
 18.3209149760294281 25.2234067682127652 28.6327538495249954
 15.5023451620094264 25.2234067682127652 28.6327538495249954
 12.6836907900494289 25.2234067682127652 28.6327538495249954
 -7.0464670239705693 25.2234067682127652 28.6327538495249954
 -12.6836912099505668 25.2234067682127652 28.6327538495249954
 67.6463940893370506 22.7824531798069998 28.6327538495249954
 62.0091699033570620 22.7824531798069998 28.6327538495249954
 53.5533759033570504 22.7824531798069998 28.6327538495249954
 33.8232180893370540 22.7824531798069998 28.6327538495249954
 31.0045637173770388 22.7824531798069998 28.6327538495249954
 28.1859939033570512 22.7824531798069998 28.6327538495249954
 25.3674240893370566 22.7824531798069998 28.6327538495249954
  8.4557937697312031 27.6644335859584807 28.6327538495249954
 14.0930179557111952 27.6644335859584807 28.6327538495249954
 31.0046059557112059 27.6644335859584807 28.6327538495249954
 45.0975395837512067 27.6644335859584807 28.6327538495249954
  4.2278967087777302 34.9873675805157234 28.6327538495249954
 62.0092121010559580 32.5463407627700150 28.6327538495249954
 59.1905577290959641 32.5463407627700150 28.6327538495249954
 50.7347637290959668 32.5463407627700150 28.6327538495249954
 42.2789697290959623 32.5463407627700150 28.6327538495249954
 36.6418301010559517 32.5463407627700150 28.6327538495249954
 28.1860361010559650 32.5463407627700150 28.6327538495249954
 22.5488119150759623 32.5463407627700150 28.6327538495249954
  5.6372239150759640 32.5463407627700150 28.6327538495249954
  2.8186541010559618 32.5463407627700150 28.6327538495249954
 -22.5487280208509766 47.1922087518845075 28.6327538495249954
 66.2370668424035927 30.1053871743642461 28.6327538495249954
 57.7812728424035953 30.1053871743642461 28.6327538495249954
 15.5023028424035783 30.1053871743642461 28.6327538495249954
  7.0465088424035836 30.1053871743642461 28.6327538495249954
  4.2279390283835818 30.1053871743642461 28.6327538495249954
  1.4092846564235810 30.1053871743642461 28.6327538495249954
 -12.6836489716164174 30.1053871743642461 28.6327538495249954
 -15.5023033435764184 30.1053871743642461 28.6327538495249954
 62.0091275837512086 27.6644335859584807 28.6327538495249954
 59.1905577697312140 27.6644335859584807 28.6327538495249954
 47.9161939557112078 27.6644335859584807 28.6327538495249954
 63.4184970283835838 30.1053871743642461 28.6327538495249954
 39.4603995899903808 71.6020375533019688 28.6327538495249954
