 H  O 
 1.0000000000000000
    84.5579400000000021    0.0000000000000000    0.0000000000000000
   -42.2789706095346958   73.2293399455724767    0.0000000000000000
     0.0000000000000000    0.0000000000000000   46.9039550000000034
 H   O  
 239 309
Cartesian
 47.9161514871082517 50.4468867657654769 28.1128704123049964
 47.9161517309221239 21.1551507875364884 28.1128704123049964
 50.7347215449421185 21.1551507875364884 28.1128704123049964
 -35.2325037074710679 62.6518011664742076 28.1128704123049964
 42.2789694988271592 60.2107743487284921 28.1128704123049964
 31.0046056848071565 60.2107743487284921 28.1128704123049964
 -19.7302427105906588 40.6829991828024689 28.1128704123049964
 -22.5488125246106605 40.6829991828024689 28.1128704123049964
 70.4649639169021356 21.1551507875364884 28.1128704123049964
 -9.8651213823854889 23.5961043759422537 28.1128704123049964
 60.5998848676675763 38.2419723650567462 28.1128704123049964
 -23.9580552542393690 52.8878403541712458 28.1128704123049964
  2.8185693128471621 60.2107743487284921 28.1128704123049964
  9.8650362284558710 48.0059331773597151 28.1128704123049964
 42.2789275449421211 21.1551507875364884 28.1128704123049964
 -18.3209156261993691 52.8878403541712458 28.1128704123049964
 -14.0930186871528367 60.2107743487284921 28.1128704123049964
 46.5068666816875762 38.2419723650567462 28.1128704123049964
 29.5952788035945140 23.5961043759422537 28.1128704123049964
 -15.5022612542393716 52.8878403541712458 28.1128704123049964
 35.2325028676675771 38.2419723650567462 28.1128704123049964
 46.5068668035945052 23.5961043759422537 28.1128704123049964
 32.4138484957075690 38.2419723650567462 28.1128704123049964
 46.5068242401747796 57.7698207603227232 28.1128704123049964
 29.5952786816875744 38.2419723650567462 28.1128704123049964
 26.7767088676675797 38.2419723650567462 28.1128704123049964
 69.0556789895745169 23.5961043759422537 28.1128704123049964
 -2.8186545886837178 26.0371311936879657 28.1128704123049964
 23.9580544957075787 38.2419723650567462 28.1128704123049964
 18.3209149895745149 23.5961043759422537 28.1128704123049964
  2.8185695972962814 26.0371311936879657 28.1128704123049964
 -16.9115883386306614 40.6829991828024689 28.1128704123049964
 -23.9581398934510652 62.6518011664742076 28.1128704123049964
  7.0464666582497495 18.7141971991307194 28.1128704123049964
  9.8650364722697521 18.7141971991307194 28.1128704123049964
 32.4138482925289324 62.6518011664742076 28.1128704123049964
 46.5068665597806330 52.8878403541712458 28.1128704123049964
 50.7347213011282463 50.4468867657654769 28.1128704123049964
 15.5022602925289341 62.6518011664742076 28.1128704123049964
 26.7766244722697486 18.7141971991307194 28.1128704123049964
  9.8650361065489385 62.6518011664742076 28.1128704123049964
 32.4138486582497549 18.7141971991307194 28.1128704123049964
  4.2278964785089341 62.6518011664742076 28.1128704123049964
 43.6882124722697469 18.7141971991307194 28.1128704123049964
 49.3254366582497497 18.7141971991307194 28.1128704123049964
 -1.4093277074710613 62.6518011664742076 28.1128704123049964
 33.8231335449421309 21.1551507875364884 28.1128704123049964
 54.9626608442297453 18.7141971991307194 28.1128704123049964
 63.4184548442297569 18.7141971991307194 28.1128704123049964
 71.8742488442297542 18.7141971991307194 28.1128704123049964
 -29.5952794402193682 52.8878403541712458 28.1128704123049964
 -5.6371820830978701 21.1551507875364884 28.1128704123049964
 -12.6836915214910633 62.6518011664742076 28.1128704123049964
 -0.0000424550578693 21.1551507875364884 28.1128704123049964
  2.8186119169021282 21.1551507875364884 28.1128704123049964
  5.6371817309221299 21.1551507875364884 28.1128704123049964
  8.4557515449421317 21.1551507875364884 28.1128704123049964
 14.0929757309221344 21.1551507875364884 28.1128704123049964
 16.9115455449421290 21.1551507875364884 28.1128704123049964
 -8.4557943386306622 40.6829991828024689 28.1128704123049964
 -21.1394855214910677 62.6518011664742076 28.1128704123049964
 53.5533756730882544 50.4468867657654769 28.1128704123049964
 26.7766664261547831 57.7698207603227232 28.1128704123049964
 23.9580966121347885 57.7698207603227232 28.1128704123049964
 19.7301575972962873 26.0371311936879657 28.1128704123049964
 -18.3209155042924259 38.2419723650567462 28.1128704123049964
 31.0045211675023928 55.3288671719169614 28.1128704123049964
 23.9580543738006249 52.8878403541712458 28.1128704123049964
 56.3719879286210457 30.9190383704995000 28.1128704123049964
 26.7767087457606330 52.8878403541712458 28.1128704123049964
 35.2325027457606268 52.8878403541712458 28.1128704123049964
 33.8231334230351877 35.8010187766509844 28.1128704123049964
 31.0045636090151895 35.8010187766509844 28.1128704123049964
  5.6371391675024016 55.3288671719169614 28.1128704123049964
 -4.2278972776771910 33.3600651882452155 28.1128704123049964
 -1.4093274636571897 33.3600651882452155 28.1128704123049964
  1.4092423503628120 33.3600651882452155 28.1128704123049964
  7.0464665363428152 33.3600651882452155 28.1128704123049964
 28.1859515566610455 30.9190383704995000 28.1128704123049964
 -0.0000004605375943 55.3288671719169614 28.1128704123049964
 -2.8186548324975988 55.3288671719169614 28.1128704123049964
 21.1394847223228126 33.3600651882452155 28.1128704123049964
 23.9580545363428143 33.3600651882452155 28.1128704123049964
 25.3673394230351938 35.8010187766509844 28.1128704123049964
 26.7766243503628161 33.3600651882452155 28.1128704123049964
 29.5952787223228171 33.3600651882452155 28.1128704123049964
 32.4138485363428117 33.3600651882452155 28.1128704123049964
 43.6882123503628037 33.3600651882452155 28.1128704123049964
 -25.3673824605375984 55.3288671719169614 28.1128704123049964
 -28.1860368324975958 55.3288671719169614 28.1128704123049964
 52.1440907457606357 52.8878403541712458 28.1128704123049964
 63.4184547223228137 33.3600651882452155 28.1128704123049964
 49.3254363738006276 52.8878403541712458 28.1128704123049964
 15.5022605363428152 33.3600651882452155 28.1128704123049964
 45.0975393534824036 55.3288671719169614 28.1128704123049964
 22.5488119286210420 30.9190383704995000 28.1128704123049964
 47.9161091675023982 55.3288671719169614 28.1128704123049964
 21.1394422401747804 57.7698207603227232 28.1128704123049964
 25.3673817832762829 26.0371311936879657 28.1128704123049964
 31.0045214113162864 26.0371311936879657 28.1128704123049964
 36.6417455972962784 26.0371311936879657 28.1128704123049964
 39.4603154113162731 26.0371311936879657 28.1128704123049964
 45.0975395972962758 26.0371311936879657 28.1128704123049964
 47.9161094113162704 26.0371311936879657 28.1128704123049964
 21.1394846816875770 38.2419723650567462 28.1128704123049964
 50.7347637832762715 26.0371311936879657 28.1128704123049964
 53.5533335972962803 26.0371311936879657 28.1128704123049964
 12.6836482401747883 57.7698207603227232 28.1128704123049964
 67.6463517832762875 26.0371311936879657 28.1128704123049964
 -15.5023033300313369 28.4780847820937346 28.1128704123049964
 -12.6837335160113369 28.4780847820937346 28.1128704123049964
 -9.8650791440513395 28.4780847820937346 28.1128704123049964
 -7.0465093300313377 28.4780847820937346 28.1128704123049964
 -4.2279395160113378 28.4780847820937346 28.1128704123049964
 -1.4092853878652121 57.7698207603227232 28.1128704123049964
 -7.0465095738452108 57.7698207603227232 28.1128704123049964
 -9.8650793878652134 57.7698207603227232 28.1128704123049964
 15.5023028559486651 28.4780847820937346 28.1128704123049964
 29.5952364839886641 28.4780847820937346 28.1128704123049964
 32.4138908559486651 28.4780847820937346 28.1128704123049964
 43.6882546699686571 28.4780847820937346 28.1128704123049964
 49.3254788559486528 28.4780847820937346 28.1128704123049964
 -18.3208733878652161 57.7698207603227232 28.1128704123049964
 66.2370668559486688 28.4780847820937346 28.1128704123049964
 -1.4093276261993704 52.8878403541712458 28.1128704123049964
 50.7347635394624064 55.3288671719169614 28.1128704123049964
 14.0929332894093395 40.6829991828024689 28.1128704123049964
  1.4092424722697507 18.7141971991307194 28.1128704123049964
 11.2744057949951930 35.8010187766509844 28.1128704123049964
 70.4649216785679755 16.2731703813850075 28.1128704123049964
 49.3254364144358703 48.0059331773597151 28.1128704123049964
 -0.0000003792658964 45.5649063596139996 28.1128704123049964
 -5.6372245652458988 45.5649063596139996 28.1128704123049964
 31.0045638528290759  6.5092827984219914 28.1128704123049964
 11.2743632315754621 69.9747351610314468 28.1128704123049964
 52.1440062284558650 48.0059331773597151 28.1128704123049964
 39.4603578528290697  6.5092827984219914 28.1128704123049964
  5.6371390455954664 69.9747351610314468 28.1128704123049964
  2.8185692315754580 69.9747351610314468 28.1128704123049964
 -0.0000005824445366 69.9747351610314468 28.1128704123049964
 56.3719458528290644  6.5092827984219914 28.1128704123049964
 -2.8186549544045376 69.9747351610314468 28.1128704123049964
  2.8186120388090696  6.5092827984219914 28.1128704123049964
 64.8277398528290689  6.5092827984219914 28.1128704123049964
 -14.0930185652459006 45.5649063596139996 28.1128704123049964
 -8.4557945824445344 69.9747351610314468 28.1128704123049964
 -22.5488127684245363 69.9747351610314468 28.1128704123049964
 -25.3673825824445345 69.9747351610314468 28.1128704123049964
 -28.1860369544045355 69.9747351610314468 28.1128704123049964
 12.6836909255014501  8.9502363868277595 28.1128704123049964
 -19.7301581932858987 45.5649063596139996 28.1128704123049964
 40.8696422925289298 62.6518011664742076 28.1128704123049964
 -22.5488125652458997 45.5649063596139996 28.1128704123049964
 54.9626183620817130 43.1239527712082307 28.1128704123049964
 -25.3674246988717442 50.4468867657654769 28.1128704123049964
 46.5068669255014484  8.9502363868277595 28.1128704123049964
 -5.6372247684245327 69.9747351610314468 28.1128704123049964
 52.1440911114814512  8.9502363868277595 28.1128704123049964
 28.1859512315754728 69.9747351610314468 28.1128704123049964
 52.1440065941766875  4.0683292100162243 28.1128704123049964
 14.0930181724349168  1.6273023922705114 28.1128704123049964
 19.7301578004749203  1.6273023922705114 28.1128704123049964
 31.0046061724349222  1.6273023922705114 28.1128704123049964
 29.5952361182678381 72.4156887494372228 28.1128704123049964
 36.6417458004749221  1.6273023922705114 28.1128704123049964
 42.2789699864549249  1.6273023922705114 28.1128704123049964
 23.9580964902278346 72.4156887494372228 28.1128704123049964
 18.3208723042478390 72.4156887494372228 28.1128704123049964
 50.7347639864549222  1.6273023922705114 28.1128704123049964
 -18.3209155855641299 48.0059331773597151 28.1128704123049964
 59.1905579864549196  1.6273023922705114 28.1128704123049964
 64.8277821724349081  1.6273023922705114 28.1128704123049964
 36.6417452315754701 69.9747351610314468 28.1128704123049964
 50.7347636207340997 45.5649063596139996 28.1128704123049964
 76.1021459864549144  1.6273023922705114 28.1128704123049964
 39.4603998067140935 45.5649063596139996 28.1128704123049964
  4.2278969661366892  4.0683292100162243 28.1128704123049964
  9.8650365941766900  4.0683292100162243 28.1128704123049964
 12.6836909661366875  4.0683292100162243 28.1128704123049964
 15.5022607801566892  4.0683292100162243 28.1128704123049964
 18.3208305941766909  4.0683292100162243 28.1128704123049964
 21.1394849661366919  4.0683292100162243 28.1128704123049964
 23.9580547801566937  4.0683292100162243 28.1128704123049964
 33.8231756207340979 45.5649063596139996 28.1128704123049964
 29.5952789661366928  4.0683292100162243 28.1128704123049964
 46.5068669661366982  4.0683292100162243 28.1128704123049964
 73.2835761724349197  1.6273023922705114 28.1128704123049964
 60.5998851114814414  8.9502363868277595 28.1128704123049964
 18.3209151114814510  8.9502363868277595 28.1128704123049964
 69.0556791114814530  8.9502363868277595 28.1128704123049964
  2.8185696785679806 16.2731703813850075 28.1128704123049964
 15.5023027340417219 43.1239527712082307 28.1128704123049964
 18.3208727918756047 13.8322167929792403 28.1128704123049964
 12.6836483620817209 43.1239527712082307 28.1128704123049964
 26.7766667918756056 13.8322167929792403 28.1128704123049964
 -22.5487704488186900 65.0927547548799765 28.1128704123049964
 32.4138909778556012 13.8322167929792403 28.1128704123049964
  7.0465087340417254 43.1239527712082307 28.1128704123049964
 -16.9116308207786865 65.0927547548799765 28.1128704123049964
 29.5952784378736951 67.5337083432857384 28.1128704123049964
  5.6371814871082586 50.4468867657654769 28.1128704123049964
 40.8696849778556057 13.8322167929792403 28.1128704123049964
 19.7301996730882578 50.4468867657654769 28.1128704123049964
 49.3254789778556031 13.8322167929792403 28.1128704123049964
 14.0930180505279825 16.2731703813850075 28.1128704123049964
 54.9626186058955923 13.8322167929792403 28.1128704123049964
 28.1859936730882552 50.4468867657654769 28.1128704123049964
 59.1905576613693398 40.6829991828024689 28.1128704123049964
 -15.5023034519382783 43.1239527712082307 28.1128704123049964
 16.9115451792213065 65.0927547548799765 28.1128704123049964
 14.0929753652013119 65.0927547548799765 28.1128704123049964
 11.2744055511813173 65.0927547548799765 28.1128704123049964
  8.4557511792213162 65.0927547548799765 28.1128704123049964
 -23.9580553761463051 67.5337083432857384 28.1128704123049964
  7.0465089778555976 13.8322167929792403 28.1128704123049964
 -0.0000428207786890 65.0927547548799765 28.1128704123049964
 -1.4092850221444004 13.8322167929792403 28.1128704123049964
 11.2743637192032189 11.3912632045734714 28.1128704123049964
 46.5068664785089325 62.6518011664742076 28.1128704123049964
 -0.0000000948167802 11.3912632045734714 28.1128704123049964
 31.0045215332232189 11.3912632045734714 28.1128704123049964
 33.8231759051832199 11.3912632045734714 28.1128704123049964
 29.5952363620817174 43.1239527712082307 28.1128704123049964
  2.8186116730882564 50.4468867657654769 28.1128704123049964
  4.2278964378736958 67.5337083432857384 28.1128704123049964
 45.0975397192032190 11.3912632045734714 28.1128704123049964
 62.0091276785679781 16.2731703813850075 28.1128704123049964
 36.6417454753893352 40.6829991828024689 28.1128704123049964
 53.5533337192032164 11.3912632045734714 28.1128704123049964
 -1.4093277481063067 67.5337083432857384 28.1128704123049964
 39.4603152894093299 40.6829991828024689 28.1128704123049964
 50.7347636613693425 40.6829991828024689 28.1128704123049964
 64.8277820505279863 16.2731703813850075 28.1128704123049964
 64.8276975332232155 11.3912632045734714 28.1128704123049964
 70.4649217192032182 11.3912632045734714 28.1128704123049964
 -15.5022613761463042 67.5337083432857384 28.1128704123049964
 -18.3209157481063052 67.5337083432857384 28.1128704123049964
 -11.2744065128917477 50.4468867657654769 28.1128704123049964
  5.6371395332232206 11.3912632045734714 28.1128704123049964
 45.0975816595431809 52.0741891580359919 28.6327538495249954
 40.8696424008908039 49.6332355696302230 28.6327538495249954
 38.0510725868707951 49.6332355696302230 28.6327538495249954
 14.0930177931690217 47.1922087518845075 28.6327538495249954
 39.4603574735631781 52.0741891580359919 28.6327538495249954
 19.7302419791490244 47.1922087518845075 28.6327538495249954
 36.6417876595431693 52.0741891580359919 28.6327538495249954
 42.2789696071890333 47.1922087518845075 28.6327538495249954
 25.3673816071890279 47.1922087518845075 28.6327538495249954
 -15.5022612271492086 49.6332355696302230 28.6327538495249954
 -21.1394854131292078 49.6332355696302230 28.6327538495249954
 -26.7767095991092070 49.6332355696302230 28.6327538495249954
 -9.8651215991092069 49.6332355696302230 28.6327538495249954
 53.5534179791490246 47.1922087518845075 28.6327538495249954
 -8.4557521544768282 52.0741891580359919 28.6327538495249954
 -4.2278974131292042 49.6332355696302230 28.6327538495249954
 -1.4093275991092098 49.6332355696302230 28.6327538495249954
 -5.6371823404568273 52.0741891580359919 28.6327538495249954
 -28.1859945264368292 52.0741891580359919 28.6327538495249954
  8.4558358455231772 52.0741891580359919 28.6327538495249954
 45.0976239791490272 47.1922087518845075 28.6327538495249954
 28.1860359791490147 47.1922087518845075 28.6327538495249954
 11.2744056595431719 52.0741891580359919 28.6327538495249954
 14.0929754735631594 52.0741891580359919 28.6327538495249954
 23.9580544008907985 49.6332355696302230 28.6327538495249954
 33.8232178455231747 52.0741891580359919 28.6327538495249954
 35.2325027728508005 49.6332355696302230 28.6327538495249954
  1.4092849002374601  0.8136511961352557 28.6327538495249954
  1.4092844126096999 59.3971231525932382 28.6327538495249954
 -23.9580552677844487 54.5151427464417537 28.6327538495249954
 31.0045633516562411 66.7200571471504844 28.6327538495249954
 22.5487693516562366 66.7200571471504844 28.6327538495249954
 19.7301995376362349 66.7200571471504844 28.6327538495249954
 14.0929753516562410 66.7200571471504844 28.6327538495249954
  8.4558357236162376 66.7200571471504844 28.6327538495249954
 -5.6371824623637705 66.7200571471504844 28.6327538495249954
 -8.4557522763837714 66.7200571471504844 28.6327538495249954
 -19.7302006483437680 66.7200571471504844 28.6327538495249954
 -25.3673402763837679 66.7200571471504844 28.6327538495249954
 -28.1859946483437653 66.7200571471504844 28.6327538495249954
 -31.0045644623637671 66.7200571471504844 28.6327538495249954
 -33.8231342763837688 66.7200571471504844 28.6327538495249954
 40.8696422789838678 64.2791035587447084 28.6327538495249954
 38.0510724649638732 64.2791035587447084 28.6327538495249954
 26.7767086509438528 64.2791035587447084 28.6327538495249954
 23.9580542789838589 64.2791035587447084 28.6327538495249954
  4.2278964649638544 64.2791035587447084 28.6327538495249954
 36.6417875376362474 66.7200571471504844 28.6327538495249954
 -7.0464673490561447 64.2791035587447084 28.6327538495249954
 42.2790117236162359 66.7200571471504844 28.6327538495249954
 -38.0510735756713814 69.1610107355562462 28.6327538495249954
 -0.0000005959896168 71.6020375533019688 28.6327538495249954
 -5.6372247819696195 71.6020375533019688 28.6327538495249954
 -14.0930187819696204 71.6020375533019688 28.6327538495249954
 -16.9115885959896168 71.6020375533019688 28.6327538495249954
 -19.7301584100096186 71.6020375533019688 28.6327538495249954
 -31.0046067819696169 71.6020375533019688 28.6327538495249954
 -33.8231765959896151 71.6020375533019688 28.6327538495249954
 -36.6417464100096169 71.6020375533019688 28.6327538495249954
 43.6882966103086261 69.1610107355562462 28.6327538495249954
 40.8697267962886173 69.1610107355562462 28.6327538495249954
 23.9581387962886225 69.1610107355562462 28.6327538495249954
 18.3209146103086198 69.1610107355562462 28.6327538495249954
 15.5023447962886092 69.1610107355562462 28.6327538495249954
  9.8651206103086064 69.1610107355562462 28.6327538495249954
 -7.0464673896913883 69.1610107355562462 28.6327538495249954
 -9.8650372037113900 69.1610107355562462 28.6327538495249954
 -29.5952795756713840 69.1610107355562462 28.6327538495249954
 45.0975815376362448 66.7200571471504844 28.6327538495249954
 50.7348058455231694 52.0741891580359919 28.6327538495249954
 -9.8651217210161430 64.2791035587447084 28.6327538495249954
 -26.7767097210161431 64.2791035587447084 28.6327538495249954
 33.8231755259173212 56.9561695641874692 28.6327538495249954
 14.0930177118973283 56.9561695641874692 28.6327538495249954
 11.2743633399373131 56.9561695641874692 28.6327538495249954
 -14.0930186600626755 56.9561695641874692 28.6327538495249954
 -19.7301582881026789 56.9561695641874692 28.6327538495249954
 -22.5488126600626764 56.9561695641874692 28.6327538495249954
 43.6882967322155622 54.5151427464417537 28.6327538495249954
 40.8697269181955534 54.5151427464417537 28.6327538495249954
 26.7767087322155568 54.5151427464417537 28.6327538495249954
 21.1394845462355612 54.5151427464417537 28.6327538495249954
 18.3209147322155452 54.5151427464417537 28.6327538495249954
 15.5023449181955559 54.5151427464417537 28.6327538495249954
 12.6836905462355407 54.5151427464417537 28.6327538495249954
  9.8651207322155532 54.5151427464417537 28.6327538495249954
  7.0465509181955595 54.5151427464417537 28.6327538495249954
 -12.6836914537644478 54.5151427464417537 28.6327538495249954
 -18.3208310818044460 54.5151427464417537 28.6327538495249954
 39.4603997118973240 56.9561695641874692 28.6327538495249954
 -12.6836915350361448 64.2791035587447084 28.6327538495249954
 42.2789695259173328 56.9561695641874692 28.6327538495249954
 -29.5952372154302985 59.3971231525932382 28.6327538495249954
 -29.5952795350361448 64.2791035587447084 28.6327538495249954
 -32.4138493490561430 64.2791035587447084 28.6327538495249954
 36.6418298572420866 61.8380767409990000 28.6327538495249954
 25.3673814852820882 61.8380767409990000 28.6327538495249954
 19.7302418572420777 61.8380767409990000 28.6327538495249954
 -2.8185703287379194 61.8380767409990000 28.6327538495249954
 -8.4557945147179190 61.8380767409990000 28.6327538495249954
 -16.9115885147179164 61.8380767409990000 28.6327538495249954
 -25.3673825147179137 61.8380767409990000 28.6327538495249954
 -33.8231765147179146 61.8380767409990000 28.6327538495249954
 29.5953207845697079 59.3971231525932382 28.6327538495249954
 18.3208724126097096 59.3971231525932382 28.6327538495249954
 15.5023025985896936 59.3971231525932382 28.6327538495249954
  7.0465085985897025 59.3971231525932382 28.6327538495249954
 -4.2278552154303037 59.3971231525932382 28.6327538495249954
 -23.9580975873902986 59.3971231525932382 28.6327538495249954
 -26.7766674014102968 59.3971231525932382 28.6327538495249954
 -32.4138915873902960 59.3971231525932382 28.6327538495249954
  5.6372237931690181 47.1922087518845075 28.6327538495249954
 38.0510727087777383 34.9873675805157234 28.6327538495249954
 -5.6371400208509774 47.1922087518845075 28.6327538495249954
 29.5953211502905269 15.4595191852497500 28.6327538495249954
 26.7766667783305188 15.4595191852497500 28.6327538495249954
 23.9580969643105171 15.4595191852497500 28.6327538495249954
 15.5023029643105232 15.4595191852497500 28.6327538495249954
  7.0465089643105223 15.4595191852497500 28.6327538495249954
 -1.4092850356894804 15.4595191852497500 28.6327538495249954
 -4.2278548497094786 15.4595191852497500 28.6327538495249954
 -7.0465092216694787 15.4595191852497500 28.6327538495249954
 76.1021458916381448 13.0185655968439828 28.6327538495249954
 35.2324607783305126 15.4595191852497500 28.6327538495249954
 73.2835760776181360 13.0185655968439828 28.6327538495249954
 64.8277820776181386 13.0185655968439828 28.6327538495249954
 62.0091277056581518 13.0185655968439828 28.6327538495249954
 50.7347638916381456 13.0185655968439828 28.6327538495249954
 47.9161940776181368 13.0185655968439828 28.6327538495249954
 39.4604000776181465 13.0185655968439828 28.6327538495249954
 36.6417457056581313 13.0185655968439828 28.6327538495249954
 22.5488120776181340 13.0185655968439828 28.6327538495249954
 16.9115878916381419 13.0185655968439828 28.6327538495249954
 11.2743637056581409 13.0185655968439828 28.6327538495249954
 67.6463518916381474 13.0185655968439828 28.6327538495249954
 38.0511151502905278 15.4595191852497500 28.6327538495249954
 40.8696849643105153 15.4595191852497500 28.6327538495249954
 49.3254789643105269 15.4595191852497500 28.6327538495249954
 63.4184548306846807 20.3414995914012344 28.6327538495249954
 60.5998850166646719 20.3414995914012344 28.6327538495249954
 57.7812306447046780 20.3414995914012344 28.6327538495249954
 54.9626608306846691 20.3414995914012344 28.6327538495249954
 38.0510728306846602 20.3414995914012344 28.6327538495249954
 26.7767090166646753 20.3414995914012344 28.6327538495249954
 23.9580546447046672 20.3414995914012344 28.6327538495249954
 21.1394848306846654 20.3414995914012344 28.6327538495249954
 18.3209150166646637 20.3414995914012344 28.6327538495249954
 -4.2278971693153311 20.3414995914012344 28.6327538495249954
 73.2835760369829075 17.9004727736555189 28.6327538495249954
 59.1905578510029073 17.9004727736555189 28.6327538495249954
 53.5534182229629039 17.9004727736555189 28.6327538495249954
 39.4604000369828896 17.9004727736555189 28.6327538495249954
 28.1860362229629082 17.9004727736555189 28.6327538495249954
 25.3673818510029001 17.9004727736555189 28.6327538495249954
 22.5488120369828984 17.9004727736555189 28.6327538495249954
 19.7302422229628966 17.9004727736555189 28.6327538495249954
 11.2744482229629011 17.9004727736555189 28.6327538495249954
  5.6372240369829028 17.9004727736555189 28.6327538495249954
 -8.4557941489970982 17.9004727736555189 28.6327538495249954
  2.8185697056581414 13.0185655968439828 28.6327538495249954
 66.2370246447046753 20.3414995914012344 28.6327538495249954
 -5.6372242943418591 13.0185655968439828 28.6327538495249954
 63.4184549119563812 10.5775387790982709 28.6327538495249954
 38.0510729525916105  5.6956316022867357 28.6327538495249954
 35.2325031385716159  5.6956316022867357 28.6327538495249954
 23.9580547666116068  5.6956316022867357 28.6327538495249954
  9.8651211385716078  5.6956316022867357 28.6327538495249954
  4.2278969525916086  5.6956316022867357 28.6327538495249954
  1.4093271385716108  5.6956316022867357 28.6327538495249954
 -1.4093272333883895  5.6956316022867357 28.6327538495249954
 81.7393701588898551  3.2546047845410229 28.6327538495249954
 67.6463519729098550  3.2546047845410229 28.6327538495249954
 43.6882971385716132  5.6956316022867357 28.6327538495249954
 33.8231759729098371  3.2546047845410229 28.6327538495249954
  2.8186543448698407  3.2546047845410229 28.6327538495249954
 -0.0000000270901599  3.2546047845410229 28.6327538495249954
 66.2370670862174649  0.8136511961352557 28.6327538495249954
 63.4184972721974631  0.8136511961352557 28.6327538495249954
 54.9627032721974516  0.8136511961352557 28.6327538495249954
 49.3254790862174488  0.8136511961352557 28.6327538495249954
 46.5069092721974613  0.8136511961352557 28.6327538495249954
 43.6882549002374461  0.8136511961352557 28.6327538495249954
 32.4138910862174541  0.8136511961352557 28.6327538495249954
 25.3673819729098362  3.2546047845410229 28.6327538495249954
 49.3254367666116167  5.6956316022867357 28.6327538495249954
 54.9626609525916123  5.6956316022867357 28.6327538495249954
 60.5998851385716151  5.6956316022867357 28.6327538495249954
 60.5998850979363723 10.5775387790982709 28.6327538495249954
 57.7813152839163777 10.5775387790982709 28.6327538495249954
 40.8697272839163759 10.5775387790982709 28.6327538495249954
 35.2325030979363731 10.5775387790982709 28.6327538495249954
 23.9581392839163634 10.5775387790982709 28.6327538495249954
 -4.2278970880436288 10.5775387790982709 28.6327538495249954
 76.1021882112439840  8.1365851906925037 28.6327538495249954
 64.8277398392839928  8.1365851906925037 28.6327538495249954
 39.4603578392839793  8.1365851906925037 28.6327538495249954
 36.6417880252639918  8.1365851906925037 28.6327538495249954
 33.8232182112439972  8.1365851906925037 28.6327538495249954
 25.3674242112439856  8.1365851906925037 28.6327538495249954
 19.7302000252639935  8.1365851906925037 28.6327538495249954
 14.0929758392839890  8.1365851906925037 28.6327538495249954
  8.4558362112439873  8.1365851906925037 28.6327538495249954
  5.6371818392839907  8.1365851906925037 28.6327538495249954
  2.8186120252639890  8.1365851906925037 28.6327538495249954
  0.0000422112439907  8.1365851906925037 28.6327538495249954
 -2.8186121607160102  8.1365851906925037 28.6327538495249954
 77.5114731385716169  5.6956316022867357 28.6327538495249954
 71.8742489525916284  5.6956316022867357 28.6327538495249954
 74.6929032839163654 10.5775387790982709 28.6327538495249954
 -8.4557519106629488 22.7824531798069998 28.6327538495249954
  2.8186119033570516 22.7824531798069998 28.6327538495249954
  5.6371817173770493 22.7824531798069998 28.6327538495249954
  9.8651208541224857 39.8692747573272612 28.6327538495249954
  7.0465510401024849 39.8692747573272612 28.6327538495249954
  4.2278966681424874 39.8692747573272612 28.6327538495249954
 -1.4092429598975091 39.8692747573272612 28.6327538495249954
 -12.6836913318575100 39.8692747573272612 28.6327538495249954
 50.7348059674301126 37.4283211689214923 28.6327538495249954
 47.9161515954701187 37.4283211689214923 28.6327538495249954
 42.2790119674301152 37.4283211689214923 28.6327538495249954
  2.8186117814501150 37.4283211689214923 28.6327538495249954
 52.1440908541225028 39.8692747573272612 28.6327538495249954
  0.0000419674301133 37.4283211689214923 28.6327538495249954
 -8.4557520325698885 37.4283211689214923 28.6327538495249954
 -14.0929762185498877 37.4283211689214923 28.6327538495249954
 57.7812305227977419 34.9873675805157234 28.6327538495249954
 54.9626607087777472 34.9873675805157234 28.6327538495249954
 52.1440908947577384 34.9873675805157234 28.6327538495249954
 40.8696425227977400 34.9873675805157234 28.6327538495249954
 33.8231754040103922 71.6020375533019688 28.6327538495249954
 21.1394847087777364 34.9873675805157234 28.6327538495249954
 18.3209148947577418 34.9873675805157234 28.6327538495249954
 -2.8186124045298877 37.4283211689214923 28.6327538495249954
 54.9626606681424974 39.8692747573272612 28.6327538495249954
 -22.5488125381557367 42.3103015750729767 28.6327538495249954
 -11.2743641661957401 42.3103015750729767 28.6327538495249954
 -8.4557943928109793 47.1922087518845075 28.6327538495249954
 54.9627029064766432 44.7512551634787386 28.6327538495249954
 40.8696847204966431 44.7512551634787386 28.6327538495249954
 26.7766665345166501 44.7512551634787386 28.6327538495249954
 23.9580967204966342 44.7512551634787386 28.6327538495249954
 21.1395269064766467 44.7512551634787386 28.6327538495249954
  4.2279389064766386 44.7512551634787386 28.6327538495249954
 -9.8650792795033553 44.7512551634787386 28.6327538495249954
 -18.3208732795033562 44.7512551634787386 28.6327538495249954
 56.3719878338042619 42.3103015750729767 28.6327538495249954
 50.7347636478242734 42.3103015750729767 28.6327538495249954
 47.9161938338042646 42.3103015750729767 28.6327538495249954
 42.2789696478242618 42.3103015750729767 28.6327538495249954
 36.6417454618442662 42.3103015750729767 28.6327538495249954
 31.0046058338042556 42.3103015750729767 28.6327538495249954
 28.1859514618442688 42.3103015750729767 28.6327538495249954
 25.3673816478242529 42.3103015750729767 28.6327538495249954
 19.7301574618442501 42.3103015750729767 28.6327538495249954
  5.6372238338042564 42.3103015750729767 28.6327538495249954
  2.8185694618442589 42.3103015750729767 28.6327538495249954
 -0.0000003521757358 42.3103015750729767 28.6327538495249954
 15.5022605227977337 34.9873675805157234 28.6327538495249954
 -9.8651214772022673 34.9873675805157234 28.6327538495249954
 -12.6836912912222672 34.9873675805157234 28.6327538495249954
 -15.5022611052422672 34.9873675805157234 28.6327538495249954
 28.1859515837511907 27.6644335859584807 28.6327538495249954
  8.4557937697312031 27.6644335859584807 28.6327538495249954
 -0.0000002302687971 27.6644335859584807 28.6327538495249954
 -2.8185700442888009 27.6644335859584807 28.6327538495249954
 63.4184547900494380 25.2234067682127652 28.6327538495249954
 57.7813151620094345 25.2234067682127652 28.6327538495249954
 49.3255211620094371 25.2234067682127652 28.6327538495249954
 21.1394847900494298 25.2234067682127652 28.6327538495249954
  9.8651209760294343 25.2234067682127652 28.6327538495249954
  7.0465511620094325 25.2234067682127652 28.6327538495249954
  1.4093269760294336 25.2234067682127652 28.6327538495249954
 64.8277397173770566 22.7824531798069998 28.6327538495249954
 59.1906000893370532 22.7824531798069998 28.6327538495249954
 53.5533759033570504 22.7824531798069998 28.6327538495249954
 47.9161517173770548 22.7824531798069998 28.6327538495249954
 42.2790120893370442 22.7824531798069998 28.6327538495249954
 36.6417879033570415 22.7824531798069998 28.6327538495249954
 25.3674240893370566 22.7824531798069998 28.6327538495249954
 19.7301999033570468 22.7824531798069998 28.6327538495249954
 11.2744059033570529 22.7824531798069998 28.6327538495249954
  8.4558360893370512 22.7824531798069998 28.6327538495249954
 62.0091275837512086 27.6644335859584807 28.6327538495249954
 -2.8185702068309761 47.1922087518845075 28.6327538495249954
  1.4092846564235810 30.1053871743642461 28.6327538495249954
 12.6837330283835765 30.1053871743642461 28.6327538495249954
 62.0092121010559580 32.5463407627700150 28.6327538495249954
 50.7347637290959668 32.5463407627700150 28.6327538495249954
 47.9161939150759579 32.5463407627700150 28.6327538495249954
 42.2789697290959623 32.5463407627700150 28.6327538495249954
 36.6418301010559517 32.5463407627700150 28.6327538495249954
 25.3673817290959498 32.5463407627700150 28.6327538495249954
 16.9115877290959595 32.5463407627700150 28.6327538495249954
 11.2744481010559561 32.5463407627700150 28.6327538495249954
 -8.4557942709040379 32.5463407627700150 28.6327538495249954
 -11.2743640849240396 32.5463407627700150 28.6327538495249954
 -14.0929338989440378 32.5463407627700150 28.6327538495249954
 63.4184970283835838 30.1053871743642461 28.6327538495249954
 60.5998426564235899 30.1053871743642461 28.6327538495249954
 57.7812728424035953 30.1053871743642461 28.6327538495249954
 52.1440486564235925 30.1053871743642461 28.6327538495249954
 46.5069090283835891 30.1053871743642461 28.6327538495249954
 40.8696848424035863 30.1053871743642461 28.6327538495249954
 38.0511150283835775 30.1053871743642461 28.6327538495249954
 35.2324606564235907 30.1053871743642461 28.6327538495249954
 23.9580968424035810 30.1053871743642461 28.6327538495249954
 18.3208726564235782 30.1053871743642461 28.6327538495249954
  9.8650786564235791 30.1053871743642461 28.6327538495249954
 39.4603995899903808 71.6020375533019688 28.6327538495249954
