 H  O 
 1.0000000000000000
    84.5579400000000021    0.0000000000000000    0.0000000000000000
   -42.2789706095346958   73.2293399455724767    0.0000000000000000
     0.0000000000000000    0.0000000000000000   46.9039550000000034
 H   O  
 255 305
Cartesian
 56.3719456090151922 35.8010187766509844 28.1128704123049964
 -23.9580974519382757 43.1239527712082307 28.1128704123049964
 59.1905576613693398 40.6829991828024689 28.1128704123049964
 50.7347636613693425 40.6829991828024689 28.1128704123049964
 47.9161092894093343 40.6829991828024689 28.1128704123049964
 45.0975394753893397 40.6829991828024689 28.1128704123049964
 42.2789696613693309 40.6829991828024689 28.1128704123049964
 36.6417454753893352 40.6829991828024689 28.1128704123049964
 33.8231756613693406 40.6829991828024689 28.1128704123049964
 25.3673816613693432 40.6829991828024689 28.1128704123049964
 19.7301574753893405 40.6829991828024689 28.1128704123049964
 -5.6372245246106605 40.6829991828024689 28.1128704123049964
 -8.4557943386306622 40.6829991828024689 28.1128704123049964
 57.7812304957075682 38.2419723650567462 28.1128704123049964
 54.9626606816875736 38.2419723650567462 28.1128704123049964
 49.3254364957075708 38.2419723650567462 28.1128704123049964
 43.6882968676675674 38.2419723650567462 28.1128704123049964
 35.2325028676675771 38.2419723650567462 28.1128704123049964
 -9.8650792659582809 43.1239527712082307 28.1128704123049964
 -7.0465094519382783 43.1239527712082307 28.1128704123049964
 -1.4092852659582757 43.1239527712082307 28.1128704123049964
 12.6836483620817209 43.1239527712082307 28.1128704123049964
 12.6836906004158720 48.0059331773597151 28.1128704123049964
 -12.6836913995841307 48.0059331773597151 28.1128704123049964
 -21.1394853995841281 48.0059331773597151 28.1128704123049964
 56.3719878067141025 45.5649063596139996 28.1128704123049964
 45.0975394347540970 45.5649063596139996 28.1128704123049964
 28.1859514347540951 45.5649063596139996 28.1128704123049964
 22.5488118067141059 45.5649063596139996 28.1128704123049964
 19.7301574347541049 45.5649063596139996 28.1128704123049964
 32.4138484957075690 38.2419723650567462 28.1128704123049964
 16.9115876207341032 45.5649063596139996 28.1128704123049964
  2.8185694347540982 45.5649063596139996 28.1128704123049964
 -22.5488125652458997 45.5649063596139996 28.1128704123049964
 38.0510303620817112 43.1239527712082307 28.1128704123049964
 32.4138907340417219 43.1239527712082307 28.1128704123049964
 29.5952363620817174 43.1239527712082307 28.1128704123049964
 23.9580967340417281 43.1239527712082307 28.1128704123049964
 18.3208725480617254 43.1239527712082307 28.1128704123049964
 15.5023027340417219 43.1239527712082307 28.1128704123049964
 11.2743634347540986 45.5649063596139996 28.1128704123049964
 15.5022604144358738 48.0059331773597151 28.1128704123049964
 26.7767088676675797 38.2419723650567462 28.1128704123049964
 -1.4093275042924258 38.2419723650567462 28.1128704123049964
 35.2324606699686598 28.4780847820937346 28.1128704123049964
 29.5952364839886641 28.4780847820937346 28.1128704123049964
 21.1394424839886597 28.4780847820937346 28.1128704123049964
 18.3208726699686650 28.4780847820937346 28.1128704123049964
 12.6836484839886605 28.4780847820937346 28.1128704123049964
  7.0465088559486642 28.4780847820937346 28.1128704123049964
 -9.8650791440513395 28.4780847820937346 28.1128704123049964
 -15.5023033300313369 28.4780847820937346 28.1128704123049964
 56.3719034113162749 26.0371311936879657 28.1128704123049964
 50.7347637832762715 26.0371311936879657 28.1128704123049964
 28.1859515972962846 26.0371311936879657 28.1128704123049964
 25.3673817832762829 26.0371311936879657 28.1128704123049964
 69.0556789895745169 23.5961043759422537 28.1128704123049964
 46.5068668035945052 23.5961043759422537 28.1128704123049964
 21.1394848035945166 23.5961043759422537 28.1128704123049964
 18.3209149895745149 23.5961043759422537 28.1128704123049964
 12.6836908035945140 23.5961043759422537 28.1128704123049964
 38.0510304839886544 28.4780847820937346 28.1128704123049964
 43.6882546699686571 28.4780847820937346 28.1128704123049964
 49.3254788559486528 28.4780847820937346 28.1128704123049964
 52.1440486699686616 28.4780847820937346 28.1128704123049964
 42.2789274230351850 35.8010187766509844 28.1128704123049964
 36.6417877949951958 35.8010187766509844 28.1128704123049964
 25.3673394230351938 35.8010187766509844 28.1128704123049964
 19.7301997949951904 35.8010187766509844 28.1128704123049964
 11.2744057949951930 35.8010187766509844 28.1128704123049964
 -5.6371822050048115 35.8010187766509844 28.1128704123049964
 -11.2744063909848098 35.8010187766509844 28.1128704123049964
 -14.0929762050048097 35.8010187766509844 28.1128704123049964
 15.5022604957075725 38.2419723650567462 28.1128704123049964
 -19.7302003909848089 35.8010187766509844 28.1128704123049964
 32.4138485363428117 33.3600651882452155 28.1128704123049964
  4.2278967223228134 33.3600651882452155 28.1128704123049964
 -7.0465516496371885 33.3600651882452155 28.1128704123049964
 59.1905577426410403 30.9190383704995000 28.1128704123049964
 -8.4557942573589582 30.9190383704995000 28.1128704123049964
 -11.2743640713789581 30.9190383704995000 28.1128704123049964
 -14.0930184433389574 30.9190383704995000 28.1128704123049964
 -16.9115882573589573 30.9190383704995000 28.1128704123049964
 49.3254365363428136 33.3600651882452155 28.1128704123049964
 -7.0464670104254905 23.5961043759422537 28.1128704123049964
 18.3208302284558755 48.0059331773597151 28.1128704123049964
 23.9580544144358711 48.0059331773597151 28.1128704123049964
 25.3673391792213039 65.0927547548799765 28.1128704123049964
 19.7301995511813146 65.0927547548799765 28.1128704123049964
 14.0929753652013119 65.0927547548799765 28.1128704123049964
  5.6371813652013136 65.0927547548799765 28.1128704123049964
 -2.8186126347986837 65.0927547548799765 28.1128704123049964
 -8.4558368207786891 65.0927547548799765 28.1128704123049964
 -14.0929764488186855 65.0927547548799765 28.1128704123049964
 40.8696422925289298 62.6518011664742076 28.1128704123049964
 32.4138482925289324 62.6518011664742076 28.1128704123049964
 26.7766241065489261 62.6518011664742076 28.1128704123049964
 12.6836904785089395 62.6518011664742076 28.1128704123049964
  9.8650361065489385 62.6518011664742076 28.1128704123049964
 -7.0465518934510678 62.6518011664742076 28.1128704123049964
 47.9161936848071619 60.2107743487284921 28.1128704123049964
 19.7301573128471581 60.2107743487284921 28.1128704123049964
  5.6372236848071626 60.2107743487284921 28.1128704123049964
 -2.8185703151928343 60.2107743487284921 28.1128704123049964
 42.2789271792213057 65.0927547548799765 28.1128704123049964
 45.0975815511813138 65.0927547548799765 28.1128704123049964
 -35.2325037481063035 67.5337083432857384 28.1128704123049964
 -15.5022613761463042 67.5337083432857384 28.1128704123049964
 32.4138904902278497 72.4156887494372228 28.1128704123049964
  7.0465084902278479 72.4156887494372228 28.1128704123049964
  1.4092843042478451 72.4156887494372228 28.1128704123049964
 -9.8650795097721549 72.4156887494372228 28.1128704123049964
 -18.3208735097721558 72.4156887494372228 28.1128704123049964
 -23.9580976957521585 72.4156887494372228 28.1128704123049964
 42.2789694175554729 69.9747351610314468 28.1128704123049964
 28.1859512315754728 69.9747351610314468 28.1128704123049964
 -11.2743643151928357 60.2107743487284921 28.1128704123049964
 25.3673814175554639 69.9747351610314468 28.1128704123049964
 -2.8186549544045376 69.9747351610314468 28.1128704123049964
 -5.6372247684245327 69.9747351610314468 28.1128704123049964
 -14.0930187684245301 69.9747351610314468 28.1128704123049964
 -16.9115885824445336 69.9747351610314468 28.1128704123049964
 -33.8231765824445318 69.9747351610314468 28.1128704123049964
 38.0510724378736924 67.5337083432857384 28.1128704123049964
 12.6836904378736932 67.5337083432857384 28.1128704123049964
  1.4093266238536943 67.5337083432857384 28.1128704123049964
 19.7301572315754683 69.9747351610314468 28.1128704123049964
 21.1394846004158765 48.0059331773597151 28.1128704123049964
 38.0510302401747822 57.7698207603227232 28.1128704123049964
 32.4138906121347787 57.7698207603227232 28.1128704123049964
 12.6836905597806329 52.8878403541712458 28.1128704123049964
  9.8651207457606311 52.8878403541712458 28.1128704123049964
  7.0464663738006301 52.8878403541712458 28.1128704123049964
  4.2278965597806355 52.8878403541712458 28.1128704123049964
 -15.5022612542393716 52.8878403541712458 28.1128704123049964
 -23.9580552542393690 52.8878403541712458 28.1128704123049964
 -26.7767096261993700 52.8878403541712458 28.1128704123049964
 39.4603574871082543 50.4468867657654769 28.1128704123049964
 31.0045634871082498 50.4468867657654769 28.1128704123049964
 28.1859936730882552 50.4468867657654769 28.1128704123049964
 11.2744056730882534 50.4468867657654769 28.1128704123049964
  5.6371814871082586 50.4468867657654769 28.1128704123049964
 -2.8186125128917427 50.4468867657654769 28.1128704123049964
 -8.4558366988717459 50.4468867657654769 28.1128704123049964
 -16.9116306988717469 50.4468867657654769 28.1128704123049964
 54.9626606004158731 48.0059331773597151 28.1128704123049964
 35.2324182284558631 48.0059331773597151 28.1128704123049964
 26.7767087457606330 52.8878403541712458 28.1128704123049964
 29.5952785597806276 52.8878403541712458 28.1128704123049964
 32.4138483738006258 52.8878403541712458 28.1128704123049964
 40.8696423738006303 52.8878403541712458 28.1128704123049964
 29.5952362401747777 57.7698207603227232 28.1128704123049964
 23.9580966121347885 57.7698207603227232 28.1128704123049964
 15.5023026121347893 57.7698207603227232 28.1128704123049964
  9.8650784261547866 57.7698207603227232 28.1128704123049964
 -1.4092853878652121 57.7698207603227232 28.1128704123049964
 -4.2279397598252162 57.7698207603227232 28.1128704123049964
 -18.3208733878652161 57.7698207603227232 28.1128704123049964
 -26.7766673878652135 57.7698207603227232 28.1128704123049964
 35.2324604261547876 57.7698207603227232 28.1128704123049964
 -32.4138915738452127 57.7698207603227232 28.1128704123049964
 36.6417453534824062 55.3288671719169614 28.1128704123049964
 31.0045211675023928 55.3288671719169614 28.1128704123049964
 25.3673815394624036 55.3288671719169614 28.1128704123049964
 14.0929331675024070 55.3288671719169614 28.1128704123049964
  5.6371391675024016 55.3288671719169614 28.1128704123049964
  2.8185693534824074 55.3288671719169614 28.1128704123049964
 -5.6372246465175939 55.3288671719169614 28.1128704123049964
 -11.2744488324975958 55.3288671719169614 28.1128704123049964
 50.7347635394624064 55.3288671719169614 28.1128704123049964
 53.5533759169021195 21.1551507875364884 28.1128704123049964
 38.0510301182678390 72.4156887494372228 28.1128704123049964
 60.5998851114814414  8.9502363868277595 28.1128704123049964
 50.7347216668490617  6.5092827984219914 28.1128704123049964
 54.9626609661366956  4.0683292100162243 28.1128704123049964
 53.5533760388090698  6.5092827984219914 28.1128704123049964
 15.5023029778556030 13.8322167929792403 28.1128704123049964
 56.3719458528290644  6.5092827984219914 28.1128704123049964
 49.3254367801566929  4.0683292100162243 28.1128704123049964
 -1.4092850221444004 13.8322167929792403 28.1128704123049964
 59.1905156668490591  6.5092827984219914 28.1128704123049964
 12.6836908442297531 18.7141971991307194 28.1128704123049964
 29.5952789661366928  4.0683292100162243 28.1128704123049964
 63.4184549661366859  4.0683292100162243 28.1128704123049964
 70.4649217192032182 11.3912632045734714 28.1128704123049964
 21.1394848442297523 18.7141971991307194 28.1128704123049964
 59.1905579051832120 11.3912632045734714 28.1128704123049964
 73.2835338528290663  6.5092827984219914 28.1128704123049964
 -2.8185699494720202 16.2731703813850075 28.1128704123049964
 56.3719035332232110 11.3912632045734714 28.1128704123049964
 -1.4093272198433096  4.0683292100162243 28.1128704123049964
 -4.2278970744985491  8.9502363868277595 28.1128704123049964
 53.5533337192032164 11.3912632045734714 28.1128704123049964
 23.9580546582497540 18.7141971991307194 28.1128704123049964
 50.7347639051832218 11.3912632045734714 28.1128704123049964
 62.0091277192032209 11.3912632045734714 28.1128704123049964
 69.0555945941766822  4.0683292100162243 28.1128704123049964
 35.2324607918756030 13.8322167929792403 28.1128704123049964
 62.0091276785679781 16.2731703813850075 28.1128704123049964
 -0.0000001354520196 16.2731703813850075 28.1128704123049964
 25.3673396668490696  6.5092827984219914 28.1128704123049964
 28.1859940388090742  6.5092827984219914 28.1128704123049964
  5.6372240505279780 16.2731703813850075 28.1128704123049964
  8.4557938645479798 16.2731703813850075 28.1128704123049964
 14.0930180505279825 16.2731703813850075 28.1128704123049964
  5.6371818528290705  6.5092827984219914 28.1128704123049964
 16.9115878645479825 16.2731703813850075 28.1128704123049964
 74.6928609778556023 13.8322167929792403 28.1128704123049964
 -0.0000423331509293  6.5092827984219914 28.1128704123049964
 -2.8186121471709296  6.5092827984219914 28.1128704123049964
 36.6417880388090680  6.5092827984219914 28.1128704123049964
 71.8742066058955942 13.8322167929792403 28.1128704123049964
 66.2370669778556049 13.8322167929792403 28.1128704123049964
 47.9161940505279844 16.2731703813850075 28.1128704123049964
 45.0975820388090725  6.5092827984219914 28.1128704123049964
 52.1440487918755977 13.8322167929792403 28.1128704123049964
 47.9161518528290671  6.5092827984219914 28.1128704123049964
 43.6882547918756003 13.8322167929792403 28.1128704123049964
 40.8696849778556057 13.8322167929792403 28.1128704123049964
 77.5113885941766796  4.0683292100162243 28.1128704123049964
 56.3719880505279747 16.2731703813850075 28.1128704123049964
 38.0510306058956047 13.8322167929792403 28.1128704123049964
 70.4649218004749116  1.6273023922705114 28.1128704123049964
 45.0975397192032190 11.3912632045734714 28.1128704123049964
 11.2744060388090670  6.5092827984219914 28.1128704123049964
  2.8186119169021282 21.1551507875364884 28.1128704123049964
 36.6417458004749221  1.6273023922705114 28.1128704123049964
 -2.8186544667767790 11.3912632045734714 28.1128704123049964
 14.0930181724349168  1.6273023922705114 28.1128704123049964
 18.3209151114814510  8.9502363868277595 28.1128704123049964
 -5.6372242807967794 11.3912632045734714 28.1128704123049964
 11.2744059169021327 21.1551507875364884 28.1128704123049964
  5.6371395332232206 11.3912632045734714 28.1128704123049964
 -0.0000424550578693 21.1551507875364884 28.1128704123049964
 46.5068669255014484  8.9502363868277595 28.1128704123049964
 25.3673819051832226 11.3912632045734714 28.1128704123049964
 12.6836909255014501  8.9502363868277595 28.1128704123049964
  5.6372241724349186  1.6273023922705114 28.1128704123049964
 31.0045215332232189 11.3912632045734714 28.1128704123049964
 47.9161517309221239 21.1551507875364884 28.1128704123049964
 14.0929335332232206 11.3912632045734714 28.1128704123049964
 -5.6371820830978701 21.1551507875364884 28.1128704123049964
 45.0975398004749266  1.6273023922705114 28.1128704123049964
 31.0045637309221327 21.1551507875364884 28.1128704123049964
 11.2743637192032189 11.3912632045734714 28.1128704123049964
 66.2370246582497515 18.7141971991307194 28.1128704123049964
  2.8185697192032206 11.3912632045734714 28.1128704123049964
 16.9115455449421290 21.1551507875364884 28.1128704123049964
 46.5068668442297550 18.7141971991307194 28.1128704123049964
 33.8231759051832199 11.3912632045734714 28.1128704123049964
 32.4138487395214483  8.9502363868277595 28.1128704123049964
 69.0556791114814530  8.9502363868277595 28.1128704123049964
 63.4184549255014502  8.9502363868277595 28.1128704123049964
 52.1440911114814512  8.9502363868277595 28.1128704123049964
 22.5487697309221353 21.1551507875364884 28.1128704123049964
 -11.2744065264368292 52.0741891580359919 28.6327538495249954
 -0.0000004740826793 56.9561695641874692 28.6327538495249954
 -9.8650370818044468 54.5151427464417537 28.6327538495249954
 11.2743633399373131 56.9561695641874692 28.6327538495249954
 19.7301573399373318 56.9561695641874692 28.6327538495249954
 35.2325031385716159  5.6956316022867357 28.6327538495249954
 -19.7302005264368283 52.0741891580359919 28.6327538495249954
 28.1859513399373292 56.9561695641874692 28.6327538495249954
 56.3719458392839954  8.1365851906925037 28.6327538495249954
 54.9626605868708040 49.6332355696302230 28.6327538495249954
 32.4138487666116077  5.6956316022867357 28.6327538495249954
 52.1440907728507952 49.6332355696302230 28.6327538495249954
 49.3254364008908013 49.6332355696302230 28.6327538495249954
 40.8696427666115980  5.6956316022867357 28.6327538495249954
  0.0000418455231652 52.0741891580359919 28.6327538495249954
 -16.9115884740826736 56.9561695641874692 28.6327538495249954
 39.4603578392839793  8.1365851906925037 28.6327538495249954
 -21.1394854537644470 54.5151427464417537 28.6327538495249954
 -29.5952794537644479 54.5151427464417537 28.6327538495249954
 53.5533756595431782 52.0741891580359919 28.6327538495249954
 50.7348058455231694 52.0741891580359919 28.6327538495249954
 -1.4092430818044526 54.5151427464417537 28.6327538495249954
 45.0975816595431809 52.0741891580359919 28.6327538495249954
 14.0929758392839890  8.1365851906925037 28.6327538495249954
 77.5114731385716169  5.6956316022867357 28.6327538495249954
 21.1394845462355612 54.5151427464417537 28.6327538495249954
 69.0556791385716195  5.6956316022867357 28.6327538495249954
 63.4184549525916097  5.6956316022867357 28.6327538495249954
 35.2325027322155506 54.5151427464417537 28.6327538495249954
 36.6417876595431693 52.0741891580359919 28.6327538495249954
 16.9116302112439918  8.1365851906925037 28.6327538495249954
 46.5068665462355568 54.5151427464417537 28.6327538495249954
 49.3255209181955507 54.5151427464417537 28.6327538495249954
 22.5487698392839881  8.1365851906925037 28.6327538495249954
 22.5487694735631763 52.0741891580359919 28.6327538495249954
 19.7301996595431604 52.0741891580359919 28.6327538495249954
 52.1440911385716035  5.6956316022867357 28.6327538495249954
 -19.7301582881026789 56.9561695641874692 28.6327538495249954
 16.9116298455231728 52.0741891580359919 28.6327538495249954
 28.1859940252639873  8.1365851906925037 28.6327538495249954
 -14.0930186600626755 56.9561695641874692 28.6327538495249954
 -8.4557944740826727 56.9561695641874692 28.6327538495249954
 42.2790122112439946  8.1365851906925037 28.6327538495249954
 80.3300429525916257  5.6956316022867357 28.6327538495249954
 52.1440910166646745 20.3414995914012344 28.6327538495249954
 45.0975393399373274 56.9561695641874692 28.6327538495249954
 35.2324609002374558  0.8136511961352557 28.6327538495249954
 18.3209146103086198 69.1610107355562462 28.6327538495249954
 12.6836904243286224 69.1610107355562462 28.6327538495249954
  9.8651206103086064 69.1610107355562462 28.6327538495249954
  7.0465507962886189 69.1610107355562462 28.6327538495249954
  4.2278964243286037 69.1610107355562462 28.6327538495249954
  1.4093266103086164 69.1610107355562462 28.6327538495249954
 38.0511152721974639  0.8136511961352557 28.6327538495249954
 49.3254790862174488  0.8136511961352557 28.6327538495249954
 60.5998429002374621  0.8136511961352557 28.6327538495249954
 -29.5952795756713840 69.1610107355562462 28.6327538495249954
 63.4184972721974631  0.8136511961352557 28.6327538495249954
 -38.0510735756713814 69.1610107355562462 28.6327538495249954
 66.2370670862174649  0.8136511961352557 28.6327538495249954
 36.6417875376362474 66.7200571471504844 28.6327538495249954
 33.8232177236162386 66.7200571471504844 28.6327538495249954
 31.0045633516562411 66.7200571471504844 28.6327538495249954
 19.7301995376362349 66.7200571471504844 28.6327538495249954
  8.4558357236162376 66.7200571471504844 28.6327538495249954
 23.9580970862174638  0.8136511961352557 28.6327538495249954
 83.1486550862174738  0.8136511961352557 28.6327538495249954
 35.2325026103086287 69.1610107355562462 28.6327538495249954
 40.8697267962886173 69.1610107355562462 28.6327538495249954
  4.2279392721974602  0.8136511961352557 28.6327538495249954
 31.0046055899903834 71.6020375533019688 28.6327538495249954
 25.3673814040103807 71.6020375533019688 28.6327538495249954
 22.5488115899903860 71.6020375533019688 28.6327538495249954
 19.7301572180303850 71.6020375533019688 28.6327538495249954
 14.0930175899903762 71.6020375533019688 28.6327538495249954
  8.4557934040103735 71.6020375533019688 28.6327538495249954
 12.6837332721974576  0.8136511961352557 28.6327538495249954
 -8.4557945959896212 71.6020375533019688 28.6327538495249954
 -11.2743644100096230 71.6020375533019688 28.6327538495249954
 15.5023030862174611  0.8136511961352557 28.6327538495249954
 -22.5488127819696196 71.6020375533019688 28.6327538495249954
 18.3208729002374611  0.8136511961352557 28.6327538495249954
 -25.3673825959896213 71.6020375533019688 28.6327538495249954
 -28.1859524100096195 71.6020375533019688 28.6327538495249954
 -33.8231765959896151 71.6020375533019688 28.6327538495249954
 -36.6417464100096169 71.6020375533019688 28.6327538495249954
 -39.4604007819696179 71.6020375533019688 28.6327538495249954
 21.1395272721974621  0.8136511961352557 28.6327538495249954
 38.0510724243286234 69.1610107355562462 28.6327538495249954
 42.2789695259173328 56.9561695641874692 28.6327538495249954
 -2.8186126483437688 66.7200571471504844 28.6327538495249954
 -19.7302006483437680 66.7200571471504844 28.6327538495249954
 -0.0000005147179177 61.8380767409990000 28.6327538495249954
 -5.6371401427579215 61.8380767409990000 28.6327538495249954
 -8.4557945147179190 61.8380767409990000 28.6327538495249954
 -11.2743643287379136 61.8380767409990000 28.6327538495249954
 -16.9115885147179164 61.8380767409990000 28.6327538495249954
 -19.7301583287379145 61.8380767409990000 28.6327538495249954
 -22.5487281427579163 61.8380767409990000 28.6327538495249954
 -28.1859523287379155 61.8380767409990000 28.6327538495249954
 -31.0045221427579136 61.8380767409990000 28.6327538495249954
 -33.8231765147179146 61.8380767409990000 28.6327538495249954
 78.9208003448698463  3.2546047845410229 28.6327538495249954
 46.5069087845697027 59.3971231525932382 28.6327538495249954
 43.6882967728507978 49.6332355696302230 28.6327538495249954
  9.8650784126096909 59.3971231525932382 28.6327538495249954
  7.0465085985897025 59.3971231525932382 28.6327538495249954
  4.2278969525916086  5.6956316022867357 28.6327538495249954
 -9.8650794014102949 59.3971231525932382 28.6327538495249954
 -21.1394432154303011 59.3971231525932382 28.6327538495249954
 47.9161937118973214 56.9561695641874692 28.6327538495249954
 73.2835761588898578  3.2546047845410229 28.6327538495249954
 -11.2744066483437688 66.7200571471504844 28.6327538495249954
 11.2744478572420874 61.8380767409990000 28.6327538495249954
 28.1860358572420893 61.8380767409990000 28.6327538495249954
 -25.3673402763837679 66.7200571471504844 28.6327538495249954
 -31.0045644623637671 66.7200571471504844 28.6327538495249954
  2.8186543448698407  3.2546047845410229 28.6327538495249954
  8.4557939729098397  3.2546047845410229 28.6327538495249954
 43.6882966509438617 64.2791035587447084 28.6327538495249954
 11.2744483448698372  3.2546047845410229 28.6327538495249954
 14.0930181588898407  3.2546047845410229 28.6327538495249954
 19.7302423448698399  3.2546047845410229 28.6327538495249954
 18.3209146509438554 64.2791035587447084 28.6327538495249954
 25.3673819729098362  3.2546047845410229 28.6327538495249954
  1.4093266509438596 64.2791035587447084 28.6327538495249954
 39.4604001588898399  3.2546047845410229 28.6327538495249954
 -4.2278975350361501 64.2791035587447084 28.6327538495249954
 45.0976243448698426  3.2546047845410229 28.6327538495249954
 -26.7767097210161431 64.2791035587447084 28.6327538495249954
 -29.5952795350361448 64.2791035587447084 28.6327538495249954
 -32.4138493490561430 64.2791035587447084 28.6327538495249954
 36.6418298572420866 61.8380767409990000 28.6327538495249954
 59.1905579729098434  3.2546047845410229 28.6327538495249954
 22.5488116712620865 61.8380767409990000 28.6327538495249954
 43.6882544126097088 59.3971231525932382 28.6327538495249954
  8.4557936071890190 47.1922087518845075 28.6327538495249954
 21.1394845868707826 49.6332355696302230 28.6327538495249954
 63.4184970283835838 30.1053871743642461 28.6327538495249954
 54.9627030283835865 30.1053871743642461 28.6327538495249954
 46.5069090283835891 30.1053871743642461 28.6327538495249954
 43.6882546564235881 30.1053871743642461 28.6327538495249954
 40.8696848424035863 30.1053871743642461 28.6327538495249954
 29.5953210283835837 30.1053871743642461 28.6327538495249954
 23.9580968424035810 30.1053871743642461 28.6327538495249954
 12.6837330283835765 30.1053871743642461 28.6327538495249954
  4.2279390283835818 30.1053871743642461 28.6327538495249954
  1.4092846564235810 30.1053871743642461 28.6327538495249954
 -1.4092851575964171 30.1053871743642461 28.6327538495249954
 -4.2278549716164209 30.1053871743642461 28.6327538495249954
 31.0046060369829029 17.9004727736555189 28.6327538495249954
 33.8231758510028868 17.9004727736555189 28.6327538495249954
 36.6418302229629020 17.9004727736555189 28.6327538495249954
 64.8277819557112025 27.6644335859584807 28.6327538495249954
 62.0091275837512086 27.6644335859584807 28.6327538495249954
 -14.0929338989440378 32.5463407627700150 28.6327538495249954
 39.4604000369828896 17.9004727736555189 28.6327538495249954
 19.7302422229628966 17.9004727736555189 28.6327538495249954
 -0.0000002709040391 32.5463407627700150 28.6327538495249954
 -1.4093274772022688 34.9873675805157234 28.6327538495249954
 -9.8651214772022673 34.9873675805157234 28.6327538495249954
 63.4184971502905270 15.4595191852497500 28.6327538495249954
 69.0556367783305234 15.4595191852497500 28.6327538495249954
 74.6928609643105261 15.4595191852497500 28.6327538495249954
 56.3719879150759695 32.5463407627700150 28.6327538495249954
 53.5534181010559607 32.5463407627700150 28.6327538495249954
 -8.4557941489970982 17.9004727736555189 28.6327538495249954
 42.2789697290959623 32.5463407627700150 28.6327538495249954
 39.4603999150759606 32.5463407627700150 28.6327538495249954
 36.6418301010559517 32.5463407627700150 28.6327538495249954
 -5.6371397770370981 17.9004727736555189 28.6327538495249954
 28.1860361010559650 32.5463407627700150 28.6327538495249954
 25.3673817290959498 32.5463407627700150 28.6327538495249954
 22.5488119150759623 32.5463407627700150 28.6327538495249954
 16.9115877290959595 32.5463407627700150 28.6327538495249954
 11.2744481010559561 32.5463407627700150 28.6327538495249954
 -2.8185700849240374 32.5463407627700150 28.6327538495249954
  1.4093268947577322 34.9873675805157234 28.6327538495249954
 42.2789698510029055 17.9004727736555189 28.6327538495249954
 39.4603999557111962 27.6644335859584807 28.6327538495249954
 -7.0464670239705693 25.2234067682127652 28.6327538495249954
 -9.8650368379905675 25.2234067682127652 28.6327538495249954
 64.8277397173770566 22.7824531798069998 28.6327538495249954
 62.0091699033570620 22.7824531798069998 28.6327538495249954
 59.1906000893370532 22.7824531798069998 28.6327538495249954
 42.2790120893370442 22.7824531798069998 28.6327538495249954
 36.6417879033570415 22.7824531798069998 28.6327538495249954
 33.8232180893370540 22.7824531798069998 28.6327538495249954
 31.0045637173770388 22.7824531798069998 28.6327538495249954
 26.7767090166646753 20.3414995914012344 28.6327538495249954
 29.5952788306846699 20.3414995914012344 28.6327538495249954
  8.4558360893370512 22.7824531798069998 28.6327538495249954
  5.6371817173770493 22.7824531798069998 28.6327538495249954
 38.0510728306846602 20.3414995914012344 28.6327538495249954
 -11.2744062826229499 22.7824531798069998 28.6327538495249954
 60.5998850166646719 20.3414995914012344 28.6327538495249954
 40.8696426447046761 20.3414995914012344 28.6327538495249954
 -1.4092428379905699 25.2234067682127652 28.6327538495249954
 45.0976242229628923 17.9004727736555189 28.6327538495249954
  4.2278967900494315 25.2234067682127652 28.6327538495249954
  9.8651209760294343 25.2234067682127652 28.6327538495249954
 53.5534182229629039 17.9004727736555189 28.6327538495249954
 70.4650062229628986 17.9004727736555189 28.6327538495249954
 73.2835760369829075 17.9004727736555189 28.6327538495249954
 -9.8651213552953294 20.3414995914012344 28.6327538495249954
  2.8185695837512008 27.6644335859584807 28.6327538495249954
 -0.0000002302687971 27.6644335859584807 28.6327538495249954
 -5.6372244162487979 27.6644335859584807 28.6327538495249954
 66.2371091620094319 25.2234067682127652 28.6327538495249954
 63.4184547900494380 25.2234067682127652 28.6327538495249954
 60.5998849760294434 25.2234067682127652 28.6327538495249954
  4.2278968306846716 20.3414995914012344 28.6327538495249954
 54.9626607900494406 25.2234067682127652 28.6327538495249954
 52.1440909760294318 25.2234067682127652 28.6327538495249954
  9.8651210166646699 20.3414995914012344 28.6327538495249954
 15.5022606447046662 20.3414995914012344 28.6327538495249954
 21.1394847900494298 25.2234067682127652 28.6327538495249954
 15.5023451620094264 25.2234067682127652 28.6327538495249954
  7.0465511620094325 25.2234067682127652 28.6327538495249954
  7.0464665227977319 34.9873675805157234 28.6327538495249954
 12.6836907087777320 34.9873675805157234 28.6327538495249954
 15.5022605227977337 34.9873675805157234 28.6327538495249954
 46.5069089064766459 44.7512551634787386 28.6327538495249954
 43.6882545345166520 44.7512551634787386 28.6327538495249954
 29.5953209064766369 44.7512551634787386 28.6327538495249954
 38.0510729119563607 10.5775387790982709 28.6327538495249954
 26.7766665345166501 44.7512551634787386 28.6327538495249954
 40.8697272839163759 10.5775387790982709 28.6327538495249954
  7.0465087204966403 44.7512551634787386 28.6327538495249954
  4.2279389064766386 44.7512551634787386 28.6327538495249954
 -1.4092852795033535 44.7512551634787386 28.6327538495249954
 -12.6836490935233588 44.7512551634787386 28.6327538495249954
 -18.3208732795033562 44.7512551634787386 28.6327538495249954
 53.5533334618442680 42.3103015750729767 28.6327538495249954
 47.9161938338042646 42.3103015750729767 28.6327538495249954
 45.0975394618442706 42.3103015750729767 28.6327538495249954
 42.2789696478242618 42.3103015750729767 28.6327538495249954
 31.0046058338042556 42.3103015750729767 28.6327538495249954
 71.8742489119563714 10.5775387790982709 28.6327538495249954
 49.3254787204966547 44.7512551634787386 28.6327538495249954
 22.5488118338042653 42.3103015750729767 28.6327538495249954
 52.1440485345166493 44.7512551634787386 28.6327538495249954
 -14.0929340208509810 47.1922087518845075 28.6327538495249954
 15.5022604008907816 49.6332355696302230 28.6327538495249954
 73.2835338392839901  8.1365851906925037 28.6327538495249954
 76.1021882112439840  8.1365851906925037 28.6327538495249954
  1.4093267728507877 49.6332355696302230 28.6327538495249954
 -1.4093275991092098 49.6332355696302230 28.6327538495249954
 -1.4092427160836287 10.5775387790982709 28.6327538495249954
 -26.7767095991092070 49.6332355696302230 28.6327538495249954
 50.7347636071890307 47.1922087518845075 28.6327538495249954
 42.2789696071890333 47.1922087518845075 28.6327538495249954
 39.4603997931690245 47.1922087518845075 28.6327538495249954
 33.8231756071890288 47.1922087518845075 28.6327538495249954
  7.0465512839163686 10.5775387790982709 28.6327538495249954
 18.3209150979363713 10.5775387790982709 28.6327538495249954
 21.1394849119563659 10.5775387790982709 28.6327538495249954
 -2.8185702068309761 47.1922087518845075 28.6327538495249954
 -8.4557943928109793 47.1922087518845075 28.6327538495249954
 23.9581392839163634 10.5775387790982709 28.6327538495249954
 -16.9115883928109767 47.1922087518845075 28.6327538495249954
  2.8185697056581414 13.0185655968439828 28.6327538495249954
 16.9115878916381419 13.0185655968439828 28.6327538495249954
  8.4557936478242581 42.3103015750729767 28.6327538495249954
 31.0045635954701204 37.4283211689214923 28.6327538495249954
 19.7301997814501142 37.4283211689214923 28.6327538495249954
 23.9580969643105171 15.4595191852497500 28.6327538495249954
 14.0929755954701115 37.4283211689214923 28.6327538495249954
 11.2744057814501097 37.4283211689214923 28.6327538495249954
 29.5953211502905269 15.4595191852497500 28.6327538495249954
 -16.9115460325698876 37.4283211689214923 28.6327538495249954
 -19.7302004045298887 37.4283211689214923 28.6327538495249954
 63.4184547087777446 34.9873675805157234 28.6327538495249954
 33.8231754040103922 71.6020375533019688 28.6327538495249954
 54.9626607087777472 34.9873675805157234 28.6327538495249954
 43.6882968947577410 34.9873675805157234 28.6327538495249954
 32.4138909643105251 15.4595191852497500 28.6327538495249954
 32.4138485227977426 34.9873675805157234 28.6327538495249954
 26.7767088947577392 34.9873675805157234 28.6327538495249954
 49.3254789643105269 15.4595191852497500 28.6327538495249954
 54.9627031502905297 15.4595191852497500 28.6327538495249954
 39.4603575954701142 37.4283211689214923 28.6327538495249954
 45.0975817814501099 37.4283211689214923 28.6327538495249954
  4.2279391502905188 15.4595191852497500 28.6327538495249954
 62.0091697814501188 37.4283211689214923 28.6327538495249954
 19.7301577056581365 13.0185655968439828 28.6327538495249954
 -2.8185701661957374 42.3103015750729767 28.6327538495249954
 22.5488120776181340 13.0185655968439828 28.6327538495249954
 -14.0930185381557376 42.3103015750729767 28.6327538495249954
 -19.7301581661957393 42.3103015750729767 28.6327538495249954
 47.9161940776181368 13.0185655968439828 28.6327538495249954
 59.1905578916381430 13.0185655968439828 28.6327538495249954
 64.8277820776181386 13.0185655968439828 28.6327538495249954
 32.4138484008907994 49.6332355696302230 28.6327538495249954
 67.6463518916381474 13.0185655968439828 28.6327538495249954
  9.8651208541224857 39.8692747573272612 28.6327538495249954
  7.0465510401024849 39.8692747573272612 28.6327538495249954
  4.2278966681424874 39.8692747573272612 28.6327538495249954
 -7.0465092216694787 15.4595191852497500 28.6327538495249954
 -9.8650369598975125 39.8692747573272612 28.6327538495249954
 -12.6836913318575100 39.8692747573272612 28.6327538495249954
 -15.5022611458775117 39.8692747573272612 28.6327538495249954
 -21.1394853318575109 39.8692747573272612 28.6327538495249954
 15.5023450401024956 39.8692747573272612 28.6327538495249954
  1.4092849002374601  0.8136511961352557 28.6327538495249954
