 H  O 
 1.0000000000000000
    84.5579400000000021    0.0000000000000000    0.0000000000000000
   -42.2789706095346958   73.2293399455724767    0.0000000000000000
     0.0000000000000000    0.0000000000000000   46.9039550000000034
 H   O  
 173 190
Cartesian
  2.8185698004749202  1.6273023922705114 28.1128704123049964
 38.0510301182678390 72.4156887494372228 28.1128704123049964
 32.4138484957075690 38.2419723650567462 28.1128704123049964
 38.0510726816875717 38.2419723650567462 28.1128704123049964
 -19.7302427105906588 40.6829991828024689 28.1128704123049964
 28.1859514753893379 40.6829991828024689 28.1128704123049964
 42.2789696613693309 40.6829991828024689 28.1128704123049964
 45.0975394753893397 40.6829991828024689 28.1128704123049964
 56.3719032894093317 40.6829991828024689 28.1128704123049964
 -12.6837336379182783 43.1239527712082307 28.1128704123049964
 -7.0465094519382783 43.1239527712082307 28.1128704123049964
  9.8650785480617262 43.1239527712082307 28.1128704123049964
 -25.3673823792659014 45.5649063596139996 28.1128704123049964
 -8.4557943792659014 45.5649063596139996 28.1128704123049964
 14.0930178067140996 45.5649063596139996 28.1128704123049964
 25.3673816207341005 45.5649063596139996 28.1128704123049964
 33.8231756207340979 45.5649063596139996 28.1128704123049964
 39.4603998067140935 45.5649063596139996 28.1128704123049964
 53.5533334347540944 45.5649063596139996 28.1128704123049964
 -4.2278973995841262 48.0059331773597151 28.1128704123049964
  4.2278966004158747 48.0059331773597151 28.1128704123049964
  9.8650362284558710 48.0059331773597151 28.1128704123049964
 18.3208302284558755 48.0059331773597151 28.1128704123049964
 38.0510726004158641 48.0059331773597151 28.1128704123049964
 -16.9116306988717469 50.4468867657654769 28.1128704123049964
 -11.2744065128917477 50.4468867657654769 28.1128704123049964
  9.8651208676675761 38.2419723650567462 28.1128704123049964
 16.9115453011282568 50.4468867657654769 28.1128704123049964
 -4.2278973183124275 38.2419723650567462 28.1128704123049964
 14.0929756090151947 35.8010187766509844 28.1128704123049964
  5.6371394113162827 26.0371311936879657 28.1128704123049964
 31.0045214113162864 26.0371311936879657 28.1128704123049964
 36.6417455972962784 26.0371311936879657 28.1128704123049964
 42.2789697832762812 26.0371311936879657 28.1128704123049964
 50.7347637832762715 26.0371311936879657 28.1128704123049964
 56.3719034113162749 26.0371311936879657 28.1128704123049964
 -9.8650791440513395 28.4780847820937346 28.1128704123049964
 26.7766666699686624 28.4780847820937346 28.1128704123049964
 54.9626184839886562 28.4780847820937346 28.1128704123049964
 60.5998426699686590 28.4780847820937346 28.1128704123049964
 66.2370668559486688 28.4780847820937346 28.1128704123049964
 -2.8185700713789608 30.9190383704995000 28.1128704123049964
  2.8185695566610427 30.9190383704995000 28.1128704123049964
 11.2743635566610401 30.9190383704995000 28.1128704123049964
 16.9115877426410464 30.9190383704995000 28.1128704123049964
 19.7301575566610410 30.9190383704995000 28.1128704123049964
 33.8231757426410411 30.9190383704995000 28.1128704123049964
 23.9580545363428143 33.3600651882452155 28.1128704123049964
 29.5952787223228171 33.3600651882452155 28.1128704123049964
 40.8696425363428091 33.3600651882452155 28.1128704123049964
 46.5068667223228047 33.3600651882452155 28.1128704123049964
 52.1440063503628082 33.3600651882452155 28.1128704123049964
 -16.9116305769648072 35.8010187766509844 28.1128704123049964
 -14.0929762050048097 35.8010187766509844 28.1128704123049964
 -11.2744063909848098 35.8010187766509844 28.1128704123049964
 62.0091697949951950 35.8010187766509844 28.1128704123049964
 69.0556789895745169 23.5961043759422537 28.1128704123049964
 25.3673393011282471 50.4468867657654769 28.1128704123049964
 36.6417876730882455 50.4468867657654769 28.1128704123049964
 32.4138482925289324 62.6518011664742076 28.1128704123049964
 38.0510724785089351 62.6518011664742076 28.1128704123049964
 -0.0000428207786890 65.0927547548799765 28.1128704123049964
  8.4557511792213162 65.0927547548799765 28.1128704123049964
 28.1859935511813049 65.0927547548799765 28.1128704123049964
 36.6417875511813165 65.0927547548799765 28.1128704123049964
 -15.5022613761463042 67.5337083432857384 28.1128704123049964
 23.9580542518936852 67.5337083432857384 28.1128704123049964
 32.4138482518936897 67.5337083432857384 28.1128704123049964
 38.0510724378736924 67.5337083432857384 28.1128704123049964
 43.6882966238536952 67.5337083432857384 28.1128704123049964
 -31.0046067684245337 69.9747351610314468 28.1128704123049964
 -22.5488127684245363 69.9747351610314468 28.1128704123049964
 -8.4557945824445344 69.9747351610314468 28.1128704123049964
 -2.8186549544045376 69.9747351610314468 28.1128704123049964
  2.8185692315754580 69.9747351610314468 28.1128704123049964
  5.6371390455954664 69.9747351610314468 28.1128704123049964
 11.2743632315754621 69.9747351610314468 28.1128704123049964
 16.9115874175554666 69.9747351610314468 28.1128704123049964
 19.7301572315754683 69.9747351610314468 28.1128704123049964
 22.5487270455954629 69.9747351610314468 28.1128704123049964
 42.2789694175554729 69.9747351610314468 28.1128704123049964
 -38.0511158817321586 72.4156887494372228 28.1128704123049964
 -18.3208735097721558 72.4156887494372228 28.1128704123049964
 23.9580964902278346 72.4156887494372228 28.1128704123049964
 23.9580542925289315 62.6518011664742076 28.1128704123049964
 31.0045634871082498 50.4468867657654769 28.1128704123049964
 15.5022602925289341 62.6518011664742076 28.1128704123049964
  1.4092421065489333 62.6518011664742076 28.1128704123049964
 53.5533756730882544 50.4468867657654769 28.1128704123049964
 -29.5952794402193682 52.8878403541712458 28.1128704123049964
 -26.7767096261993700 52.8878403541712458 28.1128704123049964
  7.0464663738006301 52.8878403541712458 28.1128704123049964
 15.5022603738006346 52.8878403541712458 28.1128704123049964
 43.6882967457606384 52.8878403541712458 28.1128704123049964
 -31.0046066465175976 55.3288671719169614 28.1128704123049964
 -22.5488126465175966 55.3288671719169614 28.1128704123049964
 28.1859513534823982 55.3288671719169614 28.1128704123049964
 36.6417453534824062 55.3288671719169614 28.1128704123049964
 -32.4138915738452127 57.7698207603227232 28.1128704123049964
 -23.9580975738452153 57.7698207603227232 28.1128704123049964
 -15.5023035738452162 57.7698207603227232 28.1128704123049964
 -7.0465095738452108 57.7698207603227232 28.1128704123049964
 -4.2279397598252162 57.7698207603227232 28.1128704123049964
 15.5023026121347893 57.7698207603227232 28.1128704123049964
 40.8696846121347903 57.7698207603227232 28.1128704123049964
 49.3254786121347877 57.7698207603227232 28.1128704123049964
 11.2743633128471661 60.2107743487284921 28.1128704123049964
 47.9161936848071619 60.2107743487284921 28.1128704123049964
 -32.4139338934510661 62.6518011664742076 28.1128704123049964
 -26.7767097074710669 62.6518011664742076 28.1128704123049964
 -18.3209157074710660 62.6518011664742076 28.1128704123049964
 -12.6836915214910633 62.6518011664742076 28.1128704123049964
 -7.0465518934510678 62.6518011664742076 28.1128704123049964
  7.0464662925289359 62.6518011664742076 28.1128704123049964
 63.4184548035945070 23.5961043759422537 28.1128704123049964
 21.1394846816875770 38.2419723650567462 28.1128704123049964
 25.3673819051832226 11.3912632045734714 28.1128704123049964
 43.6882125941766972  4.0683292100162243 28.1128704123049964
 49.3254367801566929  4.0683292100162243 28.1128704123049964
 77.5114731114814504  8.9502363868277595 28.1128704123049964
 29.5952366058956002 13.8322167929792403 28.1128704123049964
 -2.8186122690778692 21.1551507875364884 28.1128704123049964
 31.0046060505279790 16.2731703813850075 28.1128704123049964
 60.5998004722697488 18.7141971991307194 28.1128704123049964
 46.5068669255014484  8.9502363868277595 28.1128704123049964
 35.2324184722697566 18.7141971991307194 28.1128704123049964
 26.7766244722697486 18.7141971991307194 28.1128704123049964
 38.0510729255014510  8.9502363868277595 28.1128704123049964
 29.5952789255014537  8.9502363868277595 28.1128704123049964
 60.5998005941766849  4.0683292100162243 28.1128704123049964
 21.1394848442297523 18.7141971991307194 28.1128704123049964
 74.6928187801566850  4.0683292100162243 28.1128704123049964
 26.7767091114814519  8.9502363868277595 28.1128704123049964
  9.8650364722697521 18.7141971991307194 28.1128704123049964
 47.9161940505279844 16.2731703813850075 28.1128704123049964
 -1.4093272604785494  8.9502363868277595 28.1128704123049964
 53.5533336785679737 16.2731703813850075 28.1128704123049964
 64.8277820505279863 16.2731703813850075 28.1128704123049964
 73.2835760505279836 16.2731703813850075 28.1128704123049964
 62.0091700388090601  6.5092827984219914 28.1128704123049964
  2.8185697192032206 11.3912632045734714 28.1128704123049964
 53.5533760388090698  6.5092827984219914 28.1128704123049964
  7.0464667395214500  8.9502363868277595 28.1128704123049964
 -4.2278971557702505 18.7141971991307194 28.1128704123049964
 19.7302000388090732  6.5092827984219914 28.1128704123049964
 14.0929758528290687  6.5092827984219914 28.1128704123049964
  1.4092424722697507 18.7141971991307194 28.1128704123049964
  8.4557516668490695  6.5092827984219914 28.1128704123049964
 -7.0465515277302488 18.7141971991307194 28.1128704123049964
 39.4603577309221265 21.1551507875364884 28.1128704123049964
  4.2278969255014500  8.9502363868277595 28.1128704123049964
 64.8276975332232155 11.3912632045734714 28.1128704123049964
 -1.4092850221444004 13.8322167929792403 28.1128704123049964
 56.3719881724349250  1.6273023922705114 28.1128704123049964
  7.0465089778555976 13.8322167929792403 28.1128704123049964
 -7.0464670104254905 23.5961043759422537 28.1128704123049964
 38.0510729661366938  4.0683292100162243 28.1128704123049964
 31.0046061724349222  1.6273023922705114 28.1128704123049964
 15.5022606176145086 23.5961043759422537 28.1128704123049964
 70.4649218004749116  1.6273023922705114 28.1128704123049964
  1.4093269895745080 23.5961043759422537 28.1128704123049964
  7.0464666176145112 23.5961043759422537 28.1128704123049964
 16.9115879864549186  1.6273023922705114 28.1128704123049964
 64.8277397309221328 21.1551507875364884 28.1128704123049964
 23.9580546176145113 23.5961043759422537 28.1128704123049964
 78.9207158004749090  1.6273023922705114 28.1128704123049964
 -7.0465092081243990 13.8322167929792403 28.1128704123049964
 56.3719035332232110 11.3912632045734714 28.1128704123049964
 11.2743637192032189 11.3912632045734714 28.1128704123049964
 50.7347215449421185 21.1551507875364884 28.1128704123049964
 15.5023029778556030 13.8322167929792403 28.1128704123049964
 45.0975819169021293 21.1551507875364884 28.1128704123049964
 76.1021459864549144  1.6273023922705114 28.1128704123049964
 -9.8650794014102949 59.3971231525932382 28.6327538495249954
 -21.1394432154303011 59.3971231525932382 28.6327538495249954
 23.9581389181955480 54.5151427464417537 28.6327538495249954
 15.5023452839163713 10.5775387790982709 28.6327538495249954
 -23.9580975873902986 59.3971231525932382 28.6327538495249954
 26.7766664126097069 59.3971231525932382 28.6327538495249954
 39.4603574735631781 52.0741891580359919 28.6327538495249954
 19.7301996595431604 52.0741891580359919 28.6327538495249954
 29.5953207845697079 59.3971231525932382 28.6327538495249954
 35.2324604126097114 59.3971231525932382 28.6327538495249954
 21.1394849119563659 10.5775387790982709 28.6327538495249954
 15.5023025985896936 59.3971231525932382 28.6327538495249954
 21.1395267845696964 59.3971231525932382 28.6327538495249954
 -32.4138915873902960 59.3971231525932382 28.6327538495249954
  7.0465512839163686 10.5775387790982709 28.6327538495249954
 18.3209147322155452 54.5151427464417537 28.6327538495249954
 38.0510725462355595 54.5151427464417537 28.6327538495249954
 52.1440907322155596 54.5151427464417537 28.6327538495249954
 73.2835338392839901  8.1365851906925037 28.6327538495249954
 67.6463942112439867  8.1365851906925037 28.6327538495249954
 50.7348062112439848  8.1365851906925037 28.6327538495249954
 42.2790122112439946  8.1365851906925037 28.6327538495249954
 -0.0000004740826793 56.9561695641874692 28.6327538495249954
  8.4557935259173256 56.9561695641874692 28.6327538495249954
 -4.2278974537644496 54.5151427464417537 28.6327538495249954
 -9.8650370818044468 54.5151427464417537 28.6327538495249954
 -12.6836914537644478 54.5151427464417537 28.6327538495249954
 45.0975393399373274 56.9561695641874692 28.6327538495249954
 -18.3208310818044460 54.5151427464417537 28.6327538495249954
 -29.5952372154302985 59.3971231525932382 28.6327538495249954
 -26.7766674014102968 59.3971231525932382 28.6327538495249954
 -28.1859522881026763 56.9561695641874692 28.6327538495249954
 59.1906000893370532 22.7824531798069998 28.6327538495249954
 -22.5487281427579163 61.8380767409990000 28.6327538495249954
 22.5487693516562366 66.7200571471504844 28.6327538495249954
 33.8232177236162386 66.7200571471504844 28.6327538495249954
 11.2744483448698372  3.2546047845410229 28.6327538495249954
 45.0975815376362448 66.7200571471504844 28.6327538495249954
  5.6372241588898389  3.2546047845410229 28.6327538495249954
  1.4093266103086164 69.1610107355562462 28.6327538495249954
 60.5998429002374621  0.8136511961352557 28.6327538495249954
 52.1440489002374647  0.8136511961352557 28.6327538495249954
 46.5069092721974613  0.8136511961352557 28.6327538495249954
 16.9116297236162261 66.7200571471504844 28.6327538495249954
 40.8696850862174585  0.8136511961352557 28.6327538495249954
 26.7766669002374584  0.8136511961352557 28.6327538495249954
 -33.8231765959896151 71.6020375533019688 28.6327538495249954
 -28.1859524100096195 71.6020375533019688 28.6327538495249954
 -22.5488127819696196 71.6020375533019688 28.6327538495249954
 -14.0930187819696204 71.6020375533019688 28.6327538495249954
  7.0465090862174584  0.8136511961352557 28.6327538495249954
 25.3673814040103807 71.6020375533019688 28.6327538495249954
 31.0046055899903834 71.6020375533019688 28.6327538495249954
 36.6417452180303869 71.6020375533019688 28.6327538495249954
 35.2324609002374558  0.8136511961352557 28.6327538495249954
 14.0929753516562410 66.7200571471504844 28.6327538495249954
  8.4558357236162376 66.7200571471504844 28.6327538495249954
  2.8186115376362340 66.7200571471504844 28.6327538495249954
 -16.9115885147179164 61.8380767409990000 28.6327538495249954
 57.7812307666116141  5.6956316022867357 28.6327538495249954
 -2.8185703287379194 61.8380767409990000 28.6327538495249954
 35.2325031385716159  5.6956316022867357 28.6327538495249954
  2.8186538572420905 61.8380767409990000 28.6327538495249954
  5.6372236712620847 61.8380767409990000 28.6327538495249954
 32.4138487666116077  5.6956316022867357 28.6327538495249954
 11.2744056595431719 52.0741891580359919 28.6327538495249954
 42.2789694852820901 61.8380767409990000 28.6327538495249954
  1.4093271385716108  5.6956316022867357 28.6327538495249954
  4.2278964649638544 64.2791035587447084 28.6327538495249954
 64.8277821588898462  3.2546047845410229 28.6327538495249954
 40.8696422789838678 64.2791035587447084 28.6327538495249954
 -33.8231342763837688 66.7200571471504844 28.6327538495249954
 -28.1859946483437653 66.7200571471504844 28.6327538495249954
 -25.3673402763837679 66.7200571471504844 28.6327538495249954
 -19.7302006483437680 66.7200571471504844 28.6327538495249954
 59.1905579729098434  3.2546047845410229 28.6327538495249954
 -11.2744066483437688 66.7200571471504844 28.6327538495249954
 -5.6371824623637705 66.7200571471504844 28.6327538495249954
  0.0000417236162395 66.7200571471504844 28.6327538495249954
 80.3300429525916257  5.6956316022867357 28.6327538495249954
 23.9580547666116068  5.6956316022867357 28.6327538495249954
  2.8185697056581414 13.0185655968439828 28.6327538495249954
 -2.8186125264368322 52.0741891580359919 28.6327538495249954
 49.3254788424035837 30.1053871743642461 28.6327538495249954
 57.7812728424035953 30.1053871743642461 28.6327538495249954
 -16.9115882709040370 32.5463407627700150 28.6327538495249954
 -11.2743640849240396 32.5463407627700150 28.6327538495249954
 19.7302421010559677 32.5463407627700150 28.6327538495249954
 28.1860361010559650 32.5463407627700150 28.6327538495249954
 -9.8651213552953294 20.3414995914012344 28.6327538495249954
 50.7347638510029029 17.9004727736555189 28.6327538495249954
 42.2789698510029055 17.9004727736555189 28.6327538495249954
 56.3719879150759695 32.5463407627700150 28.6327538495249954
 62.0092121010559580 32.5463407627700150 28.6327538495249954
 64.8277819150759740 32.5463407627700150 28.6327538495249954
 36.6418302229629020 17.9004727736555189 28.6327538495249954
 -1.4093274772022688 34.9873675805157234 28.6327538495249954
  4.2278967087777302 34.9873675805157234 28.6327538495249954
  9.8651208947577302 34.9873675805157234 28.6327538495249954
 18.3209148947577418 34.9873675805157234 28.6327538495249954
 35.2325028947577295 34.9873675805157234 28.6327538495249954
 14.0930180369829028 17.9004727736555189 28.6327538495249954
 -8.4557520325698885 37.4283211689214923 28.6327538495249954
  5.6371815954701097 37.4283211689214923 28.6327538495249954
  5.6372240369829028 17.9004727736555189 28.6327538495249954
 25.3674239674301170 37.4283211689214923 28.6327538495249954
 43.6882546564235881 30.1053871743642461 28.6327538495249954
 28.1859937814501045 37.4283211689214923 28.6327538495249954
 38.0511150283835775 30.1053871743642461 28.6327538495249954
 29.5953210283835837 30.1053871743642461 28.6327538495249954
 33.8232180893370540 22.7824531798069998 28.6327538495249954
 28.1859939033570512 22.7824531798069998 28.6327538495249954
 19.7301999033570468 22.7824531798069998 28.6327538495249954
 11.2744059033570529 22.7824531798069998 28.6327538495249954
 46.5068667900494361 25.2234067682127652 28.6327538495249954
 52.1440909760294318 25.2234067682127652 28.6327538495249954
  2.8186119033570516 22.7824531798069998 28.6327538495249954
 57.7813151620094345 25.2234067682127652 28.6327538495249954
 66.2371091620094319 25.2234067682127652 28.6327538495249954
 -14.0930184162487979 27.6644335859584807 28.6327538495249954
 -5.6372244162487979 27.6644335859584807 28.6327538495249954
 -0.0000002302687971 27.6644335859584807 28.6327538495249954
  5.6372239557112023 27.6644335859584807 28.6327538495249954
  8.4557937697312031 27.6644335859584807 28.6327538495249954
 14.0930179557111952 27.6644335859584807 28.6327538495249954
 22.5488119557112086 27.6644335859584807 28.6327538495249954
 -2.8186122826229494 22.7824531798069998 28.6327538495249954
 -11.2744062826229499 22.7824531798069998 28.6327538495249954
 64.8277819557112025 27.6644335859584807 28.6327538495249954
 66.2370246447046753 20.3414995914012344 28.6327538495249954
 54.9626608306846691 20.3414995914012344 28.6327538495249954
  7.0465088424035836 30.1053871743642461 28.6327538495249954
 49.3254366447046735 20.3414995914012344 28.6327538495249954
 32.4138908424035748 30.1053871743642461 28.6327538495249954
 -2.8185699630171004 17.9004727736555189 28.6327538495249954
 42.2790119674301152 37.4283211689214923 28.6327538495249954
 45.0975817814501099 37.4283211689214923 28.6327538495249954
 43.6882545345166520 44.7512551634787386 28.6327538495249954
 45.0975397056581500 13.0185655968439828 28.6327538495249954
 54.9627029064766432 44.7512551634787386 28.6327538495249954
 -19.7301582068309784 47.1922087518845075 28.6327538495249954
 -14.0929340208509810 47.1922087518845075 28.6327538495249954
 -8.4557943928109793 47.1922087518845075 28.6327538495249954
 39.4604000776181465 13.0185655968439828 28.6327538495249954
 -0.0000003928109814 47.1922087518845075 28.6327538495249954
 33.8231758916381438 13.0185655968439828 28.6327538495249954
 28.1859517056581375 13.0185655968439828 28.6327538495249954
 22.5488117931690120 47.1922087518845075 28.6327538495249954
 28.1860359791490147 47.1922087518845075 28.6327538495249954
 56.3719877931690334 47.1922087518845075 28.6327538495249954
 -23.9580552271492060 49.6332355696302230 28.6327538495249954
 39.4603577173770574 22.7824531798069998 28.6327538495249954
 -7.0464672271492059 49.6332355696302230 28.6327538495249954
 15.5022604008907816 49.6332355696302230 28.6327538495249954
 -2.8185699223818586 13.0185655968439828 28.6327538495249954
 35.2325027728508005 49.6332355696302230 28.6327538495249954
 46.5068665868708067 49.6332355696302230 28.6327538495249954
 52.1440907728507952 49.6332355696302230 28.6327538495249954
 60.5998850979363723 10.5775387790982709 28.6327538495249954
 52.1440910979363750 10.5775387790982709 28.6327538495249954
 50.7347638916381456 13.0185655968439828 28.6327538495249954
 38.0511149064766485 44.7512551634787386 28.6327538495249954
 53.5533337056581473 13.0185655968439828 28.6327538495249954
 62.0091277056581518 13.0185655968439828 28.6327538495249954
 47.9161515954701187 37.4283211689214923 28.6327538495249954
 53.5533757814501215 37.4283211689214923 28.6327538495249954
 59.1905999674301100 37.4283211689214923 28.6327538495249954
 -15.5022611458775117 39.8692747573272612 28.6327538495249954
 -9.8650369598975125 39.8692747573272612 28.6327538495249954
 -7.0464671458775081 39.8692747573272612 28.6327538495249954
 12.6836906681424875 39.8692747573272612 28.6327538495249954
 57.7812729643105243 15.4595191852497500 28.6327538495249954
 60.5998848541225001 39.8692747573272612 28.6327538495249954
 -22.5488125381557367 42.3103015750729767 28.6327538495249954
 -2.8185701661957374 42.3103015750729767 28.6327538495249954
  2.8186116595431669 52.0741891580359919 28.6327538495249954
  2.8185694618442589 42.3103015750729767 28.6327538495249954
 16.9115876478242626 42.3103015750729767 28.6327538495249954
 19.7301574618442501 42.3103015750729767 28.6327538495249954
 31.0046058338042556 42.3103015750729767 28.6327538495249954
 36.6417454618442662 42.3103015750729767 28.6327538495249954
 39.4603998338042672 42.3103015750729767 28.6327538495249954
 50.7347636478242734 42.3103015750729767 28.6327538495249954
 12.6837331502905215 15.4595191852497500 28.6327538495249954
 70.4649217056581421 13.0185655968439828 28.6327538495249954
 -4.2278550935233552 44.7512551634787386 28.6327538495249954
  7.0465087204966403 44.7512551634787386 28.6327538495249954
 67.6463518916381474 13.0185655968439828 28.6327538495249954
 23.9580969643105171 15.4595191852497500 28.6327538495249954
 42.2789694040103896 71.6020375533019688 28.6327538495249954
