 H  O 
 1.0000000000000000
    84.5579400000000021    0.0000000000000000    0.0000000000000000
   -42.2789706095346958   73.2293399455724767    0.0000000000000000
     0.0000000000000000    0.0000000000000000   46.9039550000000034
 H   O  
 184 338
Cartesian
  8.4557939864549194  1.6273023922705114 28.1128704123049964
 69.0556789895745169 23.5961043759422537 28.1128704123049964
 -8.4557942167237172 26.0371311936879657 28.1128704123049964
  9.8650784261547866 57.7698207603227232 28.1128704123049964
 -9.8650793878652134 57.7698207603227232 28.1128704123049964
  5.6371394113162827 26.0371311936879657 28.1128704123049964
 -12.6837337598252144 57.7698207603227232 28.1128704123049964
  8.4557937832762846 26.0371311936879657 28.1128704123049964
 42.2789695394624090 55.3288671719169614 28.1128704123049964
 25.3673817832762829 26.0371311936879657 28.1128704123049964
 42.2789697832762812 26.0371311936879657 28.1128704123049964
 22.5487271675023955 55.3288671719169614 28.1128704123049964
 53.5533335972962803 26.0371311936879657 28.1128704123049964
 19.7301573534824009 55.3288671719169614 28.1128704123049964
 -12.6837335160113369 28.4780847820937346 28.1128704123049964
 -0.0000004605375943 55.3288671719169614 28.1128704123049964
 -25.3673824605375984 55.3288671719169614 28.1128704123049964
 29.5952364839886641 28.4780847820937346 28.1128704123049964
 38.0510304839886544 28.4780847820937346 28.1128704123049964
 40.8696423738006303 52.8878403541712458 28.1128704123049964
 38.0510725597806356 52.8878403541712458 28.1128704123049964
 60.5998426699686590 28.4780847820937346 28.1128704123049964
 63.4184124839886536 28.4780847820937346 28.1128704123049964
 -16.9115882573589573 30.9190383704995000 28.1128704123049964
 -8.4557942573589582 30.9190383704995000 28.1128704123049964
 18.3209147457606356 52.8878403541712458 28.1128704123049964
 35.2324604261547876 57.7698207603227232 28.1128704123049964
 46.5068668035945052 23.5961043759422537 28.1128704123049964
 40.8696846121347903 57.7698207603227232 28.1128704123049964
  9.8651209895745122 23.5961043759422537 28.1128704123049964
 62.0091276785679781 16.2731703813850075 28.1128704123049964
 73.2835760505279836 16.2731703813850075 28.1128704123049964
 -7.0465515277302488 18.7141971991307194 28.1128704123049964
 -4.2278971557702505 18.7141971991307194 28.1128704123049964
  7.0464666582497495 18.7141971991307194 28.1128704123049964
 47.9161936848071619 60.2107743487284921 28.1128704123049964
 23.9580546582497540 18.7141971991307194 28.1128704123049964
 35.2324184722697566 18.7141971991307194 28.1128704123049964
 31.0046056848071565 60.2107743487284921 28.1128704123049964
 28.1859513128471555 60.2107743487284921 28.1128704123049964
 11.2743633128471661 60.2107743487284921 28.1128704123049964
 69.0555944722697461 18.7141971991307194 28.1128704123049964
 -5.6372244433389582 30.9190383704995000 28.1128704123049964
  8.4557934988271644 60.2107743487284921 28.1128704123049964
 14.0929757309221344 21.1551507875364884 28.1128704123049964
  2.8185693128471621 60.2107743487284921 28.1128704123049964
 16.9115455449421290 21.1551507875364884 28.1128704123049964
 31.0045637309221327 21.1551507875364884 28.1128704123049964
 -2.8185703151928343 60.2107743487284921 28.1128704123049964
 -11.2743643151928357 60.2107743487284921 28.1128704123049964
 50.7347215449421185 21.1551507875364884 28.1128704123049964
 56.3719457309221283 21.1551507875364884 28.1128704123049964
 -14.0930186871528367 60.2107743487284921 28.1128704123049964
 -25.3673825011728376 60.2107743487284921 28.1128704123049964
  4.2278968035945095 23.5961043759422537 28.1128704123049964
 -31.0046066871528367 60.2107743487284921 28.1128704123049964
 -5.6371820830978701 21.1551507875364884 28.1128704123049964
 -0.0000002573589589 30.9190383704995000 28.1128704123049964
 14.0930179286210446 30.9190383704995000 28.1128704123049964
  9.8651207457606311 52.8878403541712458 28.1128704123049964
 29.5952786816875744 38.2419723650567462 28.1128704123049964
 35.2325028676675771 38.2419723650567462 28.1128704123049964
 32.4138484144358685 48.0059331773597151 28.1128704123049964
 29.5952786004158739 48.0059331773597151 28.1128704123049964
 43.6882968676675674 38.2419723650567462 28.1128704123049964
 21.1394846004158765 48.0059331773597151 28.1128704123049964
 57.7812304957075682 38.2419723650567462 28.1128704123049964
  4.2278966004158747 48.0059331773597151 28.1128704123049964
  1.4092422284558699 48.0059331773597151 28.1128704123049964
 -8.4557943386306622 40.6829991828024689 28.1128704123049964
 -1.4093275855641247 48.0059331773597151 28.1128704123049964
 -9.8651215855641290 48.0059331773597151 28.1128704123049964
 35.2324182284558631 48.0059331773597151 28.1128704123049964
  8.4557936613693432 40.6829991828024689 28.1128704123049964
 19.7301574753893405 40.6829991828024689 28.1128704123049964
 -18.3209155855641299 48.0059331773597151 28.1128704123049964
 39.4603152894093299 40.6829991828024689 28.1128704123049964
 39.4603998067140935 45.5649063596139996 28.1128704123049964
 -23.9580974519382757 43.1239527712082307 28.1128704123049964
  2.8185694347540982 45.5649063596139996 28.1128704123049964
 -0.0000003792658964 45.5649063596139996 28.1128704123049964
 18.3208725480617254 43.1239527712082307 28.1128704123049964
 -5.6372245652458988 45.5649063596139996 28.1128704123049964
 29.5952363620817174 43.1239527712082307 28.1128704123049964
 -25.3673823792659014 45.5649063596139996 28.1128704123049964
 54.9626183620817130 43.1239527712082307 28.1128704123049964
 -15.5023457715441282 48.0059331773597151 28.1128704123049964
 -15.5023458934510643 62.6518011664742076 28.1128704123049964
 18.3209148676675753 38.2419723650567462 28.1128704123049964
 -25.3674246988717442 50.4468867657654769 28.1128704123049964
 28.1859515566610455 30.9190383704995000 28.1128704123049964
 -7.0464672542393672 52.8878403541712458 28.1128704123049964
 33.8231757426410411 30.9190383704995000 28.1128704123049964
 45.0975395566610331 30.9190383704995000 28.1128704123049964
 -21.1394854402193673 52.8878403541712458 28.1128704123049964
 50.7347213011282463 50.4468867657654769 28.1128704123049964
 18.3208303503628116 33.3600651882452155 28.1128704123049964
 23.9580545363428143 33.3600651882452155 28.1128704123049964
 31.0045634871082498 50.4468867657654769 28.1128704123049964
 52.1440063503628082 33.3600651882452155 28.1128704123049964
 14.0929754871082551 50.4468867657654769 28.1128704123049964
 54.9626607223228163 33.3600651882452155 28.1128704123049964
 49.3254364144358703 48.0059331773597151 28.1128704123049964
 -16.9116305769648072 35.8010187766509844 28.1128704123049964
 -5.6371822050048115 35.8010187766509844 28.1128704123049964
 -0.0000425769648080 35.8010187766509844 28.1128704123049964
  2.8186117949951930 35.8010187766509844 28.1128704123049964
  8.4557514230351885 35.8010187766509844 28.1128704123049964
 -0.0000426988717480 50.4468867657654769 28.1128704123049964
 22.5487696090151921 35.8010187766509844 28.1128704123049964
 -14.0929763269117494 50.4468867657654769 28.1128704123049964
 47.9161516090151949 35.8010187766509844 28.1128704123049964
 -16.9116306988717469 50.4468867657654769 28.1128704123049964
 -18.3209155042924259 38.2419723650567462 28.1128704123049964
 35.2324603042478444 72.4156887494372228 28.1128704123049964
 -15.5022611323324266 38.2419723650567462 28.1128704123049964
 11.2744056730882534 50.4468867657654769 28.1128704123049964
 56.3719880505279747 16.2731703813850075 28.1128704123049964
 49.3254787340417238 43.1239527712082307 28.1128704123049964
 -7.0465518934510678 62.6518011664742076 28.1128704123049964
 57.7812307801566902  4.0683292100162243 28.1128704123049964
 22.5487275332232180 11.3912632045734714 28.1128704123049964
 33.8231331792213084 65.0927547548799765 28.1128704123049964
 31.0045210455954674 69.9747351610314468 28.1128704123049964
 28.1859517192032243 11.3912632045734714 28.1128704123049964
 36.6417457192032217 11.3912632045734714 28.1128704123049964
 19.7301995511813146 65.0927547548799765 28.1128704123049964
 42.2789699051832244 11.3912632045734714 28.1128704123049964
 42.2789694175554729 69.9747351610314468 28.1128704123049964
 16.9115451792213065 65.0927547548799765 28.1128704123049964
 47.9161095332232136 11.3912632045734714 28.1128704123049964
 15.5022607801566892  4.0683292100162243 28.1128704123049964
 -32.4138916957521559 72.4156887494372228 28.1128704123049964
 -23.9580976957521585 72.4156887494372228 28.1128704123049964
  1.4092425941766900  4.0683292100162243 28.1128704123049964
 -2.8186126347986837 65.0927547548799765 28.1128704123049964
 -18.3208735097721558 72.4156887494372228 28.1128704123049964
  8.4557934175554603 69.9747351610314468 28.1128704123049964
 81.7393701724349171  1.6273023922705114 28.1128704123049964
  5.6371390455954664 69.9747351610314468 28.1128704123049964
 69.0555945941766822  4.0683292100162243 28.1128704123049964
 70.4649640388090717  6.5092827984219914 28.1128704123049964
 73.2835338528290663  6.5092827984219914 28.1128704123049964
 67.6463096668490635  6.5092827984219914 28.1128704123049964
 78.9207580388090690  6.5092827984219914 28.1128704123049964
 50.7347216668490617  6.5092827984219914 28.1128704123049964
  1.4093271114814494  8.9502363868277595 28.1128704123049964
 18.3209151114814510  8.9502363868277595 28.1128704123049964
 47.9161518528290671  6.5092827984219914 28.1128704123049964
 -36.6418309544045329 69.9747351610314468 28.1128704123049964
 49.3254367395214430  8.9502363868277595 28.1128704123049964
 71.8742489255014476  8.9502363868277595 28.1128704123049964
 -26.7767097481063061 67.5337083432857384 28.1128704123049964
 -8.4557945824445344 69.9747351610314468 28.1128704123049964
  5.6371818528290705  6.5092827984219914 28.1128704123049964
 -5.6372242807967794 11.3912632045734714 28.1128704123049964
 39.4603573652013111 65.0927547548799765 28.1128704123049964
  5.6371395332232206 11.3912632045734714 28.1128704123049964
 14.0929335332232206 11.3912632045734714 28.1128704123049964
  9.8650787918756002 13.8322167929792403 28.1128704123049964
 62.0091277192032209 11.3912632045734714 28.1128704123049964
 -15.5023036957521541 72.4156887494372228 28.1128704123049964
 14.0930181724349168  1.6273023922705114 28.1128704123049964
 28.1859518004749177  1.6273023922705114 28.1128704123049964
  9.8650361065489385 62.6518011664742076 28.1128704123049964
  7.0465084902278479 72.4156887494372228 28.1128704123049964
 22.5488120505279817 16.2731703813850075 28.1128704123049964
 14.0930180505279825 16.2731703813850075 28.1128704123049964
 21.1394844785089369 62.6518011664742076 28.1128704123049964
 39.4604001724349231  1.6273023922705114 28.1128704123049964
 -0.0000001354520196 16.2731703813850075 28.1128704123049964
 60.5998427918756022 13.8322167929792403 28.1128704123049964
 42.2789699864549249  1.6273023922705114 28.1128704123049964
 57.7812729778555934 13.8322167929792403 28.1128704123049964
 -33.8232188207786848 65.0927547548799765 28.1128704123049964
 46.5068246058955950 13.8322167929792403 28.1128704123049964
 -4.2279398817321576 72.4156887494372228 28.1128704123049964
 21.1394844378736906 67.5337083432857384 28.1128704123049964
 32.4138909778556012 13.8322167929792403 28.1128704123049964
 23.9580969778556039 13.8322167929792403 28.1128704123049964
 -22.5487704488186900 65.0927547548799765 28.1128704123049964
 62.0091278004749142  1.6273023922705114 28.1128704123049964
 -12.6837338817321594 72.4156887494372228 28.1128704123049964
 56.3719881724349250  1.6273023922705114 28.1128704123049964
  1.4092845345166412 44.7512551634787386 28.6327538495249954
 -26.7766252037113830 69.1610107355562462 28.6327538495249954
 -14.0930187819696204 71.6020375533019688 28.6327538495249954
 -19.7301584100096186 71.6020375533019688 28.6327538495249954
  1.4093267728507877 49.6332355696302230 28.6327538495249954
 -35.2324192037113804 69.1610107355562462 28.6327538495249954
  9.8651207728507995 49.6332355696302230 28.6327538495249954
  2.8186539791490159 47.1922087518845075 28.6327538495249954
 39.4603573516562420 66.7200571471504844 28.6327538495249954
 -36.6417464100096169 71.6020375533019688 28.6327538495249954
 -1.4092852795033535 44.7512551634787386 28.6327538495249954
  8.4557934040103735 71.6020375533019688 28.6327538495249954
 28.1859512180303895 71.6020375533019688 28.6327538495249954
 25.3674237236162377 66.7200571471504844 28.6327538495249954
 -16.9115885959896168 71.6020375533019688 28.6327538495249954
 59.1905576478242708 42.3103015750729767 28.6327538495249954
 21.1394845868707826 49.6332355696302230 28.6327538495249954
 29.5952785868707942 49.6332355696302230 28.6327538495249954
 22.5487693516562366 66.7200571471504844 28.6327538495249954
 56.3719878338042619 42.3103015750729767 28.6327538495249954
 33.8231754040103922 71.6020375533019688 28.6327538495249954
 12.6836905868707941 49.6332355696302230 28.6327538495249954
  5.6372235899903860 71.6020375533019688 28.6327538495249954
 -1.4093275991092098 49.6332355696302230 28.6327538495249954
 -9.8651215991092069 49.6332355696302230 28.6327538495249954
 32.4138484008907994 49.6332355696302230 28.6327538495249954
 47.9161937931690360 47.1922087518845075 28.6327538495249954
 40.8697267962886173 69.1610107355562462 28.6327538495249954
 -16.9115883928109767 47.1922087518845075 28.6327538495249954
 32.4139327962886199 69.1610107355562462 28.6327538495249954
 50.7347636071890307 47.1922087518845075 28.6327538495249954
 -25.3673823928109776 47.1922087518845075 28.6327538495249954
 57.7812727204966521 44.7512551634787386 28.6327538495249954
 -26.7767095991092070 49.6332355696302230 28.6327538495249954
 -33.8231765959896151 71.6020375533019688 28.6327538495249954
 19.7302419791490244 47.1922087518845075 28.6327538495249954
 49.3254787204966547 44.7512551634787386 28.6327538495249954
 26.7767086103086172 69.1610107355562462 28.6327538495249954
 40.8696847204966431 44.7512551634787386 28.6327538495249954
 -2.8185704100096114 71.6020375533019688 28.6327538495249954
 -0.0000003928109814 47.1922087518845075 28.6327538495249954
 28.1860359791490147 47.1922087518845075 28.6327538495249954
 29.5953209064766369 44.7512551634787386 28.6327538495249954
 -12.6836914131292051 49.6332355696302230 28.6327538495249954
 18.3208725345166314 44.7512551634787386 28.6327538495249954
  4.2278964243286037 69.1610107355562462 28.6327538495249954
 12.6837329064766493 44.7512551634787386 28.6327538495249954
 29.5952784243286260 69.1610107355562462 28.6327538495249954
 -15.5022612271492086 49.6332355696302230 28.6327538495249954
 -22.5487704623637697 66.7200571471504844 28.6327538495249954
 49.3254364008908013 49.6332355696302230 28.6327538495249954
 -1.4092854014103018 59.3971231525932382 28.6327538495249954
 -9.8650794014102949 59.3971231525932382 28.6327538495249954
 -26.7767097210161431 64.2791035587447084 28.6327538495249954
 -23.9580553490561456 64.2791035587447084 28.6327538495249954
 -12.6836492154302967 59.3971231525932382 28.6327538495249954
 50.7347636478242734 42.3103015750729767 28.6327538495249954
 -26.7766674014102968 59.3971231525932382 28.6327538495249954
 -35.2325037210161440 64.2791035587447084 28.6327538495249954
 -21.1394855350361439 64.2791035587447084 28.6327538495249954
 -32.4138915873902960 59.3971231525932382 28.6327538495249954
 42.2789695259173328 56.9561695641874692 28.6327538495249954
 -7.0464673490561447 64.2791035587447084 28.6327538495249954
 39.4603997118973240 56.9561695641874692 28.6327538495249954
 -4.2278975350361501 64.2791035587447084 28.6327538495249954
 22.5488117118973186 56.9561695641874692 28.6327538495249954
 19.7301573399373318 56.9561695641874692 28.6327538495249954
 -18.3209157210161457 64.2791035587447084 28.6327538495249954
 -1.4093277210161486 64.2791035587447084 28.6327538495249954
 47.9161936712620928 61.8380767409990000 28.6327538495249954
 42.2789694852820901 61.8380767409990000 28.6327538495249954
 -16.9115885147179164 61.8380767409990000 28.6327538495249954
 -5.6371401427579215 61.8380767409990000 28.6327538495249954
 -19.7301583287379145 61.8380767409990000 28.6327538495249954
 -2.8185703287379194 61.8380767409990000 28.6327538495249954
  5.6372236712620847 61.8380767409990000 28.6327538495249954
 -25.3673825147179137 61.8380767409990000 28.6327538495249954
  8.4557934852820722 61.8380767409990000 28.6327538495249954
  7.0465085985897025 59.3971231525932382 28.6327538495249954
 -33.8231765147179146 61.8380767409990000 28.6327538495249954
 32.4138905985897026 59.3971231525932382 28.6327538495249954
 11.2744478572420874 61.8380767409990000 28.6327538495249954
 29.5953207845697079 59.3971231525932382 28.6327538495249954
 31.0046056712620839 61.8380767409990000 28.6327538495249954
 26.7766664126097069 59.3971231525932382 28.6327538495249954
 33.8231754852820927 61.8380767409990000 28.6327538495249954
  9.8650784126096909 59.3971231525932382 28.6327538495249954
 49.3254785985897115 59.3971231525932382 28.6327538495249954
 35.2325027728508005 49.6332355696302230 28.6327538495249954
 11.2743633399373131 56.9561695641874692 28.6327538495249954
  7.0464662789838490 64.2791035587447084 28.6327538495249954
 28.1859936595431719 52.0741891580359919 28.6327538495249954
 -33.8231342763837688 66.7200571471504844 28.6327538495249954
 19.7301996595431604 52.0741891580359919 28.6327538495249954
 -25.3673402763837679 66.7200571471504844 28.6327538495249954
 11.2744056595431719 52.0741891580359919 28.6327538495249954
 -14.0929341427579153 61.8380767409990000 28.6327538495249954
 -2.8186126483437688 66.7200571471504844 28.6327538495249954
 31.0045634735631737 52.0741891580359919 28.6327538495249954
  8.4558358455231772 52.0741891580359919 28.6327538495249954
 -5.6371823404568273 52.0741891580359919 28.6327538495249954
 -8.4557521544768282 52.0741891580359919 28.6327538495249954
 -11.2744065264368292 52.0741891580359919 28.6327538495249954
 -14.0929763404568273 52.0741891580359919 28.6327538495249954
 19.7301995376362349 66.7200571471504844 28.6327538495249954
 -22.5487703404568300 52.0741891580359919 28.6327538495249954
 -25.3673401544768282 52.0741891580359919 28.6327538495249954
 16.9116297236162261 66.7200571471504844 28.6327538495249954
  4.2278964649638544 64.2791035587447084 28.6327538495249954
 40.8696422789838678 64.2791035587447084 28.6327538495249954
 38.0510724649638732 64.2791035587447084 28.6327538495249954
 -0.0000004740826793 56.9561695641874692 28.6327538495249954
 15.5022602789838597 64.2791035587447084 28.6327538495249954
 -25.3673824740826745 56.9561695641874692 28.6327538495249954
 43.6882967322155622 54.5151427464417537 28.6327538495249954
 18.3209146509438554 64.2791035587447084 28.6327538495249954
 40.8697269181955534 54.5151427464417537 28.6327538495249954
 23.9581389181955480 54.5151427464417537 28.6327538495249954
 39.4603574735631781 52.0741891580359919 28.6327538495249954
 21.1394845462355612 54.5151427464417537 28.6327538495249954
  9.8651207322155532 54.5151427464417537 28.6327538495249954
 -7.0464672677844442 54.5151427464417537 28.6327538495249954
 -23.9580552677844487 54.5151427464417537 28.6327538495249954
 35.2325026509438644 64.2791035587447084 28.6327538495249954
 -26.7766250818044469 54.5151427464417537 28.6327538495249954
 50.7348058455231694 52.0741891580359919 28.6327538495249954
 42.2790118455231720 52.0741891580359919 28.6327538495249954
 21.1394844649638500 64.2791035587447084 28.6327538495249954
 -15.5023035873902977 59.3971231525932382 28.6327538495249954
 -16.9115460325698876 37.4283211689214923 28.6327538495249954
 42.2789696478242618 42.3103015750729767 28.6327538495249954
 38.0511151502905278 15.4595191852497500 28.6327538495249954
 35.2324607783305126 15.4595191852497500 28.6327538495249954
 32.4138909643105251 15.4595191852497500 28.6327538495249954
 23.9580969643105171 15.4595191852497500 28.6327538495249954
 12.6837331502905215 15.4595191852497500 28.6327538495249954
  9.8650787783305205 15.4595191852497500 28.6327538495249954
  7.0465089643105223 15.4595191852497500 28.6327538495249954
  1.4092847783305213 15.4595191852497500 28.6327538495249954
 62.0091277056581518 13.0185655968439828 28.6327538495249954
 59.1905578916381430 13.0185655968439828 28.6327538495249954
 40.8696849643105153 15.4595191852497500 28.6327538495249954
 56.3719880776181483 13.0185655968439828 28.6327538495249954
 36.6417457056581313 13.0185655968439828 28.6327538495249954
 33.8231758916381438 13.0185655968439828 28.6327538495249954
 22.5488120776181340 13.0185655968439828 28.6327538495249954
 14.0930180776181420 13.0185655968439828 28.6327538495249954
 11.2743637056581409 13.0185655968439828 28.6327538495249954
  8.4557938916381428 13.0185655968439828 28.6327538495249954
  5.6372240776181393 13.0185655968439828 28.6327538495249954
 -5.6372242943418591 13.0185655968439828 28.6327538495249954
 77.5114730979363742 10.5775387790982709 28.6327538495249954
 74.6929032839163654 10.5775387790982709 28.6327538495249954
 47.9161940776181368 13.0185655968439828 28.6327538495249954
 63.4184549119563812 10.5775387790982709 28.6327538495249954
 46.5069091502905181 15.4595191852497500 28.6327538495249954
 57.7812729643105243 15.4595191852497500 28.6327538495249954
 66.2370246447046753 20.3414995914012344 28.6327538495249954
 54.9626608306846691 20.3414995914012344 28.6327538495249954
 49.3254366447046735 20.3414995914012344 28.6327538495249954
 35.2325030166646727 20.3414995914012344 28.6327538495249954
 32.4138486447046574 20.3414995914012344 28.6327538495249954
 18.3209150166646637 20.3414995914012344 28.6327538495249954
 15.5022606447046662 20.3414995914012344 28.6327538495249954
 -4.2278971693153311 20.3414995914012344 28.6327538495249954
 -7.0464669833353293 20.3414995914012344 28.6327538495249954
 70.4650062229628986 17.9004727736555189 28.6327538495249954
 54.9627031502905297 15.4595191852497500 28.6327538495249954
 67.6463518510029047 17.9004727736555189 28.6327538495249954
 53.5534182229629039 17.9004727736555189 28.6327538495249954
 39.4604000369828896 17.9004727736555189 28.6327538495249954
 36.6418302229629020 17.9004727736555189 28.6327538495249954
 33.8231758510028868 17.9004727736555189 28.6327538495249954
 22.5488120369828984 17.9004727736555189 28.6327538495249954
 14.0930180369829028 17.9004727736555189 28.6327538495249954
  2.8186542229628988 17.9004727736555189 28.6327538495249954
 -5.6371397770370981 17.9004727736555189 28.6327538495249954
 71.8742911502905173 15.4595191852497500 28.6327538495249954
 60.5998427783305331 15.4595191852497500 28.6327538495249954
 56.3719880369828985 17.9004727736555189 28.6327538495249954
 69.0556790166646692 20.3414995914012344 28.6327538495249954
 49.3255212839163661 10.5775387790982709 28.6327538495249954
 43.6882970979363634 10.5775387790982709 28.6327538495249954
 39.4604001588898399  3.2546047845410229 28.6327538495249954
 36.6418303448698452  3.2546047845410229 28.6327538495249954
 33.8231759729098371  3.2546047845410229 28.6327538495249954
 31.0046061588898354  3.2546047845410229 28.6327538495249954
 28.1860363448698337  3.2546047845410229 28.6327538495249954
 16.9115879729098388  3.2546047845410229 28.6327538495249954
 14.0930181588898407  3.2546047845410229 28.6327538495249954
  5.6372241588898389  3.2546047845410229 28.6327538495249954
  2.8186543448698407  3.2546047845410229 28.6327538495249954
 -0.0000000270901599  3.2546047845410229 28.6327538495249954
 56.3719881588898417  3.2546047845410229 28.6327538495249954
 83.1486550862174738  0.8136511961352557 28.6327538495249954
 66.2370670862174649  0.8136511961352557 28.6327538495249954
 60.5998429002374621  0.8136511961352557 28.6327538495249954
 57.7812730862174604  0.8136511961352557 28.6327538495249954
 43.6882549002374461  0.8136511961352557 28.6327538495249954
 40.8696850862174585  0.8136511961352557 28.6327538495249954
 38.0511152721974639  0.8136511961352557 28.6327538495249954
 29.5953212721974559  0.8136511961352557 28.6327538495249954
 26.7766669002374584  0.8136511961352557 28.6327538495249954
 23.9580970862174638  0.8136511961352557 28.6327538495249954
 12.6837332721974576  0.8136511961352557 28.6327538495249954
 80.3300852721974650  0.8136511961352557 28.6327538495249954
 46.5068669119563793 10.5775387790982709 28.6327538495249954
 59.1905579729098434  3.2546047845410229 28.6327538495249954
  4.2278969525916086  5.6956316022867357 28.6327538495249954
 40.8697272839163759 10.5775387790982709 28.6327538495249954
 26.7767090979363651 10.5775387790982709 28.6327538495249954
 23.9581392839163634 10.5775387790982709 28.6327538495249954
 21.1394849119563659 10.5775387790982709 28.6327538495249954
 12.6836909119563703 10.5775387790982709 28.6327538495249954
 -1.4092427160836287 10.5775387790982709 28.6327538495249954
 -4.2278970880436288 10.5775387790982709 28.6327538495249954
 76.1021882112439840  8.1365851906925037 28.6327538495249954
 73.2835338392839901  8.1365851906925037 28.6327538495249954
 70.4649640252639955  8.1365851906925037 28.6327538495249954
 62.0092123448698445  3.2546047845410229 28.6327538495249954
 47.9161518392839980  8.1365851906925037 28.6327538495249954
 19.7302000252639935  8.1365851906925037 28.6327538495249954
 74.6928187666116230  5.6956316022867357 28.6327538495249954
 71.8742489525916284  5.6956316022867357 28.6327538495249954
 69.0556791385716195  5.6956316022867357 28.6327538495249954
 57.7812307666116141  5.6956316022867357 28.6327538495249954
 49.3254367666116167  5.6956316022867357 28.6327538495249954
 46.5068669525916008  5.6956316022867357 28.6327538495249954
 35.2325031385716159  5.6956316022867357 28.6327538495249954
 21.1394849525916122  5.6956316022867357 28.6327538495249954
  7.0464667666116103  5.6956316022867357 28.6327538495249954
 22.5487698392839881  8.1365851906925037 28.6327538495249954
 -5.6371820966429516 22.7824531798069998 28.6327538495249954
  0.0000420893370479 22.7824531798069998 28.6327538495249954
  8.4558360893370512 22.7824531798069998 28.6327538495249954
 47.9161515954701187 37.4283211689214923 28.6327538495249954
 45.0975817814501099 37.4283211689214923 28.6327538495249954
 42.2790119674301152 37.4283211689214923 28.6327538495249954
 39.4603575954701142 37.4283211689214923 28.6327538495249954
 28.1859937814501045 37.4283211689214923 28.6327538495249954
 19.7301997814501142 37.4283211689214923 28.6327538495249954
  8.4558359674301080 37.4283211689214923 28.6327538495249954
  5.6371815954701097 37.4283211689214923 28.6327538495249954
  0.0000419674301133 37.4283211689214923 28.6327538495249954
 -5.6371822185498859 37.4283211689214923 28.6327538495249954
 56.3719455954701161 37.4283211689214923 28.6327538495249954
 52.1440908947577384 34.9873675805157234 28.6327538495249954
 46.5068667087777357 34.9873675805157234 28.6327538495249954
 23.9580545227977240 34.9873675805157234 28.6327538495249954
 21.1394847087777364 34.9873675805157234 28.6327538495249954
 18.3209148947577418 34.9873675805157234 28.6327538495249954
  9.8651208947577302 34.9873675805157234 28.6327538495249954
  1.4093268947577322 34.9873675805157234 28.6327538495249954
 -1.4093274772022688 34.9873675805157234 28.6327538495249954
 -15.5022611052422672 34.9873675805157234 28.6327538495249954
 56.3719879150759695 32.5463407627700150 28.6327538495249954
 53.5534181010559607 32.5463407627700150 28.6327538495249954
 49.3254365227977445 34.9873675805157234 28.6327538495249954
 50.7347637290959668 32.5463407627700150 28.6327538495249954
 -15.5022611458775117 39.8692747573272612 28.6327538495249954
 -9.8650369598975125 39.8692747573272612 28.6327538495249954
 39.4603998338042672 42.3103015750729767 28.6327538495249954
 36.6417454618442662 42.3103015750729767 28.6327538495249954
 31.0046058338042556 42.3103015750729767 28.6327538495249954
 28.1859514618442688 42.3103015750729767 28.6327538495249954
 19.7301574618442501 42.3103015750729767 28.6327538495249954
 14.0930178338042680 42.3103015750729767 28.6327538495249954
  8.4557936478242581 42.3103015750729767 28.6327538495249954
 -11.2743641661957401 42.3103015750729767 28.6327538495249954
 -16.9115883521757375 42.3103015750729767 28.6327538495249954
 -22.5488125381557367 42.3103015750729767 28.6327538495249954
 -12.6836913318575100 39.8692747573272612 28.6327538495249954
 60.5998848541225001 39.8692747573272612 28.6327538495249954
 40.8697270401024966 39.8692747573272612 28.6327538495249954
 38.0510726681424956 39.8692747573272612 28.6327538495249954
 35.2325028541224938 39.8692747573272612 28.6327538495249954
 32.4139330401024850 39.8692747573272612 28.6327538495249954
 29.5952786681424982 39.8692747573272612 28.6327538495249954
 18.3209148541224920 39.8692747573272612 28.6327538495249954
  9.8651208541224857 39.8692747573272612 28.6327538495249954
  7.0465510401024849 39.8692747573272612 28.6327538495249954
  1.4093268541224926 39.8692747573272612 28.6327538495249954
 -7.0464671458775081 39.8692747573272612 28.6327538495249954
 57.7813150401024913 39.8692747573272612 28.6327538495249954
 36.6418301010559517 32.5463407627700150 28.6327538495249954
 33.8231757290959649 32.5463407627700150 28.6327538495249954
 19.7302421010559677 32.5463407627700150 28.6327538495249954
 -8.4557942302688005 27.6644335859584807 28.6327538495249954
 60.5998849760294434 25.2234067682127652 28.6327538495249954
 54.9626607900494406 25.2234067682127652 28.6327538495249954
 46.5068667900494361 25.2234067682127652 28.6327538495249954
 43.6882969760294344 25.2234067682127652 28.6327538495249954
 40.8697271620094256 25.2234067682127652 28.6327538495249954
 26.7767089760294326 25.2234067682127652 28.6327538495249954
 23.9581391620094379 25.2234067682127652 28.6327538495249954
 21.1394847900494298 25.2234067682127652 28.6327538495249954
  9.8651209760294343 25.2234067682127652 28.6327538495249954
 -0.0000002302687971 27.6644335859584807 28.6327538495249954
  7.0465511620094325 25.2234067682127652 28.6327538495249954
  1.4093269760294336 25.2234067682127652 28.6327538495249954
 -7.0464670239705693 25.2234067682127652 28.6327538495249954
 70.4649639033570594 22.7824531798069998 28.6327538495249954
 56.3719457173770593 22.7824531798069998 28.6327538495249954
 50.7348060893370558 22.7824531798069998 28.6327538495249954
 47.9161517173770548 22.7824531798069998 28.6327538495249954
 45.0975819033570531 22.7824531798069998 28.6327538495249954
 31.0045637173770388 22.7824531798069998 28.6327538495249954
 28.1859939033570512 22.7824531798069998 28.6327538495249954
 14.0929757173770476 22.7824531798069998 28.6327538495249954
  4.2278967900494315 25.2234067682127652 28.6327538495249954
  2.8185695837512008 27.6644335859584807 28.6327538495249954
  5.6372239557112023 27.6644335859584807 28.6327538495249954
  8.4557937697312031 27.6644335859584807 28.6327538495249954
 16.9115877290959595 32.5463407627700150 28.6327538495249954
 -0.0000002709040391 32.5463407627700150 28.6327538495249954
 -8.4557942709040379 32.5463407627700150 28.6327538495249954
 -14.0929338989440378 32.5463407627700150 28.6327538495249954
 -16.9115882709040370 32.5463407627700150 28.6327538495249954
 66.2370668424035927 30.1053871743642461 28.6327538495249954
 63.4184970283835838 30.1053871743642461 28.6327538495249954
 38.0511150283835775 30.1053871743642461 28.6327538495249954
 35.2324606564235907 30.1053871743642461 28.6327538495249954
 32.4138908424035748 30.1053871743642461 28.6327538495249954
 29.5953210283835837 30.1053871743642461 28.6327538495249954
 18.3208726564235782 30.1053871743642461 28.6327538495249954
 15.5023028424035783 30.1053871743642461 28.6327538495249954
  1.4092846564235810 30.1053871743642461 28.6327538495249954
 -7.0465093435764183 30.1053871743642461 28.6327538495249954
 -15.5023033435764184 30.1053871743642461 28.6327538495249954
 64.8277819557112025 27.6644335859584807 28.6327538495249954
 62.0091275837512086 27.6644335859584807 28.6327538495249954
 59.1905577697312140 27.6644335859584807 28.6327538495249954
 42.2789697697312050 27.6644335859584807 28.6327538495249954
 39.4603999557111962 27.6644335859584807 28.6327538495249954
 36.6417455837512094 27.6644335859584807 28.6327538495249954
 25.3673817697312032 27.6644335859584807 28.6327538495249954
 47.9161938338042646 42.3103015750729767 28.6327538495249954
 36.6417452180303869 71.6020375533019688 28.6327538495249954
