 H  O 
 1.0000000000000000
    84.5579400000000021    0.0000000000000000    0.0000000000000000
   -42.2789706095346958   73.2293399455724767    0.0000000000000000
     0.0000000000000000    0.0000000000000000   46.9039550000000034
 H   O  
 190 334
Cartesian
 -0.0000000135450799  1.6273023922705114 28.1128704123049964
 32.4138485363428117 33.3600651882452155 28.1128704123049964
 40.8696425363428091 33.3600651882452155 28.1128704123049964
 46.5068667223228047 33.3600651882452155 28.1128704123049964
 -14.0929762050048097 35.8010187766509844 28.1128704123049964
 -11.2744063909848098 35.8010187766509844 28.1128704123049964
 16.9115454230351894 35.8010187766509844 28.1128704123049964
 35.2324603042478444 72.4156887494372228 28.1128704123049964
 28.1859937949951949 35.8010187766509844 28.1128704123049964
 53.5533757949951976 35.8010187766509844 28.1128704123049964
 -18.3209155042924259 38.2419723650567462 28.1128704123049964
 -1.4093275042924258 38.2419723650567462 28.1128704123049964
 38.0510726816875717 38.2419723650567462 28.1128704123049964
 52.1440908676675789 38.2419723650567462 28.1128704123049964
 54.9626606816875736 38.2419723650567462 28.1128704123049964
 -22.5488125246106605 40.6829991828024689 28.1128704123049964
 16.9115876613693388 40.6829991828024689 28.1128704123049964
 33.8231756613693406 40.6829991828024689 28.1128704123049964
 45.0975394347540970 45.5649063596139996 28.1128704123049964
 25.3673816207341005 45.5649063596139996 28.1128704123049964
 22.5488118067141059 45.5649063596139996 28.1128704123049964
  8.4557936207341040 45.5649063596139996 28.1128704123049964
  5.6372238067141032 45.5649063596139996 28.1128704123049964
 -5.6372245652458988 45.5649063596139996 28.1128704123049964
 21.1394847223228126 33.3600651882452155 28.1128704123049964
 -22.5488125652458997 45.5649063596139996 28.1128704123049964
 26.7766665480617228 43.1239527712082307 28.1128704123049964
  9.8650785480617262 43.1239527712082307 28.1128704123049964
  7.0465087340417254 43.1239527712082307 28.1128704123049964
 -12.6837336379182783 43.1239527712082307 28.1128704123049964
 53.5533334753893371 40.6829991828024689 28.1128704123049964
 50.7347636613693425 40.6829991828024689 28.1128704123049964
 40.8696847340417122 43.1239527712082307 28.1128704123049964
 -23.9581397715441291 48.0059331773597151 28.1128704123049964
  7.0464665363428152 33.3600651882452155 28.1128704123049964
 -4.2278972776771910 33.3600651882452155 28.1128704123049964
 -11.2744062690778684 21.1551507875364884 28.1128704123049964
 -8.4558364550578684 21.1551507875364884 28.1128704123049964
  2.8186119169021282 21.1551507875364884 28.1128704123049964
  8.4557515449421317 21.1551507875364884 28.1128704123049964
 45.0975819169021293 21.1551507875364884 28.1128704123049964
 47.9161517309221239 21.1551507875364884 28.1128704123049964
 -12.6836911964054888 23.5961043759422537 28.1128704123049964
 -9.8651213823854889 23.5961043759422537 28.1128704123049964
 -1.4093273823854895 23.5961043759422537 28.1128704123049964
 15.5022606176145086 23.5961043759422537 28.1128704123049964
 23.9580546176145113 23.5961043759422537 28.1128704123049964
 46.5068668035945052 23.5961043759422537 28.1128704123049964
 63.4184548035945070 23.5961043759422537 28.1128704123049964
 -0.0000002167237204 26.0371311936879657 28.1128704123049964
 19.7301575972962873 26.0371311936879657 28.1128704123049964
 33.8231757832762838 26.0371311936879657 28.1128704123049964
 53.5533335972962803 26.0371311936879657 28.1128704123049964
 -12.6836912776771893 33.3600651882452155 28.1128704123049964
 64.8277819286210502 30.9190383704995000 28.1128704123049964
 62.0091275566610349 30.9190383704995000 28.1128704123049964
 53.5533335566610376 30.9190383704995000 28.1128704123049964
  5.6372239286210437 30.9190383704995000 28.1128704123049964
 63.4184124839886536 28.4780847820937346 28.1128704123049964
  4.2278967223228134 33.3600651882452155 28.1128704123049964
 57.7812728559486644 28.4780847820937346 28.1128704123049964
 38.0510304839886544 28.4780847820937346 28.1128704123049964
 32.4138908559486651 28.4780847820937346 28.1128704123049964
 26.7766666699686624 28.4780847820937346 28.1128704123049964
 15.5023028559486651 28.4780847820937346 28.1128704123049964
 12.6836484839886605 28.4780847820937346 28.1128704123049964
 -4.2279395160113378 28.4780847820937346 28.1128704123049964
 46.5068244839886518 28.4780847820937346 28.1128704123049964
 63.4184548442297569 18.7141971991307194 28.1128704123049964
 -21.1394853995841281 48.0059331773597151 28.1128704123049964
 -4.2278973995841262 48.0059331773597151 28.1128704123049964
 -21.1394855214910677 62.6518011664742076 28.1128704123049964
 -1.4093277074710613 62.6518011664742076 28.1128704123049964
  4.2278964785089341 62.6518011664742076 28.1128704123049964
  9.8650361065489385 62.6518011664742076 28.1128704123049964
 21.1394844785089369 62.6518011664742076 28.1128704123049964
 32.4138482925289324 62.6518011664742076 28.1128704123049964
 -11.2744066347986838 65.0927547548799765 28.1128704123049964
 -5.6371824488186855 65.0927547548799765 28.1128704123049964
 14.0929753652013119 65.0927547548799765 28.1128704123049964
 28.1859935511813049 65.0927547548799765 28.1128704123049964
 36.6417875511813165 65.0927547548799765 28.1128704123049964
 45.0975815511813138 65.0927547548799765 28.1128704123049964
 -35.2325037481063035 67.5337083432857384 28.1128704123049964
 -32.4138493761463025 67.5337083432857384 28.1128704123049964
 -29.5952795621263043 67.5337083432857384 28.1128704123049964
 -18.3209157481063052 67.5337083432857384 28.1128704123049964
 12.6836904378736932 67.5337083432857384 28.1128704123049964
 23.9580964902278346 72.4156887494372228 28.1128704123049964
 12.6836481182678362 72.4156887494372228 28.1128704123049964
  4.2278541182678469 72.4156887494372228 28.1128704123049964
  1.4092843042478451 72.4156887494372228 28.1128704123049964
 -40.8696856957521533 72.4156887494372228 28.1128704123049964
 36.6417452315754701 69.9747351610314468 28.1128704123049964
 45.0975393128471538 60.2107743487284921 28.1128704123049964
 31.0045210455954674 69.9747351610314468 28.1128704123049964
  2.8185692315754580 69.9747351610314468 28.1128704123049964
 -5.6372247684245327 69.9747351610314468 28.1128704123049964
 -14.0930187684245301 69.9747351610314468 28.1128704123049964
 -22.5488127684245363 69.9747351610314468 28.1128704123049964
 -31.0046067684245337 69.9747351610314468 28.1128704123049964
 -33.8231765824445318 69.9747351610314468 28.1128704123049964
 19.7301572315754683 69.9747351610314468 28.1128704123049964
 -7.0465517715441273 48.0059331773597151 28.1128704123049964
 16.9115874988271635 60.2107743487284921 28.1128704123049964
 -14.0930186871528367 60.2107743487284921 28.1128704123049964
 -1.4093275855641247 48.0059331773597151 28.1128704123049964
  7.0464664144358764 48.0059331773597151 28.1128704123049964
 15.5022604144358738 48.0059331773597151 28.1128704123049964
 26.7766242284558658 48.0059331773597151 28.1128704123049964
 29.5952786004158739 48.0059331773597151 28.1128704123049964
 38.0510726004158641 48.0059331773597151 28.1128704123049964
 49.3254364144358703 48.0059331773597151 28.1128704123049964
 -22.5487703269117468 50.4468867657654769 28.1128704123049964
 -2.8186125128917427 50.4468867657654769 28.1128704123049964
 14.0929754871082551 50.4468867657654769 28.1128704123049964
 16.9115453011282568 50.4468867657654769 28.1128704123049964
 33.8231333011282445 50.4468867657654769 28.1128704123049964
 45.0975816730882570 50.4468867657654769 28.1128704123049964
 -12.6836914402193699 52.8878403541712458 28.1128704123049964
 -1.4093276261993704 52.8878403541712458 28.1128704123049964
  4.2278965597806355 52.8878403541712458 28.1128704123049964
 46.5068665597806330 52.8878403541712458 28.1128704123049964
 -25.3673825011728376 60.2107743487284921 28.1128704123049964
 46.5068242401747796 57.7698207603227232 28.1128704123049964
 43.6882544261547849 57.7698207603227232 28.1128704123049964
 40.8696846121347903 57.7698207603227232 28.1128704123049964
 29.5952362401747777 57.7698207603227232 28.1128704123049964
 23.9580966121347885 57.7698207603227232 28.1128704123049964
 -11.2743643151928357 60.2107743487284921 28.1128704123049964
  1.4092844261547897 57.7698207603227232 28.1128704123049964
 50.7347635394624064 55.3288671719169614 28.1128704123049964
 45.0975393534824036 55.3288671719169614 28.1128704123049964
 33.8231755394623974 55.3288671719169614 28.1128704123049964
 19.7301573534824009 55.3288671719169614 28.1128704123049964
  8.4557935394624035 55.3288671719169614 28.1128704123049964
 -14.0930186465175975 55.3288671719169614 28.1128704123049964
 -12.6837337598252144 57.7698207603227232 28.1128704123049964
 60.5998004722697488 18.7141971991307194 28.1128704123049964
 25.3673394230351938 35.8010187766509844 28.1128704123049964
 38.0510729255014510  8.9502363868277595 28.1128704123049964
 53.5533338004749169  1.6273023922705114 28.1128704123049964
 53.5533337192032164 11.3912632045734714 28.1128704123049964
 36.6417456785679860 16.2731703813850075 28.1128704123049964
 56.3719881724349250  1.6273023922705114 28.1128704123049964
 56.3719035332232110 11.3912632045734714 28.1128704123049964
 70.4649218004749116  1.6273023922705114 28.1128704123049964
 70.4649217192032182 11.3912632045734714 28.1128704123049964
 19.7301576785679771 16.2731703813850075 28.1128704123049964
 16.9115878645479825 16.2731703813850075 28.1128704123049964
 73.2834915332232129 11.3912632045734714 28.1128704123049964
 81.7393701724349171  1.6273023922705114 28.1128704123049964
  2.8185696785679806 16.2731703813850075 28.1128704123049964
 76.1021459051832210 11.3912632045734714 28.1128704123049964
 -0.0000001354520196 16.2731703813850075 28.1128704123049964
 50.7347639051832218 11.3912632045734714 28.1128704123049964
 28.1859940388090742  6.5092827984219914 28.1128704123049964
  1.4092425941766900  4.0683292100162243 28.1128704123049964
  7.0464667801566900  4.0683292100162243 28.1128704123049964
 15.5022607801566892  4.0683292100162243 28.1128704123049964
 71.8742066058955942 13.8322167929792403 28.1128704123049964
 63.4184126058955968 13.8322167929792403 28.1128704123049964
 11.2744060388090670  6.5092827984219914 28.1128704123049964
 52.1440487918755977 13.8322167929792403 28.1128704123049964
 21.1394849661366919  4.0683292100162243 28.1128704123049964
 18.3208727918756047 13.8322167929792403 28.1128704123049964
 49.3254789778556031 13.8322167929792403 28.1128704123049964
 38.0510729661366938  4.0683292100162243 28.1128704123049964
 21.1394426058955993 13.8322167929792403 28.1128704123049964
 38.0510306058956047 13.8322167929792403 28.1128704123049964
 35.2324607918756030 13.8322167929792403 28.1128704123049964
  1.4092847918756004 13.8322167929792403 28.1128704123049964
 70.4649640388090717  6.5092827984219914 28.1128704123049964
 63.4184549661366859  4.0683292100162243 28.1128704123049964
 -1.4093272604785494  8.9502363868277595 28.1128704123049964
 19.7301578004749203  1.6273023922705114 28.1128704123049964
  9.8650364722697521 18.7141971991307194 28.1128704123049964
 64.8277820505279863 16.2731703813850075 28.1128704123049964
 28.1859517192032243 11.3912632045734714 28.1128704123049964
 39.4604001724349231  1.6273023922705114 28.1128704123049964
 63.4184549255014502  8.9502363868277595 28.1128704123049964
 25.3673819864549230  1.6273023922705114 28.1128704123049964
 26.7767091114814519  8.9502363868277595 28.1128704123049964
 33.8231759864549275  1.6273023922705114 28.1128704123049964
 26.7766244722697486 18.7141971991307194 28.1128704123049964
 29.5952789255014537  8.9502363868277595 28.1128704123049964
 -5.6372242807967794 11.3912632045734714 28.1128704123049964
 43.6882971114814538  8.9502363868277595 28.1128704123049964
 77.5114731114814504  8.9502363868277595 28.1128704123049964
 42.2789699864549249  1.6273023922705114 28.1128704123049964
 31.0046057931690235 47.1922087518845075 28.6327538495249954
 46.5068665462355568 54.5151427464417537 28.6327538495249954
 45.0976239791490272 47.1922087518845075 28.6327538495249954
 12.6836909525916113  5.6956316022867357 28.6327538495249954
 35.2325027322155506 54.5151427464417537 28.6327538495249954
 33.8231756071890288 47.1922087518845075 28.6327538495249954
 15.5022607666116095  5.6956316022867357 28.6327538495249954
  9.8651207322155532 54.5151427464417537 28.6327538495249954
 18.3209151385716105  5.6956316022867357 28.6327538495249954
 26.7767091385716043  5.6956316022867357 28.6327538495249954
 21.1394845462355612 54.5151427464417537 28.6327538495249954
 -14.0930186600626755 56.9561695641874692 28.6327538495249954
 -28.1859522881026763 56.9561695641874692 28.6327538495249954
  9.8651211385716078  5.6956316022867357 28.6327538495249954
 -11.2743642881026744 56.9561695641874692 28.6327538495249954
 28.1859940252639873  8.1365851906925037 28.6327538495249954
 28.1860359791490147 47.1922087518845075 28.6327538495249954
  7.0464667666116103  5.6956316022867357 28.6327538495249954
  5.6372237118973310 56.9561695641874692 28.6327538495249954
  8.4557935259173256 56.9561695641874692 28.6327538495249954
 11.2743633399373131 56.9561695641874692 28.6327538495249954
 14.0930177118973283 56.9561695641874692 28.6327538495249954
 22.5488117118973186 56.9561695641874692 28.6327538495249954
  1.4093271385716108  5.6956316022867357 28.6327538495249954
 25.3673816071890279 47.1922087518845075 28.6327538495249954
 25.3673815259173274 56.9561695641874692 28.6327538495249954
 -31.0046066600626737 56.9561695641874692 28.6327538495249954
  7.0465509181955595 54.5151427464417537 28.6327538495249954
 14.0929758392839890  8.1365851906925037 28.6327538495249954
  4.2278965462355513 54.5151427464417537 28.6327538495249954
 -11.2744065264368292 52.0741891580359919 28.6327538495249954
 -4.2278974131292042 49.6332355696302230 28.6327538495249954
 52.1440911385716035  5.6956316022867357 28.6327538495249954
  8.4558362112439873  8.1365851906925037 28.6327538495249954
 -14.0929763404568273 52.0741891580359919 28.6327538495249954
 -1.4093275991092098 49.6332355696302230 28.6327538495249954
 -28.1859945264368292 52.0741891580359919 28.6327538495249954
 46.5068665868708067 49.6332355696302230 28.6327538495249954
 60.5998851385716151  5.6956316022867357 28.6327538495249954
 35.2325027728508005 49.6332355696302230 28.6327538495249954
 63.4184549525916097  5.6956316022867357 28.6327538495249954
 32.4138484008907994 49.6332355696302230 28.6327538495249954
  1.4093267728507877 49.6332355696302230 28.6327538495249954
 29.5952785868707942 49.6332355696302230 28.6327538495249954
 18.3209147728507951 49.6332355696302230 28.6327538495249954
 49.3254367666116167  5.6956316022867357 28.6327538495249954
 47.9161937931690360 47.1922087518845075 28.6327538495249954
  0.0000418455231652 52.0741891580359919 28.6327538495249954
 28.1859513399373292 56.9561695641874692 28.6327538495249954
 -12.6836914537644478 54.5151427464417537 28.6327538495249954
 15.5022604008907816 49.6332355696302230 28.6327538495249954
 -15.5022612677844460 54.5151427464417537 28.6327538495249954
 -29.5952794537644479 54.5151427464417537 28.6327538495249954
 53.5533756595431782 52.0741891580359919 28.6327538495249954
 29.5952789525916060  5.6956316022867357 28.6327538495249954
 -23.9580552271492060 49.6332355696302230 28.6327538495249954
 45.0975816595431809 52.0741891580359919 28.6327538495249954
 11.2744060252639908  8.1365851906925037 28.6327538495249954
 36.6417876595431693 52.0741891580359919 28.6327538495249954
 33.8232178455231747 52.0741891580359919 28.6327538495249954
 -21.1394854131292078 49.6332355696302230 28.6327538495249954
 16.9116298455231728 52.0741891580359919 28.6327538495249954
 14.0929754735631594 52.0741891580359919 28.6327538495249954
 38.0510729525916105  5.6956316022867357 28.6327538495249954
 -12.6836914131292051 49.6332355696302230 28.6327538495249954
  2.8186116595431669 52.0741891580359919 28.6327538495249954
 45.0976242229628923 17.9004727736555189 28.6327538495249954
 53.5534183448698329  3.2546047845410229 28.6327538495249954
 43.6882549002374461  0.8136511961352557 28.6327538495249954
 -35.2324192037113804 69.1610107355562462 28.6327538495249954
 45.0975815376362448 66.7200571471504844 28.6327538495249954
 36.6417875376362474 66.7200571471504844 28.6327538495249954
 28.1859935376362323 66.7200571471504844 28.6327538495249954
 25.3674237236162377 66.7200571471504844 28.6327538495249954
 14.0929753516562410 66.7200571471504844 28.6327538495249954
 52.1440489002374647  0.8136511961352557 28.6327538495249954
 -32.4138493896913857 69.1610107355562462 28.6327538495249954
 11.2744055376362251 66.7200571471504844 28.6327538495249954
 -5.6371824623637705 66.7200571471504844 28.6327538495249954
 -19.7302006483437680 66.7200571471504844 28.6327538495249954
 54.9627032721974516  0.8136511961352557 28.6327538495249954
 -31.0045644623637671 66.7200571471504844 28.6327538495249954
 -33.8231342763837688 66.7200571471504844 28.6327538495249954
 57.7812730862174604  0.8136511961352557 28.6327538495249954
 69.0556369002374737  0.8136511961352557 28.6327538495249954
 38.0510724649638732 64.2791035587447084 28.6327538495249954
 -2.8186126483437688 66.7200571471504844 28.6327538495249954
 -29.5952795756713840 69.1610107355562462 28.6327538495249954
 40.8696850862174585  0.8136511961352557 28.6327538495249954
 -12.6836915756713875 69.1610107355562462 28.6327538495249954
 25.3673814040103807 71.6020375533019688 28.6327538495249954
  1.4092849002374601  0.8136511961352557 28.6327538495249954
 22.5488115899903860 71.6020375533019688 28.6327538495249954
 18.3208729002374611  0.8136511961352557 28.6327538495249954
  5.6372235899903860 71.6020375533019688 28.6327538495249954
  2.8185692180303707 71.6020375533019688 28.6327538495249954
 21.1395272721974621  0.8136511961352557 28.6327538495249954
 -5.6372247819696195 71.6020375533019688 28.6327538495249954
 -11.2743644100096230 71.6020375533019688 28.6327538495249954
 -22.5488127819696196 71.6020375533019688 28.6327538495249954
 -25.3673825959896213 71.6020375533019688 28.6327538495249954
 -33.8231765959896151 71.6020375533019688 28.6327538495249954
 -39.4604007819696179 71.6020375533019688 28.6327538495249954
 23.9580970862174638  0.8136511961352557 28.6327538495249954
 32.4139327962886199 69.1610107355562462 28.6327538495249954
 29.5953212721974559  0.8136511961352557 28.6327538495249954
 21.1394844243286215 69.1610107355562462 28.6327538495249954
 35.2324609002374558  0.8136511961352557 28.6327538495249954
 38.0511152721974639  0.8136511961352557 28.6327538495249954
 71.8742912721974676  0.8136511961352557 28.6327538495249954
 73.2835761588898578  3.2546047845410229 28.6327538495249954
 26.7767086509438528 64.2791035587447084 28.6327538495249954
 15.5022602789838597 64.2791035587447084 28.6327538495249954
 19.7302423448698399  3.2546047845410229 28.6327538495249954
 -22.5487281427579163 61.8380767409990000 28.6327538495249954
 -25.3673825147179137 61.8380767409990000 28.6327538495249954
 46.5069087845697027 59.3971231525932382 28.6327538495249954
 35.2324604126097114 59.3971231525932382 28.6327538495249954
 29.5953207845697079 59.3971231525932382 28.6327538495249954
 26.7766664126097069 59.3971231525932382 28.6327538495249954
 28.1860363448698337  3.2546047845410229 28.6327538495249954
 -19.7301583287379145 61.8380767409990000 28.6327538495249954
 16.9115876071890092 47.1922087518845075 28.6327538495249954
 36.6418303448698452  3.2546047845410229 28.6327538495249954
 -12.6836492154302967 59.3971231525932382 28.6327538495249954
 -23.9580975873902986 59.3971231525932382 28.6327538495249954
 39.4604001588898399  3.2546047845410229 28.6327538495249954
 -26.7766674014102968 59.3971231525932382 28.6327538495249954
 -29.5952372154302985 59.3971231525932382 28.6327538495249954
 50.7347639729098461  3.2546047845410229 28.6327538495249954
 45.0975393399373274 56.9561695641874692 28.6327538495249954
 12.6837327845697061 59.3971231525932382 28.6327538495249954
 -14.0929341427579153 61.8380767409990000 28.6327538495249954
 -5.6371401427579215 61.8380767409990000 28.6327538495249954
 -2.8185703287379194 61.8380767409990000 28.6327538495249954
 80.3300852721974650  0.8136511961352557 28.6327538495249954
 12.6836904649638509 64.2791035587447084 28.6327538495249954
  4.2278964649638544 64.2791035587447084 28.6327538495249954
  1.4093266509438596 64.2791035587447084 28.6327538495249954
 -4.2278975350361501 64.2791035587447084 28.6327538495249954
 -7.0464673490561447 64.2791035587447084 28.6327538495249954
 83.1486550862174738  0.8136511961352557 28.6327538495249954
 -12.6836915350361448 64.2791035587447084 28.6327538495249954
 -21.1394855350361439 64.2791035587447084 28.6327538495249954
 -23.9580553490561456 64.2791035587447084 28.6327538495249954
 45.0976238572420840 61.8380767409990000 28.6327538495249954
 39.4603996712620955 61.8380767409990000 28.6327538495249954
 36.6418298572420866 61.8380767409990000 28.6327538495249954
 33.8231754852820927 61.8380767409990000 28.6327538495249954
 -0.0000000270901599  3.2546047845410229 28.6327538495249954
 22.5488116712620865 61.8380767409990000 28.6327538495249954
  2.8186538572420905 61.8380767409990000 28.6327538495249954
 -0.0000005147179177 61.8380767409990000 28.6327538495249954
 16.9115879729098388  3.2546047845410229 28.6327538495249954
 23.9580542789838589 64.2791035587447084 28.6327538495249954
 15.5023025985896936 59.3971231525932382 28.6327538495249954
 46.5069089064766459 44.7512551634787386 28.6327538495249954
  5.6372237931690181 47.1922087518845075 28.6327538495249954
 56.3719879557112051 27.6644335859584807 28.6327538495249954
 53.5533335837512112 27.6644335859584807 28.6327538495249954
  1.4092847783305213 15.4595191852497500 28.6327538495249954
 36.6417455837512094 27.6644335859584807 28.6327538495249954
 33.8231757697311934 27.6644335859584807 28.6327538495249954
  7.0465089643105223 15.4595191852497500 28.6327538495249954
 15.5023029643105232 15.4595191852497500 28.6327538495249954
 22.5488119557112086 27.6644335859584807 28.6327538495249954
 -1.4092850356894804 15.4595191852497500 28.6327538495249954
 19.7301575837512004 27.6644335859584807 28.6327538495249954
 18.3208727783305179 15.4595191852497500 28.6327538495249954
 -2.8185700442888009 27.6644335859584807 28.6327538495249954
 -5.6372244162487979 27.6644335859584807 28.6327538495249954
 63.4184547900494380 25.2234067682127652 28.6327538495249954
 21.1395271502905153 15.4595191852497500 28.6327538495249954
 52.1440909760294318 25.2234067682127652 28.6327538495249954
 46.5068667900494361 25.2234067682127652 28.6327538495249954
 38.0510727900494388 25.2234067682127652 28.6327538495249954
 14.0930179557111952 27.6644335859584807 28.6327538495249954
 35.2325029760294228 25.2234067682127652 28.6327538495249954
 -4.2278549716164209 30.1053871743642461 28.6327538495249954
 76.1021458916381448 13.0185655968439828 28.6327538495249954
 16.9115877290959595 32.5463407627700150 28.6327538495249954
 14.0930179150759578 32.5463407627700150 28.6327538495249954
  8.4557937290959586 32.5463407627700150 28.6327538495249954
  5.6372239150759640 32.5463407627700150 28.6327538495249954
 53.5533337056581473 13.0185655968439828 28.6327538495249954
 62.0091277056581518 13.0185655968439828 28.6327538495249954
 -11.2743640849240396 32.5463407627700150 28.6327538495249954
 -14.0929338989440378 32.5463407627700150 28.6327538495249954
  4.2279390283835818 30.1053871743642461 28.6327538495249954
 70.4649217056581421 13.0185655968439828 28.6327538495249954
 60.5998426564235899 30.1053871743642461 28.6327538495249954
 54.9627030283835865 30.1053871743642461 28.6327538495249954
 73.2835760776181360 13.0185655968439828 28.6327538495249954
 52.1440486564235925 30.1053871743642461 28.6327538495249954
 38.0511150283835775 30.1053871743642461 28.6327538495249954
 26.7766666564235685 30.1053871743642461 28.6327538495249954
 15.5023028424035783 30.1053871743642461 28.6327538495249954
  7.0465088424035836 30.1053871743642461 28.6327538495249954
 63.4184970283835838 30.1053871743642461 28.6327538495249954
 35.2324607783305126 15.4595191852497500 28.6327538495249954
 18.3209149760294281 25.2234067682127652 28.6327538495249954
 15.5023451620094264 25.2234067682127652 28.6327538495249954
  5.6372240369829028 17.9004727736555189 28.6327538495249954
 71.8742488306846781 20.3414995914012344 28.6327538495249954
 63.4184548306846807 20.3414995914012344 28.6327538495249954
 57.7812306447046780 20.3414995914012344 28.6327538495249954
  8.4557938510029000 17.9004727736555189 28.6327538495249954
 46.5068668306846718 20.3414995914012344 28.6327538495249954
 26.7767090166646753 20.3414995914012344 28.6327538495249954
 12.6836908306846716 20.3414995914012344 28.6327538495249954
 -11.2744062826229499 22.7824531798069998 28.6327538495249954
  9.8651210166646699 20.3414995914012344 28.6327538495249954
  7.0464666447046698 20.3414995914012344 28.6327538495249954
 14.0930180369829028 17.9004727736555189 28.6327538495249954
 16.9115878510028992 17.9004727736555189 28.6327538495249954
 25.3673818510029001 17.9004727736555189 28.6327538495249954
 64.8277820369829101 17.9004727736555189 28.6327538495249954
 62.0092122229629013 17.9004727736555189 28.6327538495249954
 28.1860362229629082 17.9004727736555189 28.6327538495249954
 47.9161940369829011 17.9004727736555189 28.6327538495249954
 11.2744482229629011 17.9004727736555189 28.6327538495249954
 66.2370669643105288 15.4595191852497500 28.6327538495249954
 -8.4557519106629488 22.7824531798069998 28.6327538495249954
  0.0000420893370479 22.7824531798069998 28.6327538495249954
 38.0511151502905278 15.4595191852497500 28.6327538495249954
 -1.4092428379905699 25.2234067682127652 28.6327538495249954
 -4.2278972099505676 25.2234067682127652 28.6327538495249954
 -12.6836912099505668 25.2234067682127652 28.6327538495249954
 70.4649639033570594 22.7824531798069998 28.6327538495249954
 46.5069091502905181 15.4595191852497500 28.6327538495249954
 62.0091699033570620 22.7824531798069998 28.6327538495249954
 56.3719457173770593 22.7824531798069998 28.6327538495249954
 53.5533759033570504 22.7824531798069998 28.6327538495249954
 47.9161517173770548 22.7824531798069998 28.6327538495249954
 49.3254789643105269 15.4595191852497500 28.6327538495249954
 45.0975819033570531 22.7824531798069998 28.6327538495249954
 36.6417879033570415 22.7824531798069998 28.6327538495249954
 28.1859939033570512 22.7824531798069998 28.6327538495249954
 25.3674240893370566 22.7824531798069998 28.6327538495249954
 52.1440487783305286 15.4595191852497500 28.6327538495249954
 63.4184971502905270 15.4595191852497500 28.6327538495249954
 14.0929757173770476 22.7824531798069998 28.6327538495249954
  2.8186119033570516 22.7824531798069998 28.6327538495249954
 19.7302421010559677 32.5463407627700150 28.6327538495249954
 14.0930177931690217 47.1922087518845075 28.6327538495249954
 50.7347638916381456 13.0185655968439828 28.6327538495249954
 28.1860361010559650 32.5463407627700150 28.6327538495249954
 -23.9580974654833554 44.7512551634787386 28.6327538495249954
 59.1905576478242708 42.3103015750729767 28.6327538495249954
 45.0975394618442706 42.3103015750729767 28.6327538495249954
 42.2789696478242618 42.3103015750729767 28.6327538495249954
 52.1440910979363750 10.5775387790982709 28.6327538495249954
 39.4603998338042672 42.3103015750729767 28.6327538495249954
 54.9626609119563767 10.5775387790982709 28.6327538495249954
  8.4557936478242581 42.3103015750729767 28.6327538495249954
 -21.1394430935233544 44.7512551634787386 28.6327538495249954
  5.6372238338042564 42.3103015750729767 28.6327538495249954
 -22.5488125381557367 42.3103015750729767 28.6327538495249954
 60.5998848541225001 39.8692747573272612 28.6327538495249954
 54.9626606681424974 39.8692747573272612 28.6327538495249954
 71.8742489119563714 10.5775387790982709 28.6327538495249954
 52.1440908541225028 39.8692747573272612 28.6327538495249954
 38.0510726681424956 39.8692747573272612 28.6327538495249954
 35.2325028541224938 39.8692747573272612 28.6327538495249954
 74.6929032839163654 10.5775387790982709 28.6327538495249954
 -11.2743641661957401 42.3103015750729767 28.6327538495249954
 15.5023450401024956 39.8692747573272612 28.6327538495249954
 -12.6836490935233588 44.7512551634787386 28.6327538495249954
 -4.2278550935233552 44.7512551634787386 28.6327538495249954
 -0.0000003928109814 47.1922087518845075 28.6327538495249954
 62.0091700252639910  8.1365851906925037 28.6327538495249954
 -2.8185702068309761 47.1922087518845075 28.6327538495249954
 -5.6371400208509774 47.1922087518845075 28.6327538495249954
 64.8277398392839928  8.1365851906925037 28.6327538495249954
 -19.7301582068309784 47.1922087518845075 28.6327538495249954
 -22.5487280208509766 47.1922087518845075 28.6327538495249954
 78.9207580252639929  8.1365851906925037 28.6327538495249954
 43.6882970979363634 10.5775387790982709 28.6327538495249954
 36.6418302229629020 17.9004727736555189 28.6327538495249954
 26.7766665345166501 44.7512551634787386 28.6327538495249954
 26.7767090979363651 10.5775387790982709 28.6327538495249954
 23.9580967204966342 44.7512551634787386 28.6327538495249954
 21.1395269064766467 44.7512551634787386 28.6327538495249954
  9.8650785345166412 44.7512551634787386 28.6327538495249954
 29.5952789119563668 10.5775387790982709 28.6327538495249954
  7.0465087204966403 44.7512551634787386 28.6327538495249954
 38.0510729119563607 10.5775387790982709 28.6327538495249954
 43.6882545345166520 44.7512551634787386 28.6327538495249954
 -1.4092429598975091 39.8692747573272612 28.6327538495249954
 -4.2278973318575099 39.8692747573272612 28.6327538495249954
 -21.1394853318575109 39.8692747573272612 28.6327538495249954
 33.8231758916381438 13.0185655968439828 28.6327538495249954
 23.9580545227977240 34.9873675805157234 28.6327538495249954
 15.5022605227977337 34.9873675805157234 28.6327538495249954
  7.0464665227977319 34.9873675805157234 28.6327538495249954
  4.2278967087777302 34.9873675805157234 28.6327538495249954
 -4.2278972912222672 34.9873675805157234 28.6327538495249954
 -9.8651214772022673 34.9873675805157234 28.6327538495249954
 36.6417457056581313 13.0185655968439828 28.6327538495249954
 26.7767088947577392 34.9873675805157234 28.6327538495249954
 -12.6836912912222672 34.9873675805157234 28.6327538495249954
 64.8277819150759740 32.5463407627700150 28.6327538495249954
 53.5534181010559607 32.5463407627700150 28.6327538495249954
 39.4604000776181465 13.0185655968439828 28.6327538495249954
 45.0976241010559633 32.5463407627700150 28.6327538495249954
 42.2789697290959623 32.5463407627700150 28.6327538495249954
 47.9161940776181368 13.0185655968439828 28.6327538495249954
 39.4603999150759606 32.5463407627700150 28.6327538495249954
 36.6418301010559517 32.5463407627700150 28.6327538495249954
 -15.5022611052422672 34.9873675805157234 28.6327538495249954
 40.8696425227977400 34.9873675805157234 28.6327538495249954
 52.1440908947577384 34.9873675805157234 28.6327538495249954
 19.7301577056581365 13.0185655968439828 28.6327538495249954
 77.5114730979363742 10.5775387790982709 28.6327538495249954
 -0.0000001083618602 13.0185655968439828 28.6327538495249954
 53.5533757814501215 37.4283211689214923 28.6327538495249954
 50.7348059674301126 37.4283211689214923 28.6327538495249954
 39.4603575954701142 37.4283211689214923 28.6327538495249954
  2.8185697056581414 13.0185655968439828 28.6327538495249954
 36.6417877814501125 37.4283211689214923 28.6327538495249954
 28.1859937814501045 37.4283211689214923 28.6327538495249954
 25.3674239674301170 37.4283211689214923 28.6327538495249954
 16.9116299674301196 37.4283211689214923 28.6327538495249954
 14.0929755954701115 37.4283211689214923 28.6327538495249954
  8.4558359674301080 37.4283211689214923 28.6327538495249954
  5.6371815954701097 37.4283211689214923 28.6327538495249954
  0.0000419674301133 37.4283211689214923 28.6327538495249954
 16.9115878916381419 13.0185655968439828 28.6327538495249954
 -5.6371822185498859 37.4283211689214923 28.6327538495249954
 -11.2744064045298860 37.4283211689214923 28.6327538495249954
 -14.0929762185498877 37.4283211689214923 28.6327538495249954
 54.9626607087777472 34.9873675805157234 28.6327538495249954
 25.3673817290959498 32.5463407627700150 28.6327538495249954
 36.6417452180303869 71.6020375533019688 28.6327538495249954
