 H  O 
 1.0000000000000000
    84.5579400000000021    0.0000000000000000    0.0000000000000000
   -42.2789706095346958   73.2293399455724767    0.0000000000000000
     0.0000000000000000    0.0000000000000000   46.9039550000000034
 H   O  
 270 358
Cartesian
 -0.0000000135450799  1.6273023922705114 28.1128704123049964
 18.3208725480617254 43.1239527712082307 28.1128704123049964
 15.5023027340417219 43.1239527712082307 28.1128704123049964
 12.6836483620817209 43.1239527712082307 28.1128704123049964
  9.8650785480617262 43.1239527712082307 28.1128704123049964
 -1.4092852659582757 43.1239527712082307 28.1128704123049964
 -15.5023034519382783 43.1239527712082307 28.1128704123049964
 56.3719032894093317 40.6829991828024689 28.1128704123049964
 53.5533334753893371 40.6829991828024689 28.1128704123049964
 47.9161092894093343 40.6829991828024689 28.1128704123049964
 31.0045212894093325 40.6829991828024689 28.1128704123049964
 14.0929332894093395 40.6829991828024689 28.1128704123049964
 11.2743634753893449 40.6829991828024689 28.1128704123049964
  8.4557936613693432 40.6829991828024689 28.1128704123049964
  2.8185694753893440 40.6829991828024689 28.1128704123049964
 -5.6372245246106605 40.6829991828024689 28.1128704123049964
 -19.7302427105906588 40.6829991828024689 28.1128704123049964
 -22.5488125246106605 40.6829991828024689 28.1128704123049964
 60.5998848676675763 38.2419723650567462 28.1128704123049964
 57.7812304957075682 38.2419723650567462 28.1128704123049964
 35.2324605480617166 43.1239527712082307 28.1128704123049964
 40.8696424957075664 38.2419723650567462 28.1128704123049964
 52.1440485480617184 43.1239527712082307 28.1128704123049964
  2.8185694347540982 45.5649063596139996 28.1128704123049964
 -28.1859945128917460 50.4468867657654769 28.1128704123049964
 49.3254364144358703 48.0059331773597151 28.1128704123049964
 43.6882122284558676 48.0059331773597151 28.1128704123049964
 32.4138484144358685 48.0059331773597151 28.1128704123049964
  9.8650362284558710 48.0059331773597151 28.1128704123049964
 -1.4093275855641247 48.0059331773597151 28.1128704123049964
 -4.2278973995841262 48.0059331773597151 28.1128704123049964
 -9.8651215855641290 48.0059331773597151 28.1128704123049964
 -15.5023457715441282 48.0059331773597151 28.1128704123049964
 -21.1394853995841281 48.0059331773597151 28.1128704123049964
 56.3719878067141025 45.5649063596139996 28.1128704123049964
 53.5533334347540944 45.5649063596139996 28.1128704123049964
 45.0975394347540970 45.5649063596139996 28.1128704123049964
 28.1859514347540951 45.5649063596139996 28.1128704123049964
 19.7301574347541049 45.5649063596139996 28.1128704123049964
 14.0930178067140996 45.5649063596139996 28.1128704123049964
 11.2743634347540986 45.5649063596139996 28.1128704123049964
  8.4557936207341040 45.5649063596139996 28.1128704123049964
  5.6372238067141032 45.5649063596139996 28.1128704123049964
 -25.3673823792659014 45.5649063596139996 28.1128704123049964
 -25.3674246988717442 50.4468867657654769 28.1128704123049964
 22.5487696090151921 35.8010187766509844 28.1128704123049964
 -0.0000425769648080 35.8010187766509844 28.1128704123049964
 23.9580968559486607 28.4780847820937346 28.1128704123049964
 18.3208726699686650 28.4780847820937346 28.1128704123049964
 67.6463517832762875 26.0371311936879657 28.1128704123049964
 59.1905577832762830 26.0371311936879657 28.1128704123049964
 33.8231757832762838 26.0371311936879657 28.1128704123049964
 31.0045214113162864 26.0371311936879657 28.1128704123049964
 16.9115877832762855 26.0371311936879657 28.1128704123049964
 14.0929334113162810 26.0371311936879657 28.1128704123049964
 -0.0000002167237204 26.0371311936879657 28.1128704123049964
 -8.4557942167237172 26.0371311936879657 28.1128704123049964
 69.0556789895745169 23.5961043759422537 28.1128704123049964
 66.2370246176145088 23.5961043759422537 28.1128704123049964
 60.5998849895745124 23.5961043759422537 28.1128704123049964
 46.5068668035945052 23.5961043759422537 28.1128704123049964
 43.6882969895745106 23.5961043759422537 28.1128704123049964
 40.8696426176145025 23.5961043759422537 28.1128704123049964
 35.2325029895745132 23.5961043759422537 28.1128704123049964
 15.5022606176145086 23.5961043759422537 28.1128704123049964
 -4.2278971964054897 23.5961043759422537 28.1128704123049964
 32.4138908559486651 28.4780847820937346 28.1128704123049964
 14.0929756090151947 35.8010187766509844 28.1128704123049964
 35.2324606699686598 28.4780847820937346 28.1128704123049964
 54.9626184839886562 28.4780847820937346 28.1128704123049964
 -11.2744063909848098 35.8010187766509844 28.1128704123049964
 -19.7302003909848089 35.8010187766509844 28.1128704123049964
 54.9626607223228163 33.3600651882452155 28.1128704123049964
 46.5068667223228047 33.3600651882452155 28.1128704123049964
 38.0510727223228145 33.3600651882452155 28.1128704123049964
 32.4138485363428117 33.3600651882452155 28.1128704123049964
 26.7766243503628161 33.3600651882452155 28.1128704123049964
 12.6836907223228135 33.3600651882452155 28.1128704123049964
  4.2278967223228134 33.3600651882452155 28.1128704123049964
 -1.4093274636571897 33.3600651882452155 28.1128704123049964
 -4.2278972776771910 33.3600651882452155 28.1128704123049964
 62.0091275566610349 30.9190383704995000 28.1128704123049964
 39.4603999286210438 30.9190383704995000 28.1128704123049964
 22.5488119286210420 30.9190383704995000 28.1128704123049964
 19.7301575566610410 30.9190383704995000 28.1128704123049964
 16.9115877426410464 30.9190383704995000 28.1128704123049964
 14.0930179286210446 30.9190383704995000 28.1128704123049964
 -14.0930184433389574 30.9190383704995000 28.1128704123049964
 66.2370668559486688 28.4780847820937346 28.1128704123049964
 49.3254788559486528 28.4780847820937346 28.1128704123049964
 -12.6836911964054888 23.5961043759422537 28.1128704123049964
 -5.6371823269117440 50.4468867657654769 28.1128704123049964
 22.5487694871082525 50.4468867657654769 28.1128704123049964
 12.6836904378736932 67.5337083432857384 28.1128704123049964
  9.8651206238536986 67.5337083432857384 28.1128704123049964
  7.0464662518936976 67.5337083432857384 28.1128704123049964
 -12.6836915621263024 67.5337083432857384 28.1128704123049964
 -21.1394855621263069 67.5337083432857384 28.1128704123049964
 -23.9580553761463051 67.5337083432857384 28.1128704123049964
 -32.4138493761463025 67.5337083432857384 28.1128704123049964
 -38.0510735621263052 67.5337083432857384 28.1128704123049964
 14.0929753652013119 65.0927547548799765 28.1128704123049964
  8.4557511792213162 65.0927547548799765 28.1128704123049964
 -0.0000428207786890 65.0927547548799765 28.1128704123049964
 -5.6371824488186855 65.0927547548799765 28.1128704123049964
 35.2324181065489270 62.6518011664742076 28.1128704123049964
 29.5952784785089271 62.6518011664742076 28.1128704123049964
 26.7766241065489261 62.6518011664742076 28.1128704123049964
 12.6836904785089395 62.6518011664742076 28.1128704123049964
  4.2278964785089341 62.6518011664742076 28.1128704123049964
  1.4092421065489333 62.6518011664742076 28.1128704123049964
 -18.3209157074710660 62.6518011664742076 28.1128704123049964
 15.5022602518936878 67.5337083432857384 28.1128704123049964
 -26.7767097074710669 62.6518011664742076 28.1128704123049964
 23.9580542518936852 67.5337083432857384 28.1128704123049964
 -39.4604007684245346 69.9747351610314468 28.1128704123049964
 26.7766663042478434 72.4156887494372228 28.1128704123049964
 15.5023024902278443 72.4156887494372228 28.1128704123049964
 12.6836481182678362 72.4156887494372228 28.1128704123049964
  9.8650783042478416 72.4156887494372228 28.1128704123049964
 -1.4092855097721566 72.4156887494372228 28.1128704123049964
 -7.0465096957521522 72.4156887494372228 28.1128704123049964
 -12.6837338817321594 72.4156887494372228 28.1128704123049964
 -15.5023036957521541 72.4156887494372228 28.1128704123049964
 -18.3208735097721558 72.4156887494372228 28.1128704123049964
 -21.1395278817321568 72.4156887494372228 28.1128704123049964
 -29.5953218817321577 72.4156887494372228 28.1128704123049964
 -32.4138916957521559 72.4156887494372228 28.1128704123049964
 -40.8696856957521533 72.4156887494372228 28.1128704123049964
 36.6417452315754701 69.9747351610314468 28.1128704123049964
 11.2743632315754621 69.9747351610314468 28.1128704123049964
  5.6371390455954664 69.9747351610314468 28.1128704123049964
  2.8185692315754580 69.9747351610314468 28.1128704123049964
 -14.0930187684245301 69.9747351610314468 28.1128704123049964
 -36.6418309544045329 69.9747351610314468 28.1128704123049964
 29.5952784378736951 67.5337083432857384 28.1128704123049964
  8.4557513011282524 50.4468867657654769 28.1128704123049964
 -35.2325037074710679 62.6518011664742076 28.1128704123049964
 39.4603996848071645 60.2107743487284921 28.1128704123049964
 11.2743633534824053 55.3288671719169614 28.1128704123049964
 -2.8186548324975988 55.3288671719169614 28.1128704123049964
 -5.6372246465175939 55.3288671719169614 28.1128704123049964
 -8.4557944605375948 55.3288671719169614 28.1128704123049964
 -11.2744488324975958 55.3288671719169614 28.1128704123049964
 -14.0930186465175975 55.3288671719169614 28.1128704123049964
 -25.3673824605375984 55.3288671719169614 28.1128704123049964
 -31.0046066465175976 55.3288671719169614 28.1128704123049964
 40.8696423738006303 52.8878403541712458 28.1128704123049964
 32.4138483738006258 52.8878403541712458 28.1128704123049964
 21.1394845597806302 52.8878403541712458 28.1128704123049964
 15.5022603738006346 52.8878403541712458 28.1128704123049964
 -7.0464672542393672 52.8878403541712458 28.1128704123049964
 -12.6836914402193699 52.8878403541712458 28.1128704123049964
 -21.1394854402193673 52.8878403541712458 28.1128704123049964
 50.7347213011282463 50.4468867657654769 28.1128704123049964
 47.9161514871082517 50.4468867657654769 28.1128704123049964
 33.8231333011282445 50.4468867657654769 28.1128704123049964
 31.0045634871082498 50.4468867657654769 28.1128704123049964
 14.0929331675024070 55.3288671719169614 28.1128704123049964
 42.2789694988271592 60.2107743487284921 28.1128704123049964
 16.9115875394624062 55.3288671719169614 28.1128704123049964
 22.5487271675023955 55.3288671719169614 28.1128704123049964
 36.6417453128471564 60.2107743487284921 28.1128704123049964
 31.0046056848071565 60.2107743487284921 28.1128704123049964
 25.3673814988271609 60.2107743487284921 28.1128704123049964
 22.5488116848071662 60.2107743487284921 28.1128704123049964
 11.2743633128471661 60.2107743487284921 28.1128704123049964
  5.6372236848071626 60.2107743487284921 28.1128704123049964
 -0.0000005011728327 60.2107743487284921 28.1128704123049964
 -2.8185703151928343 60.2107743487284921 28.1128704123049964
 -8.4557945011728339 60.2107743487284921 28.1128704123049964
 -16.9115885011728366 60.2107743487284921 28.1128704123049964
 -19.7301583151928384 60.2107743487284921 28.1128704123049964
 32.4138906121347787 57.7698207603227232 28.1128704123049964
 23.9580966121347885 57.7698207603227232 28.1128704123049964
 -1.4092853878652121 57.7698207603227232 28.1128704123049964
 -23.9580975738452153 57.7698207603227232 28.1128704123049964
 -26.7766673878652135 57.7698207603227232 28.1128704123049964
 45.0975393534824036 55.3288671719169614 28.1128704123049964
 36.6417453534824062 55.3288671719169614 28.1128704123049964
 28.1859513534823982 55.3288671719169614 28.1128704123049964
 19.7301573534824009 55.3288671719169614 28.1128704123049964
 70.4649639169021356 21.1551507875364884 28.1128704123049964
  9.8651208676675761 38.2419723650567462 28.1128704123049964
 40.8696844902278471 72.4156887494372228 28.1128704123049964
 35.2324607918756030 13.8322167929792403 28.1128704123049964
 78.9207580388090690  6.5092827984219914 28.1128704123049964
 43.6882547918756003 13.8322167929792403 28.1128704123049964
 49.3254789778556031 13.8322167929792403 28.1128704123049964
 66.2370669778556049 13.8322167929792403 28.1128704123049964
 62.0091700388090601  6.5092827984219914 28.1128704123049964
 -2.8185699494720202 16.2731703813850075 28.1128704123049964
 11.2743636785679815 16.2731703813850075 28.1128704123049964
 33.8231336668490670  6.5092827984219914 28.1128704123049964
 31.0045638528290759  6.5092827984219914 28.1128704123049964
 31.0046060505279790 16.2731703813850075 28.1128704123049964
 33.8231758645479843 16.2731703813850075 28.1128704123049964
 25.3673396668490696  6.5092827984219914 28.1128704123049964
 16.9115456668490722  6.5092827984219914 28.1128704123049964
 11.2744060388090670  6.5092827984219914 28.1128704123049964
 45.0975396785679763 16.2731703813850075 28.1128704123049964
 50.7347638645479790 16.2731703813850075 28.1128704123049964
 56.3719880505279747 16.2731703813850075 28.1128704123049964
 64.8277820505279863 16.2731703813850075 28.1128704123049964
 69.0555945941766822  4.0683292100162243 28.1128704123049964
 73.2835760505279836 16.2731703813850075 28.1128704123049964
 60.5998005941766849  4.0683292100162243 28.1128704123049964
  9.8650364722697521 18.7141971991307194 28.1128704123049964
 12.6836908442297531 18.7141971991307194 28.1128704123049964
 54.9626609661366956  4.0683292100162243 28.1128704123049964
 52.1440065941766875  4.0683292100162243 28.1128704123049964
 46.5068669661366982  4.0683292100162243 28.1128704123049964
 26.7766244722697486 18.7141971991307194 28.1128704123049964
 40.8696427801566955  4.0683292100162243 28.1128704123049964
 32.4138909778556012 13.8322167929792403 28.1128704123049964
 35.2324184722697566 18.7141971991307194 28.1128704123049964
 29.5952366058956002 13.8322167929792403 28.1128704123049964
  7.0464667395214500  8.9502363868277595 28.1128704123049964
 77.5114731114814504  8.9502363868277595 28.1128704123049964
  8.4557939051832172 11.3912632045734714 28.1128704123049964
 14.0929335332232206 11.3912632045734714 28.1128704123049964
 66.2370247395214449  8.9502363868277595 28.1128704123049964
 63.4184549255014502  8.9502363868277595 28.1128704123049964
 52.1440911114814512  8.9502363868277595 28.1128704123049964
 28.1859517192032243 11.3912632045734714 28.1128704123049964
 33.8231759051832199 11.3912632045734714 28.1128704123049964
 45.0975397192032190 11.3912632045734714 28.1128704123049964
 50.7347639051832218 11.3912632045734714 28.1128704123049964
 40.8696427395214528  8.9502363868277595 28.1128704123049964
 53.5533337192032164 11.3912632045734714 28.1128704123049964
 56.3719035332232110 11.3912632045734714 28.1128704123049964
 59.1905579051832120 11.3912632045734714 28.1128704123049964
 29.5952789255014537  8.9502363868277595 28.1128704123049964
 73.2834915332232129 11.3912632045734714 28.1128704123049964
 -7.0465092081243990 13.8322167929792403 28.1128704123049964
 -4.2279393941043990 13.8322167929792403 28.1128704123049964
 -1.4092850221444004 13.8322167929792403 28.1128704123049964
 21.1394849255014528  8.9502363868277595 28.1128704123049964
  7.0465089778555976 13.8322167929792403 28.1128704123049964
 12.6836909255014501  8.9502363868277595 28.1128704123049964
  9.8650787918756002 13.8322167929792403 28.1128704123049964
 12.6836486058956019 13.8322167929792403 28.1128704123049964
 15.5023029778556030 13.8322167929792403 28.1128704123049964
  9.8651211114814483  8.9502363868277595 28.1128704123049964
 21.1394426058955993 13.8322167929792403 28.1128704123049964
 23.9580969778556039 13.8322167929792403 28.1128704123049964
 26.7766667918756056 13.8322167929792403 28.1128704123049964
  4.2278969255014500  8.9502363868277595 28.1128704123049964
 38.0510728442297577 18.7141971991307194 28.1128704123049964
  5.6371818528290705  6.5092827984219914 28.1128704123049964
 47.9161941724349276  1.6273023922705114 28.1128704123049964
 14.0929757309221344 21.1551507875364884 28.1128704123049964
 11.2744059169021327 21.1551507875364884 28.1128704123049964
 45.0975819169021293 21.1551507875364884 28.1128704123049964
 31.0046061724349222  1.6273023922705114 28.1128704123049964
 19.7301578004749203  1.6273023922705114 28.1128704123049964
 42.2789275449421211 21.1551507875364884 28.1128704123049964
 39.4603577309221265 21.1551507875364884 28.1128704123049964
  8.4557515449421317 21.1551507875364884 28.1128704123049964
 11.2743638004749194  1.6273023922705114 28.1128704123049964
 67.6463519864549170  1.6273023922705114 28.1128704123049964
 36.6417879169021319 21.1551507875364884 28.1128704123049964
 28.1859518004749177  1.6273023922705114 28.1128704123049964
 38.0510729661366938  4.0683292100162243 28.1128704123049964
 62.0091278004749142  1.6273023922705114 28.1128704123049964
 19.7301999169021336 21.1551507875364884 28.1128704123049964
  5.6371817309221299 21.1551507875364884 28.1128704123049964
 76.1021459864549144  1.6273023922705114 28.1128704123049964
  5.6372241724349186  1.6273023922705114 28.1128704123049964
 45.0975398004749266  1.6273023922705114 28.1128704123049964
 71.8742912721974676  0.8136511961352557 28.6327538495249954
 32.4139329181955560 54.5151427464417537 28.6327538495249954
 38.0510724243286234 69.1610107355562462 28.6327538495249954
 -39.4604007819696179 71.6020375533019688 28.6327538495249954
 23.9581389181955480 54.5151427464417537 28.6327538495249954
 40.8697267962886173 69.1610107355562462 28.6327538495249954
 35.2325026103086287 69.1610107355562462 28.6327538495249954
 -33.8231765959896151 71.6020375533019688 28.6327538495249954
 49.3254790862174488  0.8136511961352557 28.6327538495249954
 26.7767087322155568 54.5151427464417537 28.6327538495249954
  5.6371813516562215 66.7200571471504844 28.6327538495249954
 40.8697269181955534 54.5151427464417537 28.6327538495249954
 19.7301573399373318 56.9561695641874692 28.6327538495249954
 16.9115875259173158 56.9561695641874692 28.6327538495249954
 14.0930177118973283 56.9561695641874692 28.6327538495249954
  8.4557935259173256 56.9561695641874692 28.6327538495249954
  5.6372237118973310 56.9561695641874692 28.6327538495249954
  2.8185693399373224 56.9561695641874692 28.6327538495249954
 71.8742489525916284  5.6956316022867357 28.6327538495249954
 38.0510725462355595 54.5151427464417537 28.6327538495249954
 -5.6372246600626781 56.9561695641874692 28.6327538495249954
 21.1394844243286215 69.1610107355562462 28.6327538495249954
 -16.9115884740826736 56.9561695641874692 28.6327538495249954
 -19.7301582881026789 56.9561695641874692 28.6327538495249954
 74.6928187666116230  5.6956316022867357 28.6327538495249954
 23.9581387962886225 69.1610107355562462 28.6327538495249954
 -28.1859524100096195 71.6020375533019688 28.6327538495249954
  0.0000422112439907  8.1365851906925037 28.6327538495249954
 -11.2743642881026744 56.9561695641874692 28.6327538495249954
 49.3255209181955507 54.5151427464417537 28.6327538495249954
 43.6882549002374461  0.8136511961352557 28.6327538495249954
 16.9116302112439918  8.1365851906925037 28.6327538495249954
 47.9161514735631755 52.0741891580359919 28.6327538495249954
 45.0975816595431809 52.0741891580359919 28.6327538495249954
 11.2743632180303894 71.6020375533019688 28.6327538495249954
 39.4603574735631781 52.0741891580359919 28.6327538495249954
 36.6417876595431693 52.0741891580359919 28.6327538495249954
 56.3719458392839954  8.1365851906925037 28.6327538495249954
 15.5023030862174611  0.8136511961352557 28.6327538495249954
 50.7348058455231694 52.0741891580359919 28.6327538495249954
 11.2744056595431719 52.0741891580359919 28.6327538495249954
 19.7301572180303850 71.6020375533019688 28.6327538495249954
  2.8186116595431669 52.0741891580359919 28.6327538495249954
  0.0000418455231652 52.0741891580359919 28.6327538495249954
 -2.8186125264368322 52.0741891580359919 28.6327538495249954
 73.2835338392839901  8.1365851906925037 28.6327538495249954
 -8.4557521544768282 52.0741891580359919 28.6327538495249954
 22.5488115899903860 71.6020375533019688 28.6327538495249954
  5.6371814735631682 52.0741891580359919 28.6327538495249954
 14.0929758392839890  8.1365851906925037 28.6327538495249954
 53.5533756595431782 52.0741891580359919 28.6327538495249954
  8.4557934040103735 71.6020375533019688 28.6327538495249954
  9.8651207322155532 54.5151427464417537 28.6327538495249954
  7.0465509181955595 54.5151427464417537 28.6327538495249954
 66.2370247666116256  5.6956316022867357 28.6327538495249954
 35.2324609002374558  0.8136511961352557 28.6327538495249954
  1.4093267322155492 54.5151427464417537 28.6327538495249954
 25.3674242112439856  8.1365851906925037 28.6327538495249954
 28.1859940252639873  8.1365851906925037 28.6327538495249954
 50.7348062112439848  8.1365851906925037 28.6327538495249954
 36.6417880252639918  8.1365851906925037 28.6327538495249954
 -5.6372247819696195 71.6020375533019688 28.6327538495249954
 -2.8185704100096114 71.6020375533019688 28.6327538495249954
 -18.3208310818044460 54.5151427464417537 28.6327538495249954
 -21.1394854537644470 54.5151427464417537 28.6327538495249954
 42.2790122112439946  8.1365851906925037 28.6327538495249954
 -26.7766250818044469 54.5151427464417537 28.6327538495249954
 -29.5952794537644479 54.5151427464417537 28.6327538495249954
 -11.2743644100096230 71.6020375533019688 28.6327538495249954
 18.3209146103086198 69.1610107355562462 28.6327538495249954
 -32.4138915873902960 59.3971231525932382 28.6327538495249954
  2.8186115376362340 66.7200571471504844 28.6327538495249954
  9.8651206509438563 64.2791035587447084 28.6327538495249954
 31.0045633516562411 66.7200571471504844 28.6327538495249954
  4.2278964649638544 64.2791035587447084 28.6327538495249954
  1.4093266509438596 64.2791035587447084 28.6327538495249954
 62.0092123448698445  3.2546047845410229 28.6327538495249954
 36.6417875376362474 66.7200571471504844 28.6327538495249954
 39.4603573516562420 66.7200571471504844 28.6327538495249954
 22.5488121588898416  3.2546047845410229 28.6327538495249954
 56.3719881588898417  3.2546047845410229 28.6327538495249954
 -7.0464673490561447 64.2791035587447084 28.6327538495249954
 -15.5022613490561429 64.2791035587447084 28.6327538495249954
 -18.3209157210161457 64.2791035587447084 28.6327538495249954
 -21.1394855350361439 64.2791035587447084 28.6327538495249954
 14.0930181588898407  3.2546047845410229 28.6327538495249954
 -23.9580553490561456 64.2791035587447084 28.6327538495249954
 -29.5952795350361448 64.2791035587447084 28.6327538495249954
 47.9161936712620928 61.8380767409990000 28.6327538495249954
 -29.5952795756713840 69.1610107355562462 28.6327538495249954
 -12.6836915350361448 64.2791035587447084 28.6327538495249954
 25.3673819729098362  3.2546047845410229 28.6327538495249954
 18.3209146509438554 64.2791035587447084 28.6327538495249954
 21.1394844649638500 64.2791035587447084 28.6327538495249954
  0.0000417236162395 66.7200571471504844 28.6327538495249954
 -8.4557522763837714 66.7200571471504844 28.6327538495249954
 36.6418303448698452  3.2546047845410229 28.6327538495249954
 -19.7302006483437680 66.7200571471504844 28.6327538495249954
 33.8231759729098371  3.2546047845410229 28.6327538495249954
 31.0046061588898354  3.2546047845410229 28.6327538495249954
 -22.5487704623637697 66.7200571471504844 28.6327538495249954
 50.7347639729098461  3.2546047845410229 28.6327538495249954
 -28.1859946483437653 66.7200571471504844 28.6327538495249954
 19.7301995376362349 66.7200571471504844 28.6327538495249954
 -36.6417886483437698 66.7200571471504844 28.6327538495249954
 22.5487693516562366 66.7200571471504844 28.6327538495249954
 46.5068664649638706 64.2791035587447084 28.6327538495249954
 43.6882966509438617 64.2791035587447084 28.6327538495249954
 38.0510724649638732 64.2791035587447084 28.6327538495249954
 28.1860363448698337  3.2546047845410229 28.6327538495249954
 35.2325026509438644 64.2791035587447084 28.6327538495249954
 29.5952784649638616 64.2791035587447084 28.6327538495249954
 23.9580542789838589 64.2791035587447084 28.6327538495249954
 73.2835761588898578  3.2546047845410229 28.6327538495249954
 47.9161937118973214 56.9561695641874692 28.6327538495249954
 -26.7766252037113830 69.1610107355562462 28.6327538495249954
 78.9208003448698463  3.2546047845410229 28.6327538495249954
 26.7766664126097069 59.3971231525932382 28.6327538495249954
 26.7767091385716043  5.6956316022867357 28.6327538495249954
 -9.8650372037113900 69.1610107355562462 28.6327538495249954
 -7.0464673896913883 69.1610107355562462 28.6327538495249954
 29.5952789525916060  5.6956316022867357 28.6327538495249954
 21.1395267845696964 59.3971231525932382 28.6327538495249954
 15.5023025985896936 59.3971231525932382 28.6327538495249954
  2.8186543448698407  3.2546047845410229 28.6327538495249954
 29.5953207845697079 59.3971231525932382 28.6327538495249954
 80.3300852721974650  0.8136511961352557 28.6327538495249954
 46.5068669525916008  5.6956316022867357 28.6327538495249954
 -7.0465095873903012 59.3971231525932382 28.6327538495249954
 49.3254367666116167  5.6956316022867357 28.6327538495249954
 -9.8650794014102949 59.3971231525932382 28.6327538495249954
 57.7812307666116141  5.6956316022867357 28.6327538495249954
 60.5998851385716151  5.6956316022867357 28.6327538495249954
 -29.5952372154302985 59.3971231525932382 28.6327538495249954
 12.6836904243286224 69.1610107355562462 28.6327538495249954
 43.6882971385716132  5.6956316022867357 28.6327538495249954
 11.2744483448698372  3.2546047845410229 28.6327538495249954
 35.2324604126097114 59.3971231525932382 28.6327538495249954
 23.9580547666116068  5.6956316022867357 28.6327538495249954
 16.9115874852820909 61.8380767409990000 28.6327538495249954
 81.7393701588898551  3.2546047845410229 28.6327538495249954
  5.6372236712620847 61.8380767409990000 28.6327538495249954
 -1.4093272333883895  5.6956316022867357 28.6327538495249954
  1.4093271385716108  5.6956316022867357 28.6327538495249954
 -0.0000005147179177 61.8380767409990000 28.6327538495249954
 -5.6371401427579215 61.8380767409990000 28.6327538495249954
 -11.2743643287379136 61.8380767409990000 28.6327538495249954
 -14.0929341427579153 61.8380767409990000 28.6327538495249954
 -16.9115461544768308 52.0741891580359919 28.6327538495249954
 -22.5487281427579163 61.8380767409990000 28.6327538495249954
  7.0464667666116103  5.6956316022867357 28.6327538495249954
 -33.8231765147179146 61.8380767409990000 28.6327538495249954
 -23.9580553896913813 69.1610107355562462 28.6327538495249954
 49.3254785985897115 59.3971231525932382 28.6327538495249954
 46.5069087845697027 59.3971231525932382 28.6327538495249954
 43.6882544126097088 59.3971231525932382 28.6327538495249954
 -18.3208312037113821 69.1610107355562462 28.6327538495249954
 21.1394849525916122  5.6956316022867357 28.6327538495249954
 76.1021459729098524  3.2546047845410229 28.6327538495249954
 -1.4092427160836287 10.5775387790982709 28.6327538495249954
 66.2370246447046753 20.3414995914012344 28.6327538495249954
 54.9626605868708040 49.6332355696302230 28.6327538495249954
 60.5998426564235899 30.1053871743642461 28.6327538495249954
 57.7812728424035953 30.1053871743642461 28.6327538495249954
 54.9627030283835865 30.1053871743642461 28.6327538495249954
 52.1440486564235925 30.1053871743642461 28.6327538495249954
 16.9115878510028992 17.9004727736555189 28.6327538495249954
 35.2324606564235907 30.1053871743642461 28.6327538495249954
 29.5953210283835837 30.1053871743642461 28.6327538495249954
 26.7766666564235685 30.1053871743642461 28.6327538495249954
 22.5488120369828984 17.9004727736555189 28.6327538495249954
 63.4184970283835838 30.1053871743642461 28.6327538495249954
 25.3673818510029001 17.9004727736555189 28.6327538495249954
  9.8650786564235791 30.1053871743642461 28.6327538495249954
  7.0465088424035836 30.1053871743642461 28.6327538495249954
 -12.6836489716164174 30.1053871743642461 28.6327538495249954
 64.8277819557112025 27.6644335859584807 28.6327538495249954
 47.9161940369829011 17.9004727736555189 28.6327538495249954
 50.7347637697312024 27.6644335859584807 28.6327538495249954
 53.5534182229629039 17.9004727736555189 28.6327538495249954
 45.0975395837512067 27.6644335859584807 28.6327538495249954
 42.2789697697312050 27.6644335859584807 28.6327538495249954
 28.1860362229629082 17.9004727736555189 28.6327538495249954
 -16.9115882709040370 32.5463407627700150 28.6327538495249954
 -14.0929338989440378 32.5463407627700150 28.6327538495249954
 -11.2743640849240396 32.5463407627700150 28.6327538495249954
 23.9580545227977240 34.9873675805157234 28.6327538495249954
 40.8696849643105153 15.4595191852497500 28.6327538495249954
 21.1394847087777364 34.9873675805157234 28.6327538495249954
 18.3209148947577418 34.9873675805157234 28.6327538495249954
  9.8651208947577302 34.9873675805157234 28.6327538495249954
 -9.8651214772022673 34.9873675805157234 28.6327538495249954
 54.9627031502905297 15.4595191852497500 28.6327538495249954
 -12.6836912912222672 34.9873675805157234 28.6327538495249954
 59.1905577290959641 32.5463407627700150 28.6327538495249954
 56.3719879150759695 32.5463407627700150 28.6327538495249954
 57.7812729643105243 15.4595191852497500 28.6327538495249954
 60.5998427783305331 15.4595191852497500 28.6327538495249954
 42.2789697290959623 32.5463407627700150 28.6327538495249954
 71.8742911502905173 15.4595191852497500 28.6327538495249954
 19.7302421010559677 32.5463407627700150 28.6327538495249954
 -5.6371397770370981 17.9004727736555189 28.6327538495249954
  8.4557937290959586 32.5463407627700150 28.6327538495249954
 -0.0000001489970986 17.9004727736555189 28.6327538495249954
 -0.0000002709040391 32.5463407627700150 28.6327538495249954
  5.6372240369829028 17.9004727736555189 28.6327538495249954
 -8.4557942709040379 32.5463407627700150 28.6327538495249954
 39.4603999557111962 27.6644335859584807 28.6327538495249954
 56.3719880369828985 17.9004727736555189 28.6327538495249954
 59.1905578510029073 17.9004727736555189 28.6327538495249954
 28.1859515837511907 27.6644335859584807 28.6327538495249954
 -7.0464670239705693 25.2234067682127652 28.6327538495249954
 18.3209150166646637 20.3414995914012344 28.6327538495249954
 26.7767090166646753 20.3414995914012344 28.6327538495249954
 64.8277397173770566 22.7824531798069998 28.6327538495249954
 29.5952788306846699 20.3414995914012344 28.6327538495249954
 56.3719457173770593 22.7824531798069998 28.6327538495249954
 50.7348060893370558 22.7824531798069998 28.6327538495249954
 32.4138486447046574 20.3414995914012344 28.6327538495249954
 31.0045637173770388 22.7824531798069998 28.6327538495249954
 28.1859939033570512 22.7824531798069998 28.6327538495249954
 25.3674240893370566 22.7824531798069998 28.6327538495249954
 22.5487697173770485 22.7824531798069998 28.6327538495249954
 19.7301999033570468 22.7824531798069998 28.6327538495249954
 16.9116300893370450 22.7824531798069998 28.6327538495249954
  0.0000420893370479 22.7824531798069998 28.6327538495249954
 -2.8186122826229494 22.7824531798069998 28.6327538495249954
 46.5068668306846718 20.3414995914012344 28.6327538495249954
 -5.6371820966429516 22.7824531798069998 28.6327538495249954
 -8.4557519106629488 22.7824531798069998 28.6327538495249954
 52.1440910166646745 20.3414995914012344 28.6327538495249954
 57.7812306447046780 20.3414995914012344 28.6327538495249954
 -4.2278972099505676 25.2234067682127652 28.6327538495249954
 35.2325028947577295 34.9873675805157234 28.6327538495249954
 15.5022606447046662 20.3414995914012344 28.6327538495249954
  4.2278967900494315 25.2234067682127652 28.6327538495249954
 70.4650062229628986 17.9004727736555189 28.6327538495249954
 19.7301575837512004 27.6644335859584807 28.6327538495249954
 73.2835760369829075 17.9004727736555189 28.6327538495249954
 11.2743635837511977 27.6644335859584807 28.6327538495249954
  5.6372239557112023 27.6644335859584807 28.6327538495249954
  2.8185695837512008 27.6644335859584807 28.6327538495249954
 -0.0000002302687971 27.6644335859584807 28.6327538495249954
 -2.8185700442888009 27.6644335859584807 28.6327538495249954
 -14.0930184162487979 27.6644335859584807 28.6327538495249954
 -7.0464669833353293 20.3414995914012344 28.6327538495249954
 63.4184547900494380 25.2234067682127652 28.6327538495249954
 -4.2278971693153311 20.3414995914012344 28.6327538495249954
 54.9626607900494406 25.2234067682127652 28.6327538495249954
 49.3255211620094371 25.2234067682127652 28.6327538495249954
 43.6882969760294344 25.2234067682127652 28.6327538495249954
 40.8697271620094256 25.2234067682127652 28.6327538495249954
 38.0510727900494388 25.2234067682127652 28.6327538495249954
 29.5952787900494201 25.2234067682127652 28.6327538495249954
 18.3209149760294281 25.2234067682127652 28.6327538495249954
  9.8651209760294343 25.2234067682127652 28.6327538495249954
  7.0465511620094325 25.2234067682127652 28.6327538495249954
  1.4093269760294336 25.2234067682127652 28.6327538495249954
 -22.5487703404568300 52.0741891580359919 28.6327538495249954
 38.0510727087777383 34.9873675805157234 28.6327538495249954
 43.6882968947577410 34.9873675805157234 28.6327538495249954
 -5.6371400208509774 47.1922087518845075 28.6327538495249954
 -8.4557943928109793 47.1922087518845075 28.6327538495249954
 69.0556790979363768 10.5775387790982709 28.6327538495249954
 -22.5487280208509766 47.1922087518845075 28.6327538495249954
 57.7812727204966521 44.7512551634787386 28.6327538495249954
 49.3254787204966547 44.7512551634787386 28.6327538495249954
 -0.0000001083618602 13.0185655968439828 28.6327538495249954
 40.8696847204966431 44.7512551634787386 28.6327538495249954
 32.4138907204966458 44.7512551634787386 28.6327538495249954
 11.2744479791490271 47.1922087518845075 28.6327538495249954
 29.5953209064766369 44.7512551634787386 28.6327538495249954
  9.8650785345166412 44.7512551634787386 28.6327538495249954
 -7.0465094654833562 44.7512551634787386 28.6327538495249954
 -9.8650792795033553 44.7512551634787386 28.6327538495249954
 -12.6836490935233588 44.7512551634787386 28.6327538495249954
 -18.3208732795033562 44.7512551634787386 28.6327538495249954
 -23.9580974654833554 44.7512551634787386 28.6327538495249954
 59.1905576478242708 42.3103015750729767 28.6327538495249954
 56.3719878338042619 42.3103015750729767 28.6327538495249954
 42.2789696478242618 42.3103015750729767 28.6327538495249954
 23.9580967204966342 44.7512551634787386 28.6327538495249954
 14.0930177931690217 47.1922087518845075 28.6327538495249954
 16.9115876071890092 47.1922087518845075 28.6327538495249954
 33.8231756071890288 47.1922087518845075 28.6327538495249954
  4.2278969119563712 10.5775387790982709 28.6327538495249954
 43.6882967728507978 49.6332355696302230 28.6327538495249954
 40.8696424008908039 49.6332355696302230 28.6327538495249954
 38.0510725868707951 49.6332355696302230 28.6327538495249954
 35.2325027728508005 49.6332355696302230 28.6327538495249954
  9.8651210979363722 10.5775387790982709 28.6327538495249954
 29.5952785868707942 49.6332355696302230 28.6327538495249954
 26.7767087728507853 49.6332355696302230 28.6327538495249954
 18.3209150979363713 10.5775387790982709 28.6327538495249954
 18.3209147728507951 49.6332355696302230 28.6327538495249954
 12.6836905868707941 49.6332355696302230 28.6327538495249954
  9.8651207728507995 49.6332355696302230 28.6327538495249954
 23.9581392839163634 10.5775387790982709 28.6327538495249954
  7.0464664008907913 49.6332355696302230 28.6327538495249954
  1.4093267728507877 49.6332355696302230 28.6327538495249954
 -9.8651215991092069 49.6332355696302230 28.6327538495249954
 -21.1394854131292078 49.6332355696302230 28.6327538495249954
 40.8697272839163759 10.5775387790982709 28.6327538495249954
 60.5998850166646719 20.3414995914012344 28.6327538495249954
 46.5068669119563793 10.5775387790982709 28.6327538495249954
 39.4603997931690245 47.1922087518845075 28.6327538495249954
 36.6417454618442662 42.3103015750729767 28.6327538495249954
 33.8231756478242644 42.3103015750729767 28.6327538495249954
 25.3673816478242529 42.3103015750729767 28.6327538495249954
 36.6417457056581313 13.0185655968439828 28.6327538495249954
 18.3208727783305179 15.4595191852497500 28.6327538495249954
 21.1395271502905153 15.4595191852497500 28.6327538495249954
 53.5533757814501215 37.4283211689214923 28.6327538495249954
 45.0975817814501099 37.4283211689214923 28.6327538495249954
 42.2790119674301152 37.4283211689214923 28.6327538495249954
 38.0511151502905278 15.4595191852497500 28.6327538495249954
 39.4603575954701142 37.4283211689214923 28.6327538495249954
 31.0045635954701204 37.4283211689214923 28.6327538495249954
 19.7301997814501142 37.4283211689214923 28.6327538495249954
 16.9116299674301196 37.4283211689214923 28.6327538495249954
 28.1859512180303895 71.6020375533019688 28.6327538495249954
  8.4558359674301080 37.4283211689214923 28.6327538495249954
  5.6371815954701097 37.4283211689214923 28.6327538495249954
  2.8186117814501150 37.4283211689214923 28.6327538495249954
  0.0000419674301133 37.4283211689214923 28.6327538495249954
 -2.8186124045298877 37.4283211689214923 28.6327538495249954
 -8.4557520325698885 37.4283211689214923 28.6327538495249954
 -14.0929762185498877 37.4283211689214923 28.6327538495249954
 60.5998848947577358 34.9873675805157234 28.6327538495249954
 49.3254365227977445 34.9873675805157234 28.6327538495249954
 46.5068667087777357 34.9873675805157234 28.6327538495249954
 -15.5022611458775117 39.8692747573272612 28.6327538495249954
 40.8696425227977400 34.9873675805157234 28.6327538495249954
 -9.8650369598975125 39.8692747573272612 28.6327538495249954
 -4.2278973318575099 39.8692747573272612 28.6327538495249954
 39.4604000776181465 13.0185655968439828 28.6327538495249954
 47.9161940776181368 13.0185655968439828 28.6327538495249954
 -0.0000003521757358 42.3103015750729767 28.6327538495249954
 -2.8185701661957374 42.3103015750729767 28.6327538495249954
 -11.2743641661957401 42.3103015750729767 28.6327538495249954
 -14.0930185381557376 42.3103015750729767 28.6327538495249954
 62.0091277056581518 13.0185655968439828 28.6327538495249954
 -22.5488125381557367 42.3103015750729767 28.6327538495249954
 67.6463518916381474 13.0185655968439828 28.6327538495249954
 52.1440908541225028 39.8692747573272612 28.6327538495249954
 49.3255210401024939 39.8692747573272612 28.6327538495249954
 76.1021458916381448 13.0185655968439828 28.6327538495249954
 46.5068666681425000 39.8692747573272612 28.6327538495249954
 32.4139330401024850 39.8692747573272612 28.6327538495249954
 29.5952786681424982 39.8692747573272612 28.6327538495249954
 26.7767088541224823 39.8692747573272612 28.6327538495249954
 21.1394846681424795 39.8692747573272612 28.6327538495249954
  1.4092847783305213 15.4595191852497500 28.6327538495249954
  4.2279391502905188 15.4595191852497500 28.6327538495249954
  9.8650787783305205 15.4595191852497500 28.6327538495249954
  4.2278966681424874 39.8692747573272612 28.6327538495249954
 12.6837331502905215 15.4595191852497500 28.6327538495249954
 53.5534179791490246 47.1922087518845075 28.6327538495249954
