 H  O 
 1.0000000000000000
    84.5579400000000021    0.0000000000000000    0.0000000000000000
   -42.2789706095346958   73.2293399455724767    0.0000000000000000
     0.0000000000000000    0.0000000000000000   46.9039550000000034
 H   O  
 189 413
Cartesian
 -0.0000000135450799  1.6273023922705114 28.1128704123049964
 12.6836908035945140 23.5961043759422537 28.1128704123049964
 21.1394422401747804 57.7698207603227232 28.1128704123049964
 38.0510728035945078 23.5961043759422537 28.1128704123049964
 -4.2279397598252162 57.7698207603227232 28.1128704123049964
 -7.0465095738452108 57.7698207603227232 28.1128704123049964
 63.4184548035945070 23.5961043759422537 28.1128704123049964
 -9.8650793878652134 57.7698207603227232 28.1128704123049964
 -21.1395277598252136 57.7698207603227232 28.1128704123049964
 -23.9580975738452153 57.7698207603227232 28.1128704123049964
  5.6371394113162827 26.0371311936879657 28.1128704123049964
 19.7301575972962873 26.0371311936879657 28.1128704123049964
 25.3673817832762829 26.0371311936879657 28.1128704123049964
 36.6417455972962784 26.0371311936879657 28.1128704123049964
 39.4603154113162731 26.0371311936879657 28.1128704123049964
 47.9161094113162704 26.0371311936879657 28.1128704123049964
 33.8231755394623974 55.3288671719169614 28.1128704123049964
 53.5533335972962803 26.0371311936879657 28.1128704123049964
 56.3719034113162749 26.0371311936879657 28.1128704123049964
 -14.0930186465175975 55.3288671719169614 28.1128704123049964
 -1.4092851440513405 28.4780847820937346 28.1128704123049964
 -16.9115884605376010 55.3288671719169614 28.1128704123049964
 -31.0046066465175976 55.3288671719169614 28.1128704123049964
 32.4138908559486651 28.4780847820937346 28.1128704123049964
 52.1440907457606357 52.8878403541712458 28.1128704123049964
 38.0510304839886544 28.4780847820937346 28.1128704123049964
 52.1440486699686616 28.4780847820937346 28.1128704123049964
 38.0510725597806356 52.8878403541712458 28.1128704123049964
 29.5952362401747777 57.7698207603227232 28.1128704123049964
 -8.4557942573589582 30.9190383704995000 28.1128704123049964
  1.4093269895745080 23.5961043759422537 28.1128704123049964
 29.5952363620817174 43.1239527712082307 28.1128704123049964
 19.7301576785679771 16.2731703813850075 28.1128704123049964
 28.1859516785679780 16.2731703813850075 28.1128704123049964
 12.6836904785089395 62.6518011664742076 28.1128704123049964
  4.2278964785089341 62.6518011664742076 28.1128704123049964
 50.7347638645479790 16.2731703813850075 28.1128704123049964
 -1.4093277074710613 62.6518011664742076 28.1128704123049964
 56.3719880505279747 16.2731703813850075 28.1128704123049964
 -9.8651213417502497 18.7141971991307194 28.1128704123049964
  1.4092424722697507 18.7141971991307194 28.1128704123049964
  4.2278968442297478 18.7141971991307194 28.1128704123049964
 15.5022606582497549 18.7141971991307194 28.1128704123049964
 -26.7767097074710669 62.6518011664742076 28.1128704123049964
 -32.4139338934510661 62.6518011664742076 28.1128704123049964
 42.2789694988271592 60.2107743487284921 28.1128704123049964
 38.0510728442297577 18.7141971991307194 28.1128704123049964
 25.3673814988271609 60.2107743487284921 28.1128704123049964
 66.2370246582497515 18.7141971991307194 28.1128704123049964
 16.9115874988271635 60.2107743487284921 28.1128704123049964
 -5.6372246871528393 60.2107743487284921 28.1128704123049964
 16.9115455449421290 21.1551507875364884 28.1128704123049964
 -8.4557945011728339 60.2107743487284921 28.1128704123049964
 28.1859939169021310 21.1551507875364884 28.1128704123049964
 47.9161517309221239 21.1551507875364884 28.1128704123049964
 59.1905155449421230 21.1551507875364884 28.1128704123049964
 -16.9115885011728366 60.2107743487284921 28.1128704123049964
 70.4649639169021356 21.1551507875364884 28.1128704123049964
 -9.8651213823854889 23.5961043759422537 28.1128704123049964
 -4.2278971964054897 23.5961043759422537 28.1128704123049964
 18.3209147457606356 52.8878403541712458 28.1128704123049964
  8.4557937426410454 30.9190383704995000 28.1128704123049964
 16.9115877426410464 30.9190383704995000 28.1128704123049964
 -9.8651215042924267 38.2419723650567462 28.1128704123049964
 18.3208302284558755 48.0059331773597151 28.1128704123049964
 -4.2278973183124275 38.2419723650567462 28.1128704123049964
 12.6836906004158720 48.0059331773597151 28.1128704123049964
  9.8651208676675761 38.2419723650567462 28.1128704123049964
 12.6836906816875779 38.2419723650567462 28.1128704123049964
 -1.4093275855641247 48.0059331773597151 28.1128704123049964
 35.2325028676675771 38.2419723650567462 28.1128704123049964
 -7.0465517715441273 48.0059331773597151 28.1128704123049964
 54.9626606816875736 38.2419723650567462 28.1128704123049964
 -14.0930185246106596 40.6829991828024689 28.1128704123049964
 -23.9581397715441291 48.0059331773597151 28.1128704123049964
 -26.7767095855641273 48.0059331773597151 28.1128704123049964
 -0.0000003386306579 40.6829991828024689 28.1128704123049964
 39.4603998067140935 45.5649063596139996 28.1128704123049964
 19.7301574753893405 40.6829991828024689 28.1128704123049964
 28.1859514347540951 45.5649063596139996 28.1128704123049964
 25.3673816613693432 40.6829991828024689 28.1128704123049964
 33.8231756613693406 40.6829991828024689 28.1128704123049964
 36.6417454753893352 40.6829991828024689 28.1128704123049964
  8.4557936207341040 45.5649063596139996 28.1128704123049964
 -0.0000003792658964 45.5649063596139996 28.1128704123049964
 -11.2743641932859031 45.5649063596139996 28.1128704123049964
 -14.0930185652459006 45.5649063596139996 28.1128704123049964
 -23.9580974519382757 43.1239527712082307 28.1128704123049964
 -25.3673823792659014 45.5649063596139996 28.1128704123049964
 46.5068243620817157 43.1239527712082307 28.1128704123049964
 23.9580964902278346 72.4156887494372228 28.1128704123049964
 -18.3209155042924259 38.2419723650567462 28.1128704123049964
 29.5952786004158739 48.0059331773597151 28.1128704123049964
 50.7347214230351895 35.8010187766509844 28.1128704123049964
 22.5488119286210420 30.9190383704995000 28.1128704123049964
  7.0464663738006301 52.8878403541712458 28.1128704123049964
 28.1859515566610455 30.9190383704995000 28.1128704123049964
 45.0975395566610331 30.9190383704995000 28.1128704123049964
 -15.5022612542393716 52.8878403541712458 28.1128704123049964
 59.1905577426410403 30.9190383704995000 28.1128704123049964
 64.8277819286210502 30.9190383704995000 28.1128704123049964
 -18.3209154636571903 33.3600651882452155 28.1128704123049964
 -15.5023456496371885 33.3600651882452155 28.1128704123049964
 53.5533756730882544 50.4468867657654769 28.1128704123049964
 -1.4093274636571897 33.3600651882452155 28.1128704123049964
 47.9161514871082517 50.4468867657654769 28.1128704123049964
  9.8650363503628089 33.3600651882452155 28.1128704123049964
  2.8185696785679806 16.2731703813850075 28.1128704123049964
 42.2789273011282489 50.4468867657654769 28.1128704123049964
 54.9626607223228163 33.3600651882452155 28.1128704123049964
 63.4184547223228137 33.3600651882452155 28.1128704123049964
 22.5487694871082525 50.4468867657654769 28.1128704123049964
 -16.9116305769648072 35.8010187766509844 28.1128704123049964
  5.6371816090151947 35.8010187766509844 28.1128704123049964
  8.4557514230351885 35.8010187766509844 28.1128704123049964
 11.2744057949951930 35.8010187766509844 28.1128704123049964
  2.8186116730882564 50.4468867657654769 28.1128704123049964
 14.0929756090151947 35.8010187766509844 28.1128704123049964
 19.7301997949951904 35.8010187766509844 28.1128704123049964
 31.0045636090151895 35.8010187766509844 28.1128704123049964
 39.4603576090151904 35.8010187766509844 28.1128704123049964
 -14.0929763269117494 50.4468867657654769 28.1128704123049964
 33.8231333011282445 50.4468867657654769 28.1128704123049964
 40.8696422925289298 62.6518011664742076 28.1128704123049964
 32.4138907340417219 43.1239527712082307 28.1128704123049964
 71.8742066058955942 13.8322167929792403 28.1128704123049964
 -15.5022613761463042 67.5337083432857384 28.1128704123049964
 71.8742489255014476  8.9502363868277595 28.1128704123049964
 66.2370247801566876  4.0683292100162243 28.1128704123049964
 -38.0511158817321586 72.4156887494372228 28.1128704123049964
 -26.7767097481063061 67.5337083432857384 28.1128704123049964
 14.0929335332232206 11.3912632045734714 28.1128704123049964
 -35.2324615097721576 72.4156887494372228 28.1128704123049964
 46.5068669661366982  4.0683292100162243 28.1128704123049964
 62.0091700388090601  6.5092827984219914 28.1128704123049964
 35.2324185941766927  4.0683292100162243 28.1128704123049964
 25.3673819051832226 11.3912632045734714 28.1128704123049964
 29.5952789661366928  4.0683292100162243 28.1128704123049964
 21.1394849661366919  4.0683292100162243 28.1128704123049964
 56.3719035332232110 11.3912632045734714 28.1128704123049964
 42.2789271792213057 65.0927547548799765 28.1128704123049964
  7.0464667801566900  4.0683292100162243 28.1128704123049964
 36.6417875511813165 65.0927547548799765 28.1128704123049964
 66.2370247395214449  8.9502363868277595 28.1128704123049964
 77.5113885941766796  4.0683292100162243 28.1128704123049964
 -12.6836915621263024 67.5337083432857384 28.1128704123049964
 28.1859512315754728 69.9747351610314468 28.1128704123049964
 76.1021036668490609  6.5092827984219914 28.1128704123049964
 -25.3673825824445345 69.9747351610314468 28.1128704123049964
 -16.9115885824445336 69.9747351610314468 28.1128704123049964
 -1.4093272604785494  8.9502363868277595 28.1128704123049964
 42.2789276668490714  6.5092827984219914 28.1128704123049964
  4.2278969255014500  8.9502363868277595 28.1128704123049964
 35.2325026238536978 67.5337083432857384 28.1128704123049964
 28.1859940388090742  6.5092827984219914 28.1128704123049964
 31.0045633652013137 65.0927547548799765 28.1128704123049964
 -8.4557945824445344 69.9747351610314468 28.1128704123049964
 25.3673396668490696  6.5092827984219914 28.1128704123049964
 12.6836904378736932 67.5337083432857384 28.1128704123049964
 16.9115456668490722  6.5092827984219914 28.1128704123049964
 35.2325031114814493  8.9502363868277595 28.1128704123049964
  1.4093266238536943 67.5337083432857384 28.1128704123049964
 19.7301572315754683 69.9747351610314468 28.1128704123049964
 38.0510729255014510  8.9502363868277595 28.1128704123049964
 80.3300429661366877  4.0683292100162243 28.1128704123049964
 12.6836909255014501  8.9502363868277595 28.1128704123049964
 25.3673391792213039 65.0927547548799765 28.1128704123049964
 19.7301577192032234 11.3912632045734714 28.1128704123049964
  1.4092843042478451 72.4156887494372228 28.1128704123049964
 43.6882121065489244 62.6518011664742076 28.1128704123049964
 -36.6417886347986865 65.0927547548799765 28.1128704123049964
 63.4184126058955968 13.8322167929792403 28.1128704123049964
  5.6372241724349186  1.6273023922705114 28.1128704123049964
 21.1394421182678336 72.4156887494372228 28.1128704123049964
 -25.3674248207786874 65.0927547548799765 28.1128704123049964
 46.5068246058955950 13.8322167929792403 28.1128704123049964
 16.9115879864549186  1.6273023922705114 28.1128704123049964
 18.3208723042478390 72.4156887494372228 28.1128704123049964
 -4.2279393941043990 13.8322167929792403 28.1128704123049964
 40.8696849778556057 13.8322167929792403 28.1128704123049964
 53.5533338004749169  1.6273023922705114 28.1128704123049964
 32.4138909778556012 13.8322167929792403 28.1128704123049964
 23.9580969778556039 13.8322167929792403 28.1128704123049964
 -4.2279398817321576 72.4156887494372228 28.1128704123049964
 -36.6418309544045329 69.9747351610314468 28.1128704123049964
 12.6836486058956019 13.8322167929792403 28.1128704123049964
 19.7301995511813146 65.0927547548799765 28.1128704123049964
  4.2278546058956001 13.8322167929792403 28.1128704123049964
 76.1021459864549144  1.6273023922705114 28.1128704123049964
 23.9580544008907985 49.6332355696302230 28.6327538495249954
 -7.0464673896913883 69.1610107355562462 28.6327538495249954
 21.1394845868707826 49.6332355696302230 28.6327538495249954
 -22.5487280208509766 47.1922087518845075 28.6327538495249954
 18.3209147728507951 49.6332355696302230 28.6327538495249954
 40.8696847204966431 44.7512551634787386 28.6327538495249954
 -23.9580974654833554 44.7512551634787386 28.6327538495249954
  7.0464664008907913 49.6332355696302230 28.6327538495249954
  1.4093266103086164 69.1610107355562462 28.6327538495249954
  4.2278965868707896 49.6332355696302230 28.6327538495249954
 12.6836904243286224 69.1610107355562462 28.6327538495249954
 19.7301572180303850 71.6020375533019688 28.6327538495249954
 -19.7301584100096186 71.6020375533019688 28.6327538495249954
 12.6836905868707941 49.6332355696302230 28.6327538495249954
 59.1905576478242708 42.3103015750729767 28.6327538495249954
 26.7767087728507853 49.6332355696302230 28.6327538495249954
 -8.4557945959896212 71.6020375533019688 28.6327538495249954
 -26.7766252037113830 69.1610107355562462 28.6327538495249954
 -16.9115461544768308 52.0741891580359919 28.6327538495249954
 33.8231756478242644 42.3103015750729767 28.6327538495249954
 -18.3208312037113821 69.1610107355562462 28.6327538495249954
 42.2789696478242618 42.3103015750729767 28.6327538495249954
 52.1440907728507952 49.6332355696302230 28.6327538495249954
 -16.9115885959896168 71.6020375533019688 28.6327538495249954
 -15.5022613896913821 69.1610107355562462 28.6327538495249954
 45.0975394618442706 42.3103015750729767 28.6327538495249954
 46.5068665868708067 49.6332355696302230 28.6327538495249954
 57.7812727204966521 44.7512551634787386 28.6327538495249954
 22.5488115899903860 71.6020375533019688 28.6327538495249954
 -12.6836915756713875 69.1610107355562462 28.6327538495249954
 -9.8650372037113900 69.1610107355562462 28.6327538495249954
 47.9161938338042646 42.3103015750729767 28.6327538495249954
 -16.9115883928109767 47.1922087518845075 28.6327538495249954
 23.9581387962886225 69.1610107355562462 28.6327538495249954
 26.7767086103086172 69.1610107355562462 28.6327538495249954
 -5.6372247819696195 71.6020375533019688 28.6327538495249954
 -0.0000003928109814 47.1922087518845075 28.6327538495249954
 -33.8231765959896151 71.6020375533019688 28.6327538495249954
  8.4557936071890190 47.1922087518845075 28.6327538495249954
 32.4138907204966458 44.7512551634787386 28.6327538495249954
 -2.8185702068309761 47.1922087518845075 28.6327538495249954
 14.0930177931690217 47.1922087518845075 28.6327538495249954
 43.6882545345166520 44.7512551634787386 28.6327538495249954
 29.5953209064766369 44.7512551634787386 28.6327538495249954
 16.9115876071890092 47.1922087518845075 28.6327538495249954
 -2.8185704100096114 71.6020375533019688 28.6327538495249954
 -36.6417464100096169 71.6020375533019688 28.6327538495249954
 -0.0000005959896168 71.6020375533019688 28.6327538495249954
 19.7302419791490244 47.1922087518845075 28.6327538495249954
 35.2325026103086287 69.1610107355562462 28.6327538495249954
 26.7766665345166501 44.7512551634787386 28.6327538495249954
 28.1860359791490147 47.1922087518845075 28.6327538495249954
  1.4093267728507877 49.6332355696302230 28.6327538495249954
 -1.4093275991092098 49.6332355696302230 28.6327538495249954
 -14.0929340208509810 47.1922087518845075 28.6327538495249954
 -4.2278974131292042 49.6332355696302230 28.6327538495249954
 16.9115874040103833 71.6020375533019688 28.6327538495249954
 -25.3673825959896213 71.6020375533019688 28.6327538495249954
 -12.6836490935233588 44.7512551634787386 28.6327538495249954
 -12.6836914131292051 49.6332355696302230 28.6327538495249954
 18.3208725345166314 44.7512551634787386 28.6327538495249954
 -15.5022612271492086 49.6332355696302230 28.6327538495249954
 -23.9580552271492060 49.6332355696302230 28.6327538495249954
 -5.6371400208509774 47.1922087518845075 28.6327538495249954
 32.4139327962886199 69.1610107355562462 28.6327538495249954
 46.5069089064766459 44.7512551634787386 28.6327538495249954
 29.5952784243286260 69.1610107355562462 28.6327538495249954
 -25.3673823928109776 47.1922087518845075 28.6327538495249954
 33.8232177236162386 66.7200571471504844 28.6327538495249954
 -14.0929763404568273 52.0741891580359919 28.6327538495249954
 18.3209146509438554 64.2791035587447084 28.6327538495249954
 12.6837327845697061 59.3971231525932382 28.6327538495249954
 -4.2278552154303037 59.3971231525932382 28.6327538495249954
 -7.0465095873903012 59.3971231525932382 28.6327538495249954
 23.9580542789838589 64.2791035587447084 28.6327538495249954
 -9.8650794014102949 59.3971231525932382 28.6327538495249954
 -15.5023035873902977 59.3971231525932382 28.6327538495249954
 35.2325026509438644 64.2791035587447084 28.6327538495249954
 -23.9580975873902986 59.3971231525932382 28.6327538495249954
 18.3208724126097096 59.3971231525932382 28.6327538495249954
 -26.7766674014102968 59.3971231525932382 28.6327538495249954
 40.8696422789838678 64.2791035587447084 28.6327538495249954
 33.8231755259173212 56.9561695641874692 28.6327538495249954
 31.0046057118973302 56.9561695641874692 28.6327538495249954
 43.6882966509438617 64.2791035587447084 28.6327538495249954
 28.1859513399373292 56.9561695641874692 28.6327538495249954
 25.3673815259173274 56.9561695641874692 28.6327538495249954
 46.5068664649638706 64.2791035587447084 28.6327538495249954
 14.0930177118973283 56.9561695641874692 28.6327538495249954
 11.2743633399373131 56.9561695641874692 28.6327538495249954
 38.0510724649638732 64.2791035587447084 28.6327538495249954
 23.9580965985897052 59.3971231525932382 28.6327538495249954
 12.6836904649638509 64.2791035587447084 28.6327538495249954
 26.7766664126097069 59.3971231525932382 28.6327538495249954
 28.1860358572420893 61.8380767409990000 28.6327538495249954
 25.3673814852820882 61.8380767409990000 28.6327538495249954
 22.5488116712620865 61.8380767409990000 28.6327538495249954
 16.9115874852820909 61.8380767409990000 28.6327538495249954
 14.0930176712620749 61.8380767409990000 28.6327538495249954
 -35.2325037210161440 64.2791035587447084 28.6327538495249954
 -26.7767097210161431 64.2791035587447084 28.6327538495249954
  2.8186538572420905 61.8380767409990000 28.6327538495249954
 -0.0000005147179177 61.8380767409990000 28.6327538495249954
 -23.9580553490561456 64.2791035587447084 28.6327538495249954
 -2.8185703287379194 61.8380767409990000 28.6327538495249954
 -14.0929341427579153 61.8380767409990000 28.6327538495249954
 -15.5022613490561429 64.2791035587447084 28.6327538495249954
  1.4093266509438596 64.2791035587447084 28.6327538495249954
 -16.9115885147179164 61.8380767409990000 28.6327538495249954
 -25.3673825147179137 61.8380767409990000 28.6327538495249954
  4.2278964649638544 64.2791035587447084 28.6327538495249954
 -28.1859523287379155 61.8380767409990000 28.6327538495249954
  7.0464662789838490 64.2791035587447084 28.6327538495249954
  9.8651206509438563 64.2791035587447084 28.6327538495249954
 29.5953207845697079 59.3971231525932382 28.6327538495249954
 -36.6417886483437698 66.7200571471504844 28.6327538495249954
 -5.6372246600626781 56.9561695641874692 28.6327538495249954
 -33.8231342763837688 66.7200571471504844 28.6327538495249954
 -8.4557944740826727 56.9561695641874692 28.6327538495249954
  8.4558357236162376 66.7200571471504844 28.6327538495249954
 11.2744055376362251 66.7200571471504844 28.6327538495249954
 50.7348058455231694 52.0741891580359919 28.6327538495249954
 47.9161514735631755 52.0741891580359919 28.6327538495249954
 42.2790118455231720 52.0741891580359919 28.6327538495249954
 31.0045633516562411 66.7200571471504844 28.6327538495249954
 39.4603574735631781 52.0741891580359919 28.6327538495249954
 36.6417876595431693 52.0741891580359919 28.6327538495249954
 33.8232178455231747 52.0741891580359919 28.6327538495249954
 22.5487694735631763 52.0741891580359919 28.6327538495249954
 42.2789694852820901 61.8380767409990000 28.6327538495249954
 19.7301996595431604 52.0741891580359919 28.6327538495249954
 36.6417875376362474 66.7200571471504844 28.6327538495249954
 11.2744056595431719 52.0741891580359919 28.6327538495249954
  8.4558358455231772 52.0741891580359919 28.6327538495249954
 42.2790117236162359 66.7200571471504844 28.6327538495249954
 -38.0510735756713814 69.1610107355562462 28.6327538495249954
  5.6371814735631682 52.0741891580359919 28.6327538495249954
  2.8186116595431669 52.0741891580359919 28.6327538495249954
  0.0000418455231652 52.0741891580359919 28.6327538495249954
 -5.6371823404568273 52.0741891580359919 28.6327538495249954
 53.5533756595431782 52.0741891580359919 28.6327538495249954
 -35.2324192037113804 69.1610107355562462 28.6327538495249954
  5.6371813516562215 66.7200571471504844 28.6327538495249954
 -15.5022612677844460 54.5151427464417537 28.6327538495249954
 -28.1859946483437653 66.7200571471504844 28.6327538495249954
 -22.5488126600626764 56.9561695641874692 28.6327538495249954
 -25.3673402763837679 66.7200571471504844 28.6327538495249954
 -16.9115462763837670 66.7200571471504844 28.6327538495249954
 -25.3673824740826745 56.9561695641874692 28.6327538495249954
 -31.0046066600626737 56.9561695641874692 28.6327538495249954
 52.1440907322155596 54.5151427464417537 28.6327538495249954
 49.3255209181955507 54.5151427464417537 28.6327538495249954
 46.5068665462355568 54.5151427464417537 28.6327538495249954
 43.6882967322155622 54.5151427464417537 28.6327538495249954
 40.8697269181955534 54.5151427464417537 28.6327538495249954
 -14.0929764623637634 66.7200571471504844 28.6327538495249954
 38.0510725462355595 54.5151427464417537 28.6327538495249954
 35.2325027322155506 54.5151427464417537 28.6327538495249954
 -11.2744066483437688 66.7200571471504844 28.6327538495249954
  0.0000417236162395 66.7200571471504844 28.6327538495249954
 29.5952785462355585 54.5151427464417537 28.6327538495249954
 18.3209147322155452 54.5151427464417537 28.6327538495249954
  9.8651207322155532 54.5151427464417537 28.6327538495249954
  7.0465509181955595 54.5151427464417537 28.6327538495249954
  4.2278965462355513 54.5151427464417537 28.6327538495249954
  2.8186115376362340 66.7200571471504844 28.6327538495249954
 42.2789695259173328 56.9561695641874692 28.6327538495249954
 -14.0929762185498877 37.4283211689214923 28.6327538495249954
 28.1859514618442688 42.3103015750729767 28.6327538495249954
  4.2279391502905188 15.4595191852497500 28.6327538495249954
  1.4092847783305213 15.4595191852497500 28.6327538495249954
 -7.0465092216694787 15.4595191852497500 28.6327538495249954
 67.6463518916381474 13.0185655968439828 28.6327538495249954
 64.8277820776181386 13.0185655968439828 28.6327538495249954
 62.0091277056581518 13.0185655968439828 28.6327538495249954
 59.1905578916381430 13.0185655968439828 28.6327538495249954
 56.3719880776181483 13.0185655968439828 28.6327538495249954
 47.9161940776181368 13.0185655968439828 28.6327538495249954
 45.0975397056581500 13.0185655968439828 28.6327538495249954
 42.2789698916381340 13.0185655968439828 28.6327538495249954
 39.4604000776181465 13.0185655968439828 28.6327538495249954
  7.0465089643105223 15.4595191852497500 28.6327538495249954
 28.1859517056581375 13.0185655968439828 28.6327538495249954
 14.0930180776181420 13.0185655968439828 28.6327538495249954
  5.6372240776181393 13.0185655968439828 28.6327538495249954
  2.8185697056581414 13.0185655968439828 28.6327538495249954
 -2.8185699223818586 13.0185655968439828 28.6327538495249954
 -5.6372242943418591 13.0185655968439828 28.6327538495249954
 74.6929032839163654 10.5775387790982709 28.6327538495249954
 71.8742489119563714 10.5775387790982709 28.6327538495249954
 69.0556790979363768 10.5775387790982709 28.6327538495249954
 66.2371092839163680 10.5775387790982709 28.6327538495249954
 63.4184549119563812 10.5775387790982709 28.6327538495249954
 57.7813152839163777 10.5775387790982709 28.6327538495249954
 38.0510729119563607 10.5775387790982709 28.6327538495249954
 25.3673818916381357 13.0185655968439828 28.6327538495249954
 26.7766667783305188 15.4595191852497500 28.6327538495249954
 29.5953211502905269 15.4595191852497500 28.6327538495249954
 32.4138909643105251 15.4595191852497500 28.6327538495249954
 69.0556790166646692 20.3414995914012344 28.6327538495249954
 49.3254366447046735 20.3414995914012344 28.6327538495249954
 46.5068668306846718 20.3414995914012344 28.6327538495249954
 26.7767090166646753 20.3414995914012344 28.6327538495249954
 18.3209150166646637 20.3414995914012344 28.6327538495249954
 15.5022606447046662 20.3414995914012344 28.6327538495249954
 12.6836908306846716 20.3414995914012344 28.6327538495249954
 -9.8651213552953294 20.3414995914012344 28.6327538495249954
 73.2835760369829075 17.9004727736555189 28.6327538495249954
 56.3719880369828985 17.9004727736555189 28.6327538495249954
 50.7347638510029029 17.9004727736555189 28.6327538495249954
 47.9161940369829011 17.9004727736555189 28.6327538495249954
 39.4604000369828896 17.9004727736555189 28.6327538495249954
 36.6418302229629020 17.9004727736555189 28.6327538495249954
 31.0046060369829029 17.9004727736555189 28.6327538495249954
 28.1860362229629082 17.9004727736555189 28.6327538495249954
 25.3673818510029001 17.9004727736555189 28.6327538495249954
 19.7302422229628966 17.9004727736555189 28.6327538495249954
  5.6372240369829028 17.9004727736555189 28.6327538495249954
  2.8186542229628988 17.9004727736555189 28.6327538495249954
 60.5998427783305331 15.4595191852497500 28.6327538495249954
 57.7812729643105243 15.4595191852497500 28.6327538495249954
 54.9627031502905297 15.4595191852497500 28.6327538495249954
 52.1440487783305286 15.4595191852497500 28.6327538495249954
 49.3254789643105269 15.4595191852497500 28.6327538495249954
 46.5069091502905181 15.4595191852497500 28.6327538495249954
 40.8696849643105153 15.4595191852497500 28.6327538495249954
 23.9581392839163634 10.5775387790982709 28.6327538495249954
 21.1394849119563659 10.5775387790982709 28.6327538495249954
 15.5023452839163713 10.5775387790982709 28.6327538495249954
 12.6836909119563703 10.5775387790982709 28.6327538495249954
 15.5022607666116095  5.6956316022867357 28.6327538495249954
 12.6836909525916113  5.6956316022867357 28.6327538495249954
  7.0464667666116103  5.6956316022867357 28.6327538495249954
 -1.4093272333883895  5.6956316022867357 28.6327538495249954
 81.7393701588898551  3.2546047845410229 28.6327538495249954
 78.9208003448698463  3.2546047845410229 28.6327538495249954
 76.1021459729098524  3.2546047845410229 28.6327538495249954
 67.6463519729098550  3.2546047845410229 28.6327538495249954
 56.3719881588898417  3.2546047845410229 28.6327538495249954
 53.5534183448698329  3.2546047845410229 28.6327538495249954
 50.7347639729098461  3.2546047845410229 28.6327538495249954
 47.9161941588898301  3.2546047845410229 28.6327538495249954
 45.0976243448698426  3.2546047845410229 28.6327538495249954
 16.9115879729098388  3.2546047845410229 28.6327538495249954
  5.6372241588898389  3.2546047845410229 28.6327538495249954
 83.1486550862174738  0.8136511961352557 28.6327538495249954
 80.3300852721974650  0.8136511961352557 28.6327538495249954
 69.0556369002374737  0.8136511961352557 28.6327538495249954
 66.2370670862174649  0.8136511961352557 28.6327538495249954
 63.4184972721974631  0.8136511961352557 28.6327538495249954
 54.9627032721974516  0.8136511961352557 28.6327538495249954
 52.1440489002374647  0.8136511961352557 28.6327538495249954
 38.0511152721974639  0.8136511961352557 28.6327538495249954
 35.2324609002374558  0.8136511961352557 28.6327538495249954
 15.5023030862174611  0.8136511961352557 28.6327538495249954
  7.0465090862174584  0.8136511961352557 28.6327538495249954
  4.2279392721974602  0.8136511961352557 28.6327538495249954
 23.9580547666116068  5.6956316022867357 28.6327538495249954
 71.8742488306846781 20.3414995914012344 28.6327538495249954
 26.7767091385716043  5.6956316022867357 28.6327538495249954
 32.4138487666116077  5.6956316022867357 28.6327538495249954
  4.2278969119563712 10.5775387790982709 28.6327538495249954
  1.4093270979363695 10.5775387790982709 28.6327538495249954
 73.2835338392839901  8.1365851906925037 28.6327538495249954
 70.4649640252639955  8.1365851906925037 28.6327538495249954
 62.0091700252639910  8.1365851906925037 28.6327538495249954
 53.5533760252639937  8.1365851906925037 28.6327538495249954
 47.9161518392839980  8.1365851906925037 28.6327538495249954
 39.4603578392839793  8.1365851906925037 28.6327538495249954
 36.6417880252639918  8.1365851906925037 28.6327538495249954
 33.8232182112439972  8.1365851906925037 28.6327538495249954
 28.1859940252639873  8.1365851906925037 28.6327538495249954
 25.3674242112439856  8.1365851906925037 28.6327538495249954
 22.5487698392839881  8.1365851906925037 28.6327538495249954
 16.9116302112439918  8.1365851906925037 28.6327538495249954
 14.0929758392839890  8.1365851906925037 28.6327538495249954
 11.2744060252639908  8.1365851906925037 28.6327538495249954
  5.6371818392839907  8.1365851906925037 28.6327538495249954
  2.8186120252639890  8.1365851906925037 28.6327538495249954
 80.3300429525916257  5.6956316022867357 28.6327538495249954
 77.5114731385716169  5.6956316022867357 28.6327538495249954
 71.8742489525916284  5.6956316022867357 28.6327538495249954
 66.2370247666116256  5.6956316022867357 28.6327538495249954
 54.9626609525916123  5.6956316022867357 28.6327538495249954
 52.1440911385716035  5.6956316022867357 28.6327538495249954
 49.3254367666116167  5.6956316022867357 28.6327538495249954
 46.5068669525916008  5.6956316022867357 28.6327538495249954
 43.6882971385716132  5.6956316022867357 28.6327538495249954
 29.5952789525916060  5.6956316022867357 28.6327538495249954
 31.0046058338042556 42.3103015750729767 28.6327538495249954
 -11.2744062826229499 22.7824531798069998 28.6327538495249954
 -5.6371820966429516 22.7824531798069998 28.6327538495249954
 14.0929755954701115 37.4283211689214923 28.6327538495249954
 11.2744057814501097 37.4283211689214923 28.6327538495249954
  8.4558359674301080 37.4283211689214923 28.6327538495249954
  0.0000419674301133 37.4283211689214923 28.6327538495249954
 -2.8186124045298877 37.4283211689214923 28.6327538495249954
 -5.6371822185498859 37.4283211689214923 28.6327538495249954
 -8.4557520325698885 37.4283211689214923 28.6327538495249954
 -11.2744064045298860 37.4283211689214923 28.6327538495249954
 -19.7302004045298887 37.4283211689214923 28.6327538495249954
 63.4184547087777446 34.9873675805157234 28.6327538495249954
 54.9626607087777472 34.9873675805157234 28.6327538495249954
 52.1440908947577384 34.9873675805157234 28.6327538495249954
 16.9116299674301196 37.4283211689214923 28.6327538495249954
 49.3254365227977445 34.9873675805157234 28.6327538495249954
 35.2325028947577295 34.9873675805157234 28.6327538495249954
 23.9580545227977240 34.9873675805157234 28.6327538495249954
 21.1394847087777364 34.9873675805157234 28.6327538495249954
 12.6836907087777320 34.9873675805157234 28.6327538495249954
  9.8651208947577302 34.9873675805157234 28.6327538495249954
  7.0464665227977319 34.9873675805157234 28.6327538495249954
 -1.4093274772022688 34.9873675805157234 28.6327538495249954
 -12.6836912912222672 34.9873675805157234 28.6327538495249954
 -15.5022611052422672 34.9873675805157234 28.6327538495249954
 -18.3209154772022664 34.9873675805157234 28.6327538495249954
 64.8277819150759740 32.5463407627700150 28.6327538495249954
 45.0976241010559633 32.5463407627700150 28.6327538495249954
 46.5068667087777357 34.9873675805157234 28.6327538495249954
 36.6417877814501125 37.4283211689214923 28.6327538495249954
 39.4603575954701142 37.4283211689214923 28.6327538495249954
 53.5533757814501215 37.4283211689214923 28.6327538495249954
 19.7301574618442501 42.3103015750729767 28.6327538495249954
 -0.0000003521757358 42.3103015750729767 28.6327538495249954
 -2.8185701661957374 42.3103015750729767 28.6327538495249954
 -11.2743641661957401 42.3103015750729767 28.6327538495249954
 -14.0930185381557376 42.3103015750729767 28.6327538495249954
 -22.5488125381557367 42.3103015750729767 28.6327538495249954
 60.5998848541225001 39.8692747573272612 28.6327538495249954
 57.7813150401024913 39.8692747573272612 28.6327538495249954
 54.9626606681424974 39.8692747573272612 28.6327538495249954
 46.5068666681425000 39.8692747573272612 28.6327538495249954
 43.6882968541224912 39.8692747573272612 28.6327538495249954
 38.0510726681424956 39.8692747573272612 28.6327538495249954
 35.2325028541224938 39.8692747573272612 28.6327538495249954
 32.4139330401024850 39.8692747573272612 28.6327538495249954
 23.9581390401024947 39.8692747573272612 28.6327538495249954
 21.1394846681424795 39.8692747573272612 28.6327538495249954
 18.3209148541224920 39.8692747573272612 28.6327538495249954
 15.5023450401024956 39.8692747573272612 28.6327538495249954
  9.8651208541224857 39.8692747573272612 28.6327538495249954
  7.0465510401024849 39.8692747573272612 28.6327538495249954
  1.4093268541224926 39.8692747573272612 28.6327538495249954
 -1.4092429598975091 39.8692747573272612 28.6327538495249954
 -4.2278973318575099 39.8692747573272612 28.6327538495249954
 -9.8650369598975125 39.8692747573272612 28.6327538495249954
 -12.6836913318575100 39.8692747573272612 28.6327538495249954
 59.1905999674301100 37.4283211689214923 28.6327538495249954
 56.3719455954701161 37.4283211689214923 28.6327538495249954
 28.1860361010559650 32.5463407627700150 28.6327538495249954
 25.3673817290959498 32.5463407627700150 28.6327538495249954
 22.5488119150759623 32.5463407627700150 28.6327538495249954
  8.4557937290959586 32.5463407627700150 28.6327538495249954
 57.7813151620094345 25.2234067682127652 28.6327538495249954
 54.9626607900494406 25.2234067682127652 28.6327538495249954
 52.1440909760294318 25.2234067682127652 28.6327538495249954
 49.3255211620094371 25.2234067682127652 28.6327538495249954
 40.8697271620094256 25.2234067682127652 28.6327538495249954
 38.0510727900494388 25.2234067682127652 28.6327538495249954
 35.2325029760294228 25.2234067682127652 28.6327538495249954
 26.7767089760294326 25.2234067682127652 28.6327538495249954
 21.1394847900494298 25.2234067682127652 28.6327538495249954
 18.3209149760294281 25.2234067682127652 28.6327538495249954
  9.8651209760294343 25.2234067682127652 28.6327538495249954
  7.0465511620094325 25.2234067682127652 28.6327538495249954
 -4.2278972099505676 25.2234067682127652 28.6327538495249954
 -9.8650368379905675 25.2234067682127652 28.6327538495249954
 67.6463940893370506 22.7824531798069998 28.6327538495249954
 64.8277397173770566 22.7824531798069998 28.6327538495249954
 62.0091699033570620 22.7824531798069998 28.6327538495249954
 59.1906000893370532 22.7824531798069998 28.6327538495249954
 45.0975819033570531 22.7824531798069998 28.6327538495249954
 39.4603577173770574 22.7824531798069998 28.6327538495249954
 28.1859939033570512 22.7824531798069998 28.6327538495249954
 16.9116300893370450 22.7824531798069998 28.6327538495249954
 14.0929757173770476 22.7824531798069998 28.6327538495249954
 11.2744059033570529 22.7824531798069998 28.6327538495249954
  8.4558360893370512 22.7824531798069998 28.6327538495249954
  2.8186119033570516 22.7824531798069998 28.6327538495249954
 -2.8186122826229494 22.7824531798069998 28.6327538495249954
 63.4184547900494380 25.2234067682127652 28.6327538495249954
 -8.4557519106629488 22.7824531798069998 28.6327538495249954
 66.2371091620094319 25.2234067682127652 28.6327538495249954
 -2.8185700442888009 27.6644335859584807 28.6327538495249954
 -0.0000002709040391 32.5463407627700150 28.6327538495249954
 -2.8185700849240374 32.5463407627700150 28.6327538495249954
 -16.9115882709040370 32.5463407627700150 28.6327538495249954
 57.7812728424035953 30.1053871743642461 28.6327538495249954
 46.5069090283835891 30.1053871743642461 28.6327538495249954
 43.6882546564235881 30.1053871743642461 28.6327538495249954
 40.8696848424035863 30.1053871743642461 28.6327538495249954
 32.4138908424035748 30.1053871743642461 28.6327538495249954
 29.5953210283835837 30.1053871743642461 28.6327538495249954
 26.7766666564235685 30.1053871743642461 28.6327538495249954
 21.1395270283835863 30.1053871743642461 28.6327538495249954
 18.3208726564235782 30.1053871743642461 28.6327538495249954
 -1.4092851575964171 30.1053871743642461 28.6327538495249954
 -4.2278549716164209 30.1053871743642461 28.6327538495249954
 -9.8650791575964192 30.1053871743642461 28.6327538495249954
 67.6463517697312113 27.6644335859584807 28.6327538495249954
 64.8277819557112025 27.6644335859584807 28.6327538495249954
 56.3719879557112051 27.6644335859584807 28.6327538495249954
 53.5533335837512112 27.6644335859584807 28.6327538495249954
 42.2789697697312050 27.6644335859584807 28.6327538495249954
 39.4603999557111962 27.6644335859584807 28.6327538495249954
 36.6417455837512094 27.6644335859584807 28.6327538495249954
 33.8231757697311934 27.6644335859584807 28.6327538495249954
 31.0046059557112059 27.6644335859584807 28.6327538495249954
 11.2743635837511977 27.6644335859584807 28.6327538495249954
  8.4557937697312031 27.6644335859584807 28.6327538495249954
 -0.0000002302687971 27.6644335859584807 28.6327538495249954
 -5.6372244162487979 27.6644335859584807 28.6327538495249954
 25.3673814040103807 71.6020375533019688 28.6327538495249954
