 H  O 
 1.0000000000000000
    84.5579400000000021    0.0000000000000000    0.0000000000000000
   -42.2789706095346958   73.2293399455724767    0.0000000000000000
     0.0000000000000000    0.0000000000000000   46.9039550000000034
 H   O  
 240 225
Cartesian
 -29.5952795214910651 62.6518011664742076 28.1128704123049964
 35.2324606699686598 28.4780847820937346 28.1128704123049964
 52.1440486699686616 28.4780847820937346 28.1128704123049964
 57.7812728559486644 28.4780847820937346 28.1128704123049964
 21.1394422401747804 57.7698207603227232 28.1128704123049964
 -14.0930184433389574 30.9190383704995000 28.1128704123049964
 -0.0000002573589589 30.9190383704995000 28.1128704123049964
 18.3208724261547857 57.7698207603227232 28.1128704123049964
  9.8650784261547866 57.7698207603227232 28.1128704123049964
 36.6417455566610357 30.9190383704995000 28.1128704123049964
  7.0465086121347857 57.7698207603227232 28.1128704123049964
 45.0975395566610331 30.9190383704995000 28.1128704123049964
  1.4092844261547897 57.7698207603227232 28.1128704123049964
 50.7347637426410429 30.9190383704995000 28.1128704123049964
 56.3719879286210457 30.9190383704995000 28.1128704123049964
 32.4138908559486651 28.4780847820937346 28.1128704123049964
 64.8277819286210502 30.9190383704995000 28.1128704123049964
  4.2278967223228134 33.3600651882452155 28.1128704123049964
  9.8650363503628089 33.3600651882452155 28.1128704123049964
 -15.5023035738452162 57.7698207603227232 28.1128704123049964
 21.1394847223228126 33.3600651882452155 28.1128704123049964
 -18.3208733878652161 57.7698207603227232 28.1128704123049964
 -21.1395277598252136 57.7698207603227232 28.1128704123049964
 40.8696425363428091 33.3600651882452155 28.1128704123049964
 -32.4138915738452127 57.7698207603227232 28.1128704123049964
 47.9161091675023982 55.3288671719169614 28.1128704123049964
 -19.7302003909848089 35.8010187766509844 28.1128704123049964
 -16.9116305769648072 35.8010187766509844 28.1128704123049964
 -14.0929762050048097 35.8010187766509844 28.1128704123049964
 42.2789695394624090 55.3288671719169614 28.1128704123049964
 -0.0000425769648080 35.8010187766509844 28.1128704123049964
 -7.0465095738452108 57.7698207603227232 28.1128704123049964
 14.0929756090151947 35.8010187766509844 28.1128704123049964
 26.7766666699686624 28.4780847820937346 28.1128704123049964
 18.3208726699686650 28.4780847820937346 28.1128704123049964
 56.3719457309221283 21.1551507875364884 28.1128704123049964
 -9.8651213823854889 23.5961043759422537 28.1128704123049964
 -1.4093273823854895 23.5961043759422537 28.1128704123049964
  4.2278964785089341 62.6518011664742076 28.1128704123049964
 -9.8651217074710615 62.6518011664742076 28.1128704123049964
 23.9580546176145113 23.5961043759422537 28.1128704123049964
 -12.6836915214910633 62.6518011664742076 28.1128704123049964
 29.5952788035945140 23.5961043759422537 28.1128704123049964
 -15.5023458934510643 62.6518011664742076 28.1128704123049964
 -18.3209157074710660 62.6518011664742076 28.1128704123049964
 -21.1394855214910677 62.6518011664742076 28.1128704123049964
 54.9626606004158731 48.0059331773597151 28.1128704123049964
 52.1440909895745008 23.5961043759422537 28.1128704123049964
 57.7812306176145043 23.5961043759422537 28.1128704123049964
 23.9580968559486607 28.4780847820937346 28.1128704123049964
 66.2370246176145088 23.5961043759422537 28.1128704123049964
  8.4557937832762846 26.0371311936879657 28.1128704123049964
 19.7301575972962873 26.0371311936879657 28.1128704123049964
 28.1859513128471555 60.2107743487284921 28.1128704123049964
 25.3673814988271609 60.2107743487284921 28.1128704123049964
 19.7301573128471581 60.2107743487284921 28.1128704123049964
 62.0091275972962777 26.0371311936879657 28.1128704123049964
 -11.2743643151928357 60.2107743487284921 28.1128704123049964
 -7.0465093300313377 28.4780847820937346 28.1128704123049964
 -4.2279395160113378 28.4780847820937346 28.1128704123049964
 -14.0930186871528367 60.2107743487284921 28.1128704123049964
 -25.3673825011728376 60.2107743487284921 28.1128704123049964
  4.2278544839886631 28.4780847820937346 28.1128704123049964
  9.8650786699686659 28.4780847820937346 28.1128704123049964
 29.5952362401747777 57.7698207603227232 28.1128704123049964
 -5.6372244027037182 26.0371311936879657 28.1128704123049964
 39.4603151675024009 55.3288671719169614 28.1128704123049964
 36.6417453534824062 55.3288671719169614 28.1128704123049964
 33.8231755394623974 55.3288671719169614 28.1128704123049964
 12.6836483620817209 43.1239527712082307 28.1128704123049964
 21.1394423620817271 43.1239527712082307 28.1128704123049964
 23.9580967340417281 43.1239527712082307 28.1128704123049964
 -21.1394854402193673 52.8878403541712458 28.1128704123049964
 32.4138907340417219 43.1239527712082307 28.1128704123049964
 50.7347213011282463 50.4468867657654769 28.1128704123049964
 45.0975816730882570 50.4468867657654769 28.1128704123049964
 52.1440485480617184 43.1239527712082307 28.1128704123049964
 39.4603574871082543 50.4468867657654769 28.1128704123049964
 57.7812727340417212 43.1239527712082307 28.1128704123049964
 -22.5488125652458997 45.5649063596139996 28.1128704123049964
 36.6417876730882455 50.4468867657654769 28.1128704123049964
 -11.2743641932859031 45.5649063596139996 28.1128704123049964
 33.8231333011282445 50.4468867657654769 28.1128704123049964
 -18.3209156261993691 52.8878403541712458 28.1128704123049964
 16.9115453011282568 50.4468867657654769 28.1128704123049964
  2.8186116730882564 50.4468867657654769 28.1128704123049964
 28.1859514347540951 45.5649063596139996 28.1128704123049964
 39.4603998067140935 45.5649063596139996 28.1128704123049964
 45.0975394347540970 45.5649063596139996 28.1128704123049964
 -23.9581397715441291 48.0059331773597151 28.1128704123049964
 -21.1394853995841281 48.0059331773597151 28.1128704123049964
 -12.6836913995841307 48.0059331773597151 28.1128704123049964
 -8.4558366988717459 50.4468867657654769 28.1128704123049964
 -1.4093275855641247 48.0059331773597151 28.1128704123049964
  9.8650362284558710 48.0059331773597151 28.1128704123049964
 -19.7302005128917450 50.4468867657654769 28.1128704123049964
 23.9580544144358711 48.0059331773597151 28.1128704123049964
 26.7766242284558658 48.0059331773597151 28.1128704123049964
 38.0510726004158641 48.0059331773597151 28.1128704123049964
 11.2744056730882534 50.4468867657654769 28.1128704123049964
  1.4092845480617260 43.1239527712082307 28.1128704123049964
 -12.6836914402193699 52.8878403541712458 28.1128704123049964
 -7.0464672542393672 52.8878403541712458 28.1128704123049964
 31.0045211675023928 55.3288671719169614 28.1128704123049964
 39.4603576090151904 35.8010187766509844 28.1128704123049964
 47.9161516090151949 35.8010187766509844 28.1128704123049964
 19.7301573534824009 55.3288671719169614 28.1128704123049964
 14.0929331675024070 55.3288671719169614 28.1128704123049964
 -9.8651215042924267 38.2419723650567462 28.1128704123049964
 35.2324603042478444 72.4156887494372228 28.1128704123049964
 -1.4093275042924258 38.2419723650567462 28.1128704123049964
 -0.0000004605375943 55.3288671719169614 28.1128704123049964
 -11.2744488324975958 55.3288671719169614 28.1128704123049964
 21.1394846816875770 38.2419723650567462 28.1128704123049964
 -14.0930186465175975 55.3288671719169614 28.1128704123049964
 -19.7302428324975985 55.3288671719169614 28.1128704123049964
 35.2325028676675771 38.2419723650567462 28.1128704123049964
 43.6882968676675674 38.2419723650567462 28.1128704123049964
 -25.3673824605375984 55.3288671719169614 28.1128704123049964
 49.3254364957075708 38.2419723650567462 28.1128704123049964
 -4.2278974402193654 52.8878403541712458 28.1128704123049964
 -23.9580974519382757 43.1239527712082307 28.1128704123049964
 59.1905576613693398 40.6829991828024689 28.1128704123049964
 12.6836905597806329 52.8878403541712458 28.1128704123049964
 33.8231756613693406 40.6829991828024689 28.1128704123049964
 22.5487272894093422 40.6829991828024689 28.1128704123049964
 18.3208301065489287 62.6518011664742076 28.1128704123049964
 19.7301574753893405 40.6829991828024689 28.1128704123049964
 14.0929332894093395 40.6829991828024689 28.1128704123049964
 40.8696423738006303 52.8878403541712458 28.1128704123049964
 46.5068665597806330 52.8878403541712458 28.1128704123049964
 -5.6372245246106605 40.6829991828024689 28.1128704123049964
 -8.4557943386306622 40.6829991828024689 28.1128704123049964
 60.5998848676675763 38.2419723650567462 28.1128704123049964
 16.9115876613693388 40.6829991828024689 28.1128704123049964
 21.1394844785089369 62.6518011664742076 28.1128704123049964
 46.5068666004158757 48.0059331773597151 28.1128704123049964
 39.4603577309221265 21.1551507875364884 28.1128704123049964
 31.0045210455954674 69.9747351610314468 28.1128704123049964
 50.7347216668490617  6.5092827984219914 28.1128704123049964
 64.8277398528290689  6.5092827984219914 28.1128704123049964
 67.6463096668490635  6.5092827984219914 28.1128704123049964
 73.2835338528290663  6.5092827984219914 28.1128704123049964
 76.1021036668490609  6.5092827984219914 28.1128704123049964
  7.0464667395214500  8.9502363868277595 28.1128704123049964
 12.6836909255014501  8.9502363868277595 28.1128704123049964
 14.0929330455954638 69.9747351610314468 28.1128704123049964
  2.8185692315754580 69.9747351610314468 28.1128704123049964
 29.5952789255014537  8.9502363868277595 28.1128704123049964
 -5.6372247684245327 69.9747351610314468 28.1128704123049964
 35.2325031114814493  8.9502363868277595 28.1128704123049964
 42.2789276668490714  6.5092827984219914 28.1128704123049964
 38.0510729255014510  8.9502363868277595 28.1128704123049964
 -14.0930187684245301 69.9747351610314468 28.1128704123049964
  5.6371395332232206 11.3912632045734714 28.1128704123049964
  8.4557939051832172 11.3912632045734714 28.1128704123049964
 16.9115879051832216 11.3912632045734714 28.1128704123049964
 32.4138482518936897 67.5337083432857384 28.1128704123049964
 21.1394844378736906 67.5337083432857384 28.1128704123049964
 39.4603155332232234 11.3912632045734714 28.1128704123049964
 45.0975397192032190 11.3912632045734714 28.1128704123049964
 62.0091277192032209 11.3912632045734714 28.1128704123049964
 67.6463519051832236 11.3912632045734714 28.1128704123049964
 73.2834915332232129 11.3912632045734714 28.1128704123049964
 -7.0464673761463033 67.5337083432857384 28.1128704123049964
 -12.6836915621263024 67.5337083432857384 28.1128704123049964
 -11.2744489544045354 69.9747351610314468 28.1128704123049964
 36.6417880388090680  6.5092827984219914 28.1128704123049964
 33.8231754175554755 69.9747351610314468 28.1128704123049964
 14.0929758528290687  6.5092827984219914 28.1128704123049964
 32.4138904902278497 72.4156887494372228 28.1128704123049964
 16.9115879864549186  1.6273023922705114 28.1128704123049964
 19.7301578004749203  1.6273023922705114 28.1128704123049964
 25.3673819864549230  1.6273023922705114 28.1128704123049964
 31.0046061724349222  1.6273023922705114 28.1128704123049964
 26.7766663042478434 72.4156887494372228 28.1128704123049964
 21.1394421182678336 72.4156887494372228 28.1128704123049964
 15.5023024902278443 72.4156887494372228 28.1128704123049964
 53.5533338004749169  1.6273023922705114 28.1128704123049964
  9.8650783042478416 72.4156887494372228 28.1128704123049964
 67.6463519864549170  1.6273023922705114 28.1128704123049964
 73.2835761724349197  1.6273023922705114 28.1128704123049964
 -1.4092855097721566 72.4156887494372228 28.1128704123049964
 81.7393701724349171  1.6273023922705114 28.1128704123049964
  4.2278969661366892  4.0683292100162243 28.1128704123049964
 23.9580547801566937  4.0683292100162243 28.1128704123049964
 26.7766245941766883  4.0683292100162243 28.1128704123049964
 29.5952789661366928  4.0683292100162243 28.1128704123049964
 32.4138487801566981  4.0683292100162243 28.1128704123049964
 40.8696427801566955  4.0683292100162243 28.1128704123049964
 52.1440065941766875  4.0683292100162243 28.1128704123049964
 54.9626609661366956  4.0683292100162243 28.1128704123049964
 57.7812307801566902  4.0683292100162243 28.1128704123049964
 71.8742489661366903  4.0683292100162243 28.1128704123049964
 74.6928187801566850  4.0683292100162243 28.1128704123049964
 -2.8186121471709296  6.5092827984219914 28.1128704123049964
  2.8186120388090696  6.5092827984219914 28.1128704123049964
 42.2789694175554729 69.9747351610314468 28.1128704123049964
 11.2744060388090670  6.5092827984219914 28.1128704123049964
 -1.4092850221444004 13.8322167929792403 28.1128704123049964
  1.4092847918756004 13.8322167929792403 28.1128704123049964
 14.0929335332232206 11.3912632045734714 28.1128704123049964
 14.0930180505279825 16.2731703813850075 28.1128704123049964
 46.5068664785089325 62.6518011664742076 28.1128704123049964
 -2.8186122690778692 21.1551507875364884 28.1128704123049964
 -5.6371820830978701 21.1551507875364884 28.1128704123049964
 74.6928609778556023 13.8322167929792403 28.1128704123049964
 -38.0510735621263052 67.5337083432857384 28.1128704123049964
 69.0555944722697461 18.7141971991307194 28.1128704123049964
  4.2278546058956001 13.8322167929792403 28.1128704123049964
 16.9115451792213065 65.0927547548799765 28.1128704123049964
 21.1394848442297523 18.7141971991307194 28.1128704123049964
 16.9115878645479825 16.2731703813850075 28.1128704123049964
 -0.0000428207786890 65.0927547548799765 28.1128704123049964
 25.3673818645479834 16.2731703813850075 28.1128704123049964
 56.3719880505279747 16.2731703813850075 28.1128704123049964
 25.3673391792213039 65.0927547548799765 28.1128704123049964
 31.0045633652013137 65.0927547548799765 28.1128704123049964
 42.2789698645479817 16.2731703813850075 28.1128704123049964
 -2.8186126347986837 65.0927547548799765 28.1128704123049964
 -8.4558368207786891 65.0927547548799765 28.1128704123049964
 69.0556367918755996 13.8322167929792403 28.1128704123049964
  8.4557515449421317 21.1551507875364884 28.1128704123049964
 60.5998427918756022 13.8322167929792403 28.1128704123049964
 -18.3209157481063052 67.5337083432857384 28.1128704123049964
 12.6836486058956019 13.8322167929792403 28.1128704123049964
 -4.2278971557702505 18.7141971991307194 28.1128704123049964
 28.1859939169021310 21.1551507875364884 28.1128704123049964
 18.3208727918756047 13.8322167929792403 28.1128704123049964
 -9.8651213417502497 18.7141971991307194 28.1128704123049964
 12.6836908442297531 18.7141971991307194 28.1128704123049964
 14.0929753652013119 65.0927547548799765 28.1128704123049964
 47.9161940505279844 16.2731703813850075 28.1128704123049964
 32.4138909778556012 13.8322167929792403 28.1128704123049964
 15.5022606582497549 18.7141971991307194 28.1128704123049964
 -26.7767097481063061 67.5337083432857384 28.1128704123049964
 -32.4138493761463025 67.5337083432857384 28.1128704123049964
 52.1440487918755977 13.8322167929792403 28.1128704123049964
 -35.2325037481063035 67.5337083432857384 28.1128704123049964
 19.7301999169021336 21.1551507875364884 28.1128704123049964
 43.6882544126097088 59.3971231525932382 28.6327538495249954
 -33.8231765147179146 61.8380767409990000 28.6327538495249954
 -25.3673401544768282 52.0741891580359919 28.6327538495249954
 -36.6417464100096169 71.6020375533019688 28.6327538495249954
 -33.8231765959896151 71.6020375533019688 28.6327538495249954
 -2.8185702881026811 56.9561695641874692 28.6327538495249954
 -19.7301584100096186 71.6020375533019688 28.6327538495249954
 36.6418298572420866 61.8380767409990000 28.6327538495249954
 14.0930176712620749 61.8380767409990000 28.6327538495249954
  8.4557934852820722 61.8380767409990000 28.6327538495249954
 -18.3209155991092061 49.6332355696302230 28.6327538495249954
 39.4603996712620955 61.8380767409990000 28.6327538495249954
 -0.0000005147179177 61.8380767409990000 28.6327538495249954
 -5.6371401427579215 61.8380767409990000 28.6327538495249954
 -4.2278974131292042 49.6332355696302230 28.6327538495249954
 -0.0000005959896168 71.6020375533019688 28.6327538495249954
 47.9161936712620928 61.8380767409990000 28.6327538495249954
 15.5022604008907816 49.6332355696302230 28.6327538495249954
 40.8696845985897141 59.3971231525932382 28.6327538495249954
 -2.8185704100096114 71.6020375533019688 28.6327538495249954
 18.3209147728507951 49.6332355696302230 28.6327538495249954
 32.4138484008907994 49.6332355696302230 28.6327538495249954
 -21.1394855350361439 64.2791035587447084 28.6327538495249954
 -8.4557945959896212 71.6020375533019688 28.6327538495249954
 -31.0046067819696169 71.6020375533019688 28.6327538495249954
  7.0464662789838490 64.2791035587447084 28.6327538495249954
 -4.2278552154303037 59.3971231525932382 28.6327538495249954
 35.2324604126097114 59.3971231525932382 28.6327538495249954
  7.0465509181955595 54.5151427464417537 28.6327538495249954
 -21.1394855756713831 69.1610107355562462 28.6327538495249954
 23.9581389181955480 54.5151427464417537 28.6327538495249954
 -23.9580553896913813 69.1610107355562462 28.6327538495249954
 36.6417875376362474 66.7200571471504844 28.6327538495249954
 25.3673815259173274 56.9561695641874692 28.6327538495249954
 33.8231754852820927 61.8380767409990000 28.6327538495249954
 40.8696422789838678 64.2791035587447084 28.6327538495249954
 11.2744055376362251 66.7200571471504844 28.6327538495249954
 -31.0046066600626737 56.9561695641874692 28.6327538495249954
 -28.1859522881026763 56.9561695641874692 28.6327538495249954
 -25.3673402763837679 66.7200571471504844 28.6327538495249954
 -19.7302006483437680 66.7200571471504844 28.6327538495249954
 -16.9115884740826736 56.9561695641874692 28.6327538495249954
 -11.2744066483437688 66.7200571471504844 28.6327538495249954
 -8.4557944740826727 56.9561695641874692 28.6327538495249954
  8.4558357236162376 66.7200571471504844 28.6327538495249954
 38.0510724649638732 64.2791035587447084 28.6327538495249954
  4.2278965462355513 54.5151427464417537 28.6327538495249954
  1.4093266103086164 69.1610107355562462 28.6327538495249954
  9.8651206509438563 64.2791035587447084 28.6327538495249954
  5.6371814735631682 52.0741891580359919 28.6327538495249954
  8.4558358455231772 52.0741891580359919 28.6327538495249954
 38.0510724243286234 69.1610107355562462 28.6327538495249954
 15.5023025985896936 59.3971231525932382 28.6327538495249954
 22.5487694735631763 52.0741891580359919 28.6327538495249954
 -1.4092854014103018 59.3971231525932382 28.6327538495249954
 28.1859936595431719 52.0741891580359919 28.6327538495249954
 26.7767086103086172 69.1610107355562462 28.6327538495249954
 23.9580542789838589 64.2791035587447084 28.6327538495249954
 50.7348058455231694 52.0741891580359919 28.6327538495249954
 53.5533756595431782 52.0741891580359919 28.6327538495249954
 -26.7766250818044469 54.5151427464417537 28.6327538495249954
 23.9581387962886225 69.1610107355562462 28.6327538495249954
 18.3209146103086198 69.1610107355562462 28.6327538495249954
 35.2325026509438644 64.2791035587447084 28.6327538495249954
  7.0465507962886189 69.1610107355562462 28.6327538495249954
 38.0511147845697053 59.3971231525932382 28.6327538495249954
  9.8650789002374601  0.8136511961352557 28.6327538495249954
 -5.6371822185498859 37.4283211689214923 28.6327538495249954
 42.2789696071890333 47.1922087518845075 28.6327538495249954
 31.0046060369829029 17.9004727736555189 28.6327538495249954
  5.6372240369829028 17.9004727736555189 28.6327538495249954
 -0.0000001489970986 17.9004727736555189 28.6327538495249954
 71.8742911502905173 15.4595191852497500 28.6327538495249954
 66.2370669643105288 15.4595191852497500 28.6327538495249954
 57.7812729643105243 15.4595191852497500 28.6327538495249954
 49.3254789643105269 15.4595191852497500 28.6327538495249954
 40.8696849643105153 15.4595191852497500 28.6327538495249954
 38.0511151502905278 15.4595191852497500 28.6327538495249954
  7.0465089643105223 15.4595191852497500 28.6327538495249954
 -4.2278548497094786 15.4595191852497500 28.6327538495249954
 -7.0465092216694787 15.4595191852497500 28.6327538495249954
 56.3719880776181483 13.0185655968439828 28.6327538495249954
 50.7347638916381456 13.0185655968439828 28.6327538495249954
 36.6417457056581313 13.0185655968439828 28.6327538495249954
 33.8231758510028868 17.9004727736555189 28.6327538495249954
 36.6418302229629020 17.9004727736555189 28.6327538495249954
 62.0092122229629013 17.9004727736555189 28.6327538495249954
 64.8277820369829101 17.9004727736555189 28.6327538495249954
 47.9161517173770548 22.7824531798069998 28.6327538495249954
 36.6417879033570415 22.7824531798069998 28.6327538495249954
 33.8232180893370540 22.7824531798069998 28.6327538495249954
 25.3674240893370566 22.7824531798069998 28.6327538495249954
 22.5487697173770485 22.7824531798069998 28.6327538495249954
 16.9116300893370450 22.7824531798069998 28.6327538495249954
 11.2744059033570529 22.7824531798069998 28.6327538495249954
 28.1859517056581375 13.0185655968439828 28.6327538495249954
  2.8186119033570516 22.7824531798069998 28.6327538495249954
 60.5998850166646719 20.3414995914012344 28.6327538495249954
 52.1440910166646745 20.3414995914012344 28.6327538495249954
 49.3254366447046735 20.3414995914012344 28.6327538495249954
 40.8696426447046761 20.3414995914012344 28.6327538495249954
 38.0510728306846602 20.3414995914012344 28.6327538495249954
 21.1394848306846654 20.3414995914012344 28.6327538495249954
  1.4093270166646681 20.3414995914012344 28.6327538495249954
 -8.4557519106629488 22.7824531798069998 28.6327538495249954
 22.5488120776181340 13.0185655968439828 28.6327538495249954
 11.2743637056581409 13.0185655968439828 28.6327538495249954
 -2.8185699223818586 13.0185655968439828 28.6327538495249954
 21.1394849525916122  5.6956316022867357 28.6327538495249954
 18.3209151385716105  5.6956316022867357 28.6327538495249954
  7.0464667666116103  5.6956316022867357 28.6327538495249954
 70.4650063448698489  3.2546047845410229 28.6327538495249954
 36.6418303448698452  3.2546047845410229 28.6327538495249954
 11.2744483448698372  3.2546047845410229 28.6327538495249954
  8.4557939729098397  3.2546047845410229 28.6327538495249954
 46.5068669525916008  5.6956316022867357 28.6327538495249954
  5.6372241588898389  3.2546047845410229 28.6327538495249954
 80.3300852721974650  0.8136511961352557 28.6327538495249954
 63.4184972721974631  0.8136511961352557 28.6327538495249954
 57.7812730862174604  0.8136511961352557 28.6327538495249954
 49.3254790862174488  0.8136511961352557 28.6327538495249954
 46.5069092721974613  0.8136511961352557 28.6327538495249954
 43.6882549002374461  0.8136511961352557 28.6327538495249954
 12.6837332721974576  0.8136511961352557 28.6327538495249954
 83.1486550862174738  0.8136511961352557 28.6327538495249954
 50.7348060893370558 22.7824531798069998 28.6327538495249954
 63.4184549525916097  5.6956316022867357 28.6327538495249954
  0.0000422112439907  8.1365851906925037 28.6327538495249954
 -5.6372242943418591 13.0185655968439828 28.6327538495249954
 77.5114730979363742 10.5775387790982709 28.6327538495249954
 57.7813152839163777 10.5775387790982709 28.6327538495249954
 46.5068669119563793 10.5775387790982709 28.6327538495249954
 23.9581392839163634 10.5775387790982709 28.6327538495249954
 18.3209150979363713 10.5775387790982709 28.6327538495249954
 -1.4092427160836287 10.5775387790982709 28.6327538495249954
 -2.8186121607160102  8.1365851906925037 28.6327538495249954
 70.4649640252639955  8.1365851906925037 28.6327538495249954
 59.1906002112439964  8.1365851906925037 28.6327538495249954
 53.5533760252639937  8.1365851906925037 28.6327538495249954
 31.0045638392839891  8.1365851906925037 28.6327538495249954
 28.1859940252639873  8.1365851906925037 28.6327538495249954
 25.3674242112439856  8.1365851906925037 28.6327538495249954
 22.5487698392839881  8.1365851906925037 28.6327538495249954
 19.7302000252639935  8.1365851906925037 28.6327538495249954
 62.0091700252639910  8.1365851906925037 28.6327538495249954
 50.7347636071890307 47.1922087518845075 28.6327538495249954
 70.4649639033570594 22.7824531798069998 28.6327538495249954
 15.5023451620094264 25.2234067682127652 28.6327538495249954
 -16.9115883521757375 42.3103015750729767 28.6327538495249954
 -19.7301581661957393 42.3103015750729767 28.6327538495249954
 43.6882968541224912 39.8692747573272612 28.6327538495249954
 40.8697270401024966 39.8692747573272612 28.6327538495249954
 29.5952786681424982 39.8692747573272612 28.6327538495249954
  9.8651208541224857 39.8692747573272612 28.6327538495249954
  7.0465510401024849 39.8692747573272612 28.6327538495249954
  4.2278966681424874 39.8692747573272612 28.6327538495249954
 -15.5022611458775117 39.8692747573272612 28.6327538495249954
 -21.1394853318575109 39.8692747573272612 28.6327538495249954
 56.3719455954701161 37.4283211689214923 28.6327538495249954
 45.0975817814501099 37.4283211689214923 28.6327538495249954
 31.0045635954701204 37.4283211689214923 28.6327538495249954
 25.3674239674301170 37.4283211689214923 28.6327538495249954
 16.9116299674301196 37.4283211689214923 28.6327538495249954
 -14.0930185381557376 42.3103015750729767 28.6327538495249954
 -2.8185701661957374 42.3103015750729767 28.6327538495249954
  8.4557936478242581 42.3103015750729767 28.6327538495249954
 28.1859514618442688 42.3103015750729767 28.6327538495249954
 16.9115876071890092 47.1922087518845075 28.6327538495249954
 14.0930177931690217 47.1922087518845075 28.6327538495249954
 -2.8185702068309761 47.1922087518845075 28.6327538495249954
 -16.9115883928109767 47.1922087518845075 28.6327538495249954
 21.1395269064766467 44.7512551634787386 28.6327538495249954
 18.3208725345166314 44.7512551634787386 28.6327538495249954
 15.5023027204966439 44.7512551634787386 28.6327538495249954
 11.2744057814501097 37.4283211689214923 28.6327538495249954
  7.0465087204966403 44.7512551634787386 28.6327538495249954
 -4.2278550935233552 44.7512551634787386 28.6327538495249954
 -7.0465094654833562 44.7512551634787386 28.6327538495249954
 -18.3208732795033562 44.7512551634787386 28.6327538495249954
 53.5533334618442680 42.3103015750729767 28.6327538495249954
 47.9161938338042646 42.3103015750729767 28.6327538495249954
 45.0975394618442706 42.3103015750729767 28.6327538495249954
 39.4603998338042672 42.3103015750729767 28.6327538495249954
  4.2279389064766386 44.7512551634787386 28.6327538495249954
  5.6371815954701097 37.4283211689214923 28.6327538495249954
 60.5998848947577358 34.9873675805157234 28.6327538495249954
 57.7812305227977419 34.9873675805157234 28.6327538495249954
 15.5023028424035783 30.1053871743642461 28.6327538495249954
  4.2279390283835818 30.1053871743642461 28.6327538495249954
 -15.5023033435764184 30.1053871743642461 28.6327538495249954
 67.6463517697312113 27.6644335859584807 28.6327538495249954
 14.0930179557111952 27.6644335859584807 28.6327538495249954
  2.8185695837512008 27.6644335859584807 28.6327538495249954
 -0.0000002302687971 27.6644335859584807 28.6327538495249954
 40.8696848424035863 30.1053871743642461 28.6327538495249954
 -11.2743640442888005 27.6644335859584807 28.6327538495249954
 69.0556789760294407 25.2234067682127652 28.6327538495249954
 60.5998849760294434 25.2234067682127652 28.6327538495249954
 49.3255211620094371 25.2234067682127652 28.6327538495249954
 46.5068667900494361 25.2234067682127652 28.6327538495249954
 43.6882969760294344 25.2234067682127652 28.6327538495249954
 38.0510727900494388 25.2234067682127652 28.6327538495249954
 21.1394847900494298 25.2234067682127652 28.6327538495249954
 -14.0930184162487979 27.6644335859584807 28.6327538495249954
  4.2278967900494315 25.2234067682127652 28.6327538495249954
 46.5069090283835891 30.1053871743642461 28.6327538495249954
 -2.8185700849240374 32.5463407627700150 28.6327538495249954
 52.1440908947577384 34.9873675805157234 28.6327538495249954
 43.6882968947577410 34.9873675805157234 28.6327538495249954
 32.4138485227977426 34.9873675805157234 28.6327538495249954
 29.5952787087777267 34.9873675805157234 28.6327538495249954
 18.3209148947577418 34.9873675805157234 28.6327538495249954
 15.5022605227977337 34.9873675805157234 28.6327538495249954
 -4.2278972912222672 34.9873675805157234 28.6327538495249954
 -8.4557942709040379 32.5463407627700150 28.6327538495249954
 62.0092121010559580 32.5463407627700150 28.6327538495249954
 56.3719879150759695 32.5463407627700150 28.6327538495249954
 53.5534181010559607 32.5463407627700150 28.6327538495249954
 33.8231757290959649 32.5463407627700150 28.6327538495249954
 28.1860361010559650 32.5463407627700150 28.6327538495249954
 22.5488119150759623 32.5463407627700150 28.6327538495249954
 19.7302421010559677 32.5463407627700150 28.6327538495249954
 14.0930179150759578 32.5463407627700150 28.6327538495249954
 59.1905577290959641 32.5463407627700150 28.6327538495249954
 42.2789694040103896 71.6020375533019688 28.6327538495249954
