 H  O 
 1.0000000000000000
    84.5579400000000021    0.0000000000000000    0.0000000000000000
   -42.2789706095346958   73.2293399455724767    0.0000000000000000
     0.0000000000000000    0.0000000000000000   46.9039550000000034
 H   O  
 206 175
Cartesian
 16.9115879864549186  1.6273023922705114 28.1128704123049964
 -14.0930186871528367 60.2107743487284921 28.1128704123049964
 25.3673817426410437 30.9190383704995000 28.1128704123049964
 -22.5488126871528358 60.2107743487284921 28.1128704123049964
 39.4603999286210438 30.9190383704995000 28.1128704123049964
 -33.8231765011728385 60.2107743487284921 28.1128704123049964
 -15.5023456496371885 33.3600651882452155 28.1128704123049964
 -7.0465516496371885 33.3600651882452155 28.1128704123049964
 -4.2278972776771910 33.3600651882452155 28.1128704123049964
  1.4092423503628120 33.3600651882452155 28.1128704123049964
  7.0464665363428152 33.3600651882452155 28.1128704123049964
 12.6836907223228135 33.3600651882452155 28.1128704123049964
 -11.2743643151928357 60.2107743487284921 28.1128704123049964
 21.1394847223228126 33.3600651882452155 28.1128704123049964
 32.4138485363428117 33.3600651882452155 28.1128704123049964
 21.1394422401747804 57.7698207603227232 28.1128704123049964
 49.3254365363428136 33.3600651882452155 28.1128704123049964
 54.9626607223228163 33.3600651882452155 28.1128704123049964
 63.4184547223228137 33.3600651882452155 28.1128704123049964
 -11.2744063909848098 35.8010187766509844 28.1128704123049964
 25.3673394230351938 35.8010187766509844 28.1128704123049964
 31.0045636090151895 35.8010187766509844 28.1128704123049964
 12.6836482401747883 57.7698207603227232 28.1128704123049964
  4.2278542401747847 57.7698207603227232 28.1128704123049964
 45.0975817949951860 35.8010187766509844 28.1128704123049964
 26.7766243503628161 33.3600651882452155 28.1128704123049964
 -0.0000002573589589 30.9190383704995000 28.1128704123049964
 -5.6372246871528393 60.2107743487284921 28.1128704123049964
 -11.2743640713789581 30.9190383704995000 28.1128704123049964
  4.2278964785089341 62.6518011664742076 28.1128704123049964
 -1.4093277074710613 62.6518011664742076 28.1128704123049964
 23.9580546176145113 23.5961043759422537 28.1128704123049964
 40.8696426176145025 23.5961043759422537 28.1128704123049964
 43.6882969895745106 23.5961043759422537 28.1128704123049964
 49.3254366176144998 23.5961043759422537 28.1128704123049964
 -18.3209157074710660 62.6518011664742076 28.1128704123049964
 60.5998849895745124 23.5961043759422537 28.1128704123049964
 69.0556789895745169 23.5961043759422537 28.1128704123049964
 -2.8186545886837178 26.0371311936879657 28.1128704123049964
  2.8185695972962814 26.0371311936879657 28.1128704123049964
  8.4557937832762846 26.0371311936879657 28.1128704123049964
 31.0045634871082498 50.4468867657654769 28.1128704123049964
 16.9115877832762855 26.0371311936879657 28.1128704123049964
 42.2789694988271592 60.2107743487284921 28.1128704123049964
 28.1859515972962846 26.0371311936879657 28.1128704123049964
 33.8231757832762838 26.0371311936879657 28.1128704123049964
 25.3673814988271609 60.2107743487284921 28.1128704123049964
 -15.5023033300313369 28.4780847820937346 28.1128704123049964
 -4.2279395160113378 28.4780847820937346 28.1128704123049964
 15.5023028559486651 28.4780847820937346 28.1128704123049964
 23.9580968559486607 28.4780847820937346 28.1128704123049964
 52.1440486699686616 28.4780847820937346 28.1128704123049964
 60.5998426699686590 28.4780847820937346 28.1128704123049964
 66.2370668559486688 28.4780847820937346 28.1128704123049964
 -18.3209155042924259 38.2419723650567462 28.1128704123049964
 -7.0464671323324293 38.2419723650567462 28.1128704123049964
 -4.2279397598252162 57.7698207603227232 28.1128704123049964
 35.2324603042478444 72.4156887494372228 28.1128704123049964
 -16.9115883792659005 45.5649063596139996 28.1128704123049964
 -31.0046066465175976 55.3288671719169614 28.1128704123049964
 43.6882967457606384 52.8878403541712458 28.1128704123049964
 40.8696423738006303 52.8878403541712458 28.1128704123049964
  2.8185694347540982 45.5649063596139996 28.1128704123049964
 38.0510725597806356 52.8878403541712458 28.1128704123049964
 29.5952785597806276 52.8878403541712458 28.1128704123049964
 14.0930178067140996 45.5649063596139996 28.1128704123049964
 18.3209147457606356 52.8878403541712458 28.1128704123049964
 47.9161938067141051 45.5649063596139996 28.1128704123049964
 50.7347636207340997 45.5649063596139996 28.1128704123049964
  1.4093267457606342 52.8878403541712458 28.1128704123049964
 -26.7767095855641273 48.0059331773597151 28.1128704123049964
 -9.8651215855641290 48.0059331773597151 28.1128704123049964
 -7.0465517715441273 48.0059331773597151 28.1128704123049964
  9.8650362284558710 48.0059331773597151 28.1128704123049964
 -7.0464672542393672 52.8878403541712458 28.1128704123049964
 -15.5022612542393716 52.8878403541712458 28.1128704123049964
 38.0510726004158641 48.0059331773597151 28.1128704123049964
 -18.3209156261993691 52.8878403541712458 28.1128704123049964
 -23.9580552542393690 52.8878403541712458 28.1128704123049964
 50.7347213011282463 50.4468867657654769 28.1128704123049964
 -14.0929763269117494 50.4468867657654769 28.1128704123049964
 42.2789273011282489 50.4468867657654769 28.1128704123049964
  8.4557513011282524 50.4468867657654769 28.1128704123049964
 49.3254787340417238 43.1239527712082307 28.1128704123049964
 -7.0464670104254905 23.5961043759422537 28.1128704123049964
 -22.5488126465175966 55.3288671719169614 28.1128704123049964
 -2.8186548324975988 55.3288671719169614 28.1128704123049964
  9.8651208676675761 38.2419723650567462 28.1128704123049964
 -18.3208733878652161 57.7698207603227232 28.1128704123049964
 43.6882968676675674 38.2419723650567462 28.1128704123049964
 49.3254364957075708 38.2419723650567462 28.1128704123049964
 57.7812304957075682 38.2419723650567462 28.1128704123049964
 -14.0930185246106596 40.6829991828024689 28.1128704123049964
 28.1859513534823982 55.3288671719169614 28.1128704123049964
 -5.6372245246106605 40.6829991828024689 28.1128704123049964
 -0.0000003386306579 40.6829991828024689 28.1128704123049964
  5.6371392894093386 40.6829991828024689 28.1128704123049964
 16.9115876613693388 40.6829991828024689 28.1128704123049964
 22.5487272894093422 40.6829991828024689 28.1128704123049964
 25.3673816613693432 40.6829991828024689 28.1128704123049964
 25.3673815394624036 55.3288671719169614 28.1128704123049964
 11.2743633534824053 55.3288671719169614 28.1128704123049964
 42.2789696613693309 40.6829991828024689 28.1128704123049964
 50.7347636613693425 40.6829991828024689 28.1128704123049964
 53.5533334753893371 40.6829991828024689 28.1128704123049964
 -21.1395276379182775 43.1239527712082307 28.1128704123049964
 -15.5023034519382783 43.1239527712082307 28.1128704123049964
  4.2278543620817208 43.1239527712082307 28.1128704123049964
 12.6836483620817209 43.1239527712082307 28.1128704123049964
 26.7766665480617228 43.1239527712082307 28.1128704123049964
 29.5952363620817174 43.1239527712082307 28.1128704123049964
 35.2324605480617166 43.1239527712082307 28.1128704123049964
 40.8696847340417122 43.1239527712082307 28.1128704123049964
  9.8650361065489385 62.6518011664742076 28.1128704123049964
 -26.7767097074710669 62.6518011664742076 28.1128704123049964
 62.0091699169021311 21.1551507875364884 28.1128704123049964
 76.1021036668490609  6.5092827984219914 28.1128704123049964
 -5.6372247684245327 69.9747351610314468 28.1128704123049964
 -1.4093272604785494  8.9502363868277595 28.1128704123049964
  7.0464667395214500  8.9502363868277595 28.1128704123049964
 -22.5488127684245363 69.9747351610314468 28.1128704123049964
 -28.1860369544045355 69.9747351610314468 28.1128704123049964
 26.7767091114814519  8.9502363868277595 28.1128704123049964
 40.8696427395214528  8.9502363868277595 28.1128704123049964
 43.6882971114814538  8.9502363868277595 28.1128704123049964
 40.8696422518936870 67.5337083432857384 28.1128704123049964
 32.4138482518936897 67.5337083432857384 28.1128704123049964
  2.8185692315754580 69.9747351610314468 28.1128704123049964
 66.2370247395214449  8.9502363868277595 28.1128704123049964
  5.6371395332232206 11.3912632045734714 28.1128704123049964
 11.2743637192032189 11.3912632045734714 28.1128704123049964
 64.8277397309221328 21.1551507875364884 28.1128704123049964
 19.7301577192032234 11.3912632045734714 28.1128704123049964
 36.6417457192032217 11.3912632045734714 28.1128704123049964
 45.0975397192032190 11.3912632045734714 28.1128704123049964
 47.9161095332232136 11.3912632045734714 28.1128704123049964
 53.5533337192032164 11.3912632045734714 28.1128704123049964
 -18.3209157481063052 67.5337083432857384 28.1128704123049964
 70.4649217192032182 11.3912632045734714 28.1128704123049964
 -4.2279393941043990 13.8322167929792403 28.1128704123049964
 71.8742489255014476  8.9502363868277595 28.1128704123049964
 -26.7767097481063061 67.5337083432857384 28.1128704123049964
 50.7347216668490617  6.5092827984219914 28.1128704123049964
 36.6417880388090680  6.5092827984219914 28.1128704123049964
 28.1859518004749177  1.6273023922705114 28.1128704123049964
 36.6417458004749221  1.6273023922705114 28.1128704123049964
 26.7766663042478434 72.4156887494372228 28.1128704123049964
 47.9161941724349276  1.6273023922705114 28.1128704123049964
 62.0091278004749142  1.6273023922705114 28.1128704123049964
 -9.8650795097721549 72.4156887494372228 28.1128704123049964
 67.6463519864549170  1.6273023922705114 28.1128704123049964
 78.9207158004749090  1.6273023922705114 28.1128704123049964
 -15.5023036957521541 72.4156887494372228 28.1128704123049964
  9.8650365941766900  4.0683292100162243 28.1128704123049964
 -26.7766675097721567 72.4156887494372228 28.1128704123049964
 14.0929330455954638 69.9747351610314468 28.1128704123049964
 15.5022607801566892  4.0683292100162243 28.1128704123049964
 40.8696427801566955  4.0683292100162243 28.1128704123049964
 49.3254367801566929  4.0683292100162243 28.1128704123049964
 54.9626609661366956  4.0683292100162243 28.1128704123049964
 57.7812307801566902  4.0683292100162243 28.1128704123049964
 60.5998005941766849  4.0683292100162243 28.1128704123049964
 -35.2324615097721576 72.4156887494372228 28.1128704123049964
 74.6928187801566850  4.0683292100162243 28.1128704123049964
  2.8186120388090696  6.5092827984219914 28.1128704123049964
  8.4557516668490695  6.5092827984219914 28.1128704123049964
 11.2744060388090670  6.5092827984219914 28.1128704123049964
 28.1859940388090742  6.5092827984219914 28.1128704123049964
 23.9580547801566937  4.0683292100162243 28.1128704123049964
 15.5023029778556030 13.8322167929792403 28.1128704123049964
 25.3673393011282471 50.4468867657654769 28.1128704123049964
 52.1440064722697443 18.7141971991307194 28.1128704123049964
 14.0929757309221344 21.1551507875364884 28.1128704123049964
 35.2324181065489270 62.6518011664742076 28.1128704123049964
  5.6371817309221299 21.1551507875364884 28.1128704123049964
 25.3673391792213039 65.0927547548799765 28.1128704123049964
 -5.6371824488186855 65.0927547548799765 28.1128704123049964
 28.1859516785679780 16.2731703813850075 28.1128704123049964
 60.5998004722697488 18.7141971991307194 28.1128704123049964
 -31.0045644488186873 65.0927547548799765 28.1128704123049964
 22.5487693652013093 65.0927547548799765 28.1128704123049964
 36.6417456785679860 16.2731703813850075 28.1128704123049964
 45.0975396785679763 16.2731703813850075 28.1128704123049964
 16.9115451792213065 65.0927547548799765 28.1128704123049964
 -0.0000428207786890 65.0927547548799765 28.1128704123049964
 56.3719880505279747 16.2731703813850075 28.1128704123049964
 69.0555944722697461 18.7141971991307194 28.1128704123049964
 -22.5487704488186900 65.0927547548799765 28.1128704123049964
 66.2370246582497515 18.7141971991307194 28.1128704123049964
 70.4649216785679755 16.2731703813850075 28.1128704123049964
 74.6928609778556023 13.8322167929792403 28.1128704123049964
 -7.0465515277302488 18.7141971991307194 28.1128704123049964
 19.7301999169021336 21.1551507875364884 28.1128704123049964
 29.5952784785089271 62.6518011664742076 28.1128704123049964
 32.4138486582497549 18.7141971991307194 28.1128704123049964
 23.9580546582497540 18.7141971991307194 28.1128704123049964
 -14.0929764488186855 65.0927547548799765 28.1128704123049964
 63.4184126058955968 13.8322167929792403 28.1128704123049964
 -38.0510735621263052 67.5337083432857384 28.1128704123049964
 -0.0000001354520196 16.2731703813850075 28.1128704123049964
 -32.4138493761463025 67.5337083432857384 28.1128704123049964
 40.8696849778556057 13.8322167929792403 28.1128704123049964
 23.9580969778556039 13.8322167929792403 28.1128704123049964
  1.4092424722697507 18.7141971991307194 28.1128704123049964
 32.4138909778556012 13.8322167929792403 28.1128704123049964
  7.0464666582497495 18.7141971991307194 28.1128704123049964
 28.1859936595431719 52.0741891580359919 28.6327538495249954
 32.4138905985897026 59.3971231525932382 28.6327538495249954
 -28.1859946483437653 66.7200571471504844 28.6327538495249954
 -19.7301584100096186 71.6020375533019688 28.6327538495249954
 14.0929754735631594 52.0741891580359919 28.6327538495249954
 -35.2325037210161440 64.2791035587447084 28.6327538495249954
 -26.7766250818044469 54.5151427464417537 28.6327538495249954
 -2.8186125264368322 52.0741891580359919 28.6327538495249954
 39.4603996712620955 61.8380767409990000 28.6327538495249954
 -11.2744065264368292 52.0741891580359919 28.6327538495249954
 -2.8185703287379194 61.8380767409990000 28.6327538495249954
  8.4557934040103735 71.6020375533019688 28.6327538495249954
 -28.1859945264368292 52.0741891580359919 28.6327538495249954
 19.7302418572420777 61.8380767409990000 28.6327538495249954
 14.0930176712620749 61.8380767409990000 28.6327538495249954
 31.0046055899903834 71.6020375533019688 28.6327538495249954
 40.8696424008908039 49.6332355696302230 28.6327538495249954
 33.8231754040103922 71.6020375533019688 28.6327538495249954
 -31.0046067819696169 71.6020375533019688 28.6327538495249954
 -39.4604007819696179 71.6020375533019688 28.6327538495249954
  9.8651207322155532 54.5151427464417537 28.6327538495249954
 23.9581387962886225 69.1610107355562462 28.6327538495249954
 36.6417453399373301 56.9561695641874692 28.6327538495249954
 -22.5487704623637697 66.7200571471504844 28.6327538495249954
 16.9115875259173158 56.9561695641874692 28.6327538495249954
 47.9161937118973214 56.9561695641874692 28.6327538495249954
  8.4557935259173256 56.9561695641874692 28.6327538495249954
 43.6882966509438617 64.2791035587447084 28.6327538495249954
  5.6371813516562215 66.7200571471504844 28.6327538495249954
 50.7347635259173302 56.9561695641874692 28.6327538495249954
 -0.0000004740826793 56.9561695641874692 28.6327538495249954
 -8.4557944740826727 56.9561695641874692 28.6327538495249954
 -29.5952372154302985 59.3971231525932382 28.6327538495249954
 28.1859935376362323 66.7200571471504844 28.6327538495249954
 -14.0930186600626755 56.9561695641874692 28.6327538495249954
 26.7767086509438528 64.2791035587447084 28.6327538495249954
 -22.5488126600626764 56.9561695641874692 28.6327538495249954
 49.3255209181955507 54.5151427464417537 28.6327538495249954
 36.6417875376362474 66.7200571471504844 28.6327538495249954
  9.8650784126096909 59.3971231525932382 28.6327538495249954
 18.3209146103086198 69.1610107355562462 28.6327538495249954
 -9.8651217210161430 64.2791035587447084 28.6327538495249954
 -1.4092430818044526 54.5151427464417537 28.6327538495249954
  7.0465085985897025 59.3971231525932382 28.6327538495249954
 31.0046057118973302 56.9561695641874692 28.6327538495249954
 29.5953207845697079 59.3971231525932382 28.6327538495249954
 -1.4092432037113782 69.1610107355562462 28.6327538495249954
  1.4092844126096999 59.3971231525932382 28.6327538495249954
 23.9581389181955480 54.5151427464417537 28.6327538495249954
 -7.0464673896913883 69.1610107355562462 28.6327538495249954
 -1.4092854014103018 59.3971231525932382 28.6327538495249954
 -12.6836915756713875 69.1610107355562462 28.6327538495249954
 43.6882967322155622 54.5151427464417537 28.6327538495249954
  4.2279387845697078 59.3971231525932382 28.6327538495249954
 11.2744055376362251 66.7200571471504844 28.6327538495249954
  5.6371815954701097 37.4283211689214923 28.6327538495249954
 12.6836905868707941 49.6332355696302230 28.6327538495249954
 19.7301577056581365 13.0185655968439828 28.6327538495249954
 45.0975397056581500 13.0185655968439828 28.6327538495249954
 59.1905578916381430 13.0185655968439828 28.6327538495249954
 67.6463518916381474 13.0185655968439828 28.6327538495249954
  4.2279391502905188 15.4595191852497500 28.6327538495249954
 12.6837331502905215 15.4595191852497500 28.6327538495249954
 32.4138909643105251 15.4595191852497500 28.6327538495249954
 49.3254789643105269 15.4595191852497500 28.6327538495249954
 52.1440487783305286 15.4595191852497500 28.6327538495249954
 71.8742911502905173 15.4595191852497500 28.6327538495249954
 -2.8185699630171004 17.9004727736555189 28.6327538495249954
 16.9115878510028992 17.9004727736555189 28.6327538495249954
 -0.0000001083618602 13.0185655968439828 28.6327538495249954
 56.3719880369828985 17.9004727736555189 28.6327538495249954
 73.2835760369829075 17.9004727736555189 28.6327538495249954
 -4.2278971693153311 20.3414995914012344 28.6327538495249954
  9.8651210166646699 20.3414995914012344 28.6327538495249954
 38.0510728306846602 20.3414995914012344 28.6327538495249954
 40.8696426447046761 20.3414995914012344 28.6327538495249954
 46.5068668306846718 20.3414995914012344 28.6327538495249954
 -11.2744062826229499 22.7824531798069998 28.6327538495249954
  0.0000420893370479 22.7824531798069998 28.6327538495249954
  5.6371817173770493 22.7824531798069998 28.6327538495249954
 31.0045637173770388 22.7824531798069998 28.6327538495249954
 53.5533759033570504 22.7824531798069998 28.6327538495249954
 12.6836907900494289 25.2234067682127652 28.6327538495249954
 62.0092122229629013 17.9004727736555189 28.6327538495249954
 21.1394847900494298 25.2234067682127652 28.6327538495249954
 77.5114730979363742 10.5775387790982709 28.6327538495249954
 29.5952789119563668 10.5775387790982709 28.6327538495249954
 21.1395272721974621  0.8136511961352557 28.6327538495249954
 23.9580970862174638  0.8136511961352557 28.6327538495249954
 43.6882549002374461  0.8136511961352557 28.6327538495249954
 57.7812730862174604  0.8136511961352557 28.6327538495249954
 66.2370670862174649  0.8136511961352557 28.6327538495249954
 -0.0000000270901599  3.2546047845410229 28.6327538495249954
  5.6372241588898389  3.2546047845410229 28.6327538495249954
 14.0930181588898407  3.2546047845410229 28.6327538495249954
 19.7302423448698399  3.2546047845410229 28.6327538495249954
 70.4650063448698489  3.2546047845410229 28.6327538495249954
 76.1021459729098524  3.2546047845410229 28.6327538495249954
  7.0464667666116103  5.6956316022867357 28.6327538495249954
 69.0556790979363768 10.5775387790982709 28.6327538495249954
 32.4138487666116077  5.6956316022867357 28.6327538495249954
 69.0556791385716195  5.6956316022867357 28.6327538495249954
 71.8742489525916284  5.6956316022867357 28.6327538495249954
 80.3300429525916257  5.6956316022867357 28.6327538495249954
  2.8186120252639890  8.1365851906925037 28.6327538495249954
 11.2744060252639908  8.1365851906925037 28.6327538495249954
 16.9116302112439918  8.1365851906925037 28.6327538495249954
 22.5487698392839881  8.1365851906925037 28.6327538495249954
 50.7348062112439848  8.1365851906925037 28.6327538495249954
 56.3719458392839954  8.1365851906925037 28.6327538495249954
 62.0091700252639910  8.1365851906925037 28.6327538495249954
  1.4093270979363695 10.5775387790982709 28.6327538495249954
 15.5023452839163713 10.5775387790982709 28.6327538495249954
 46.5068669525916008  5.6956316022867357 28.6327538495249954
 21.1394845868707826 49.6332355696302230 28.6327538495249954
 38.0510727900494388 25.2234067682127652 28.6327538495249954
 63.4184547900494380 25.2234067682127652 28.6327538495249954
 32.4139330401024850 39.8692747573272612 28.6327538495249954
 38.0510726681424956 39.8692747573272612 28.6327538495249954
 -16.9115883521757375 42.3103015750729767 28.6327538495249954
  8.4557936478242581 42.3103015750729767 28.6327538495249954
 39.4603998338042672 42.3103015750729767 28.6327538495249954
 47.9161938338042646 42.3103015750729767 28.6327538495249954
 59.1905576478242708 42.3103015750729767 28.6327538495249954
 -12.6836490935233588 44.7512551634787386 28.6327538495249954
 -7.0465094654833562 44.7512551634787386 28.6327538495249954
 -1.4092852795033535 44.7512551634787386 28.6327538495249954
  7.0465087204966403 44.7512551634787386 28.6327538495249954
  9.8650785345166412 44.7512551634787386 28.6327538495249954
 26.7767088541224823 39.8692747573272612 28.6327538495249954
 18.3208725345166314 44.7512551634787386 28.6327538495249954
 43.6882545345166520 44.7512551634787386 28.6327538495249954
 52.1440485345166493 44.7512551634787386 28.6327538495249954
 -22.5487280208509766 47.1922087518845075 28.6327538495249954
 11.2744479791490271 47.1922087518845075 28.6327538495249954
 28.1860359791490147 47.1922087518845075 28.6327538495249954
 33.8231756071890288 47.1922087518845075 28.6327538495249954
 42.2789696071890333 47.1922087518845075 28.6327538495249954
 47.9161937931690360 47.1922087518845075 28.6327538495249954
 53.5534179791490246 47.1922087518845075 28.6327538495249954
 -15.5022612271492086 49.6332355696302230 28.6327538495249954
 -4.2278974131292042 49.6332355696302230 28.6327538495249954
  4.2278965868707896 49.6332355696302230 28.6327538495249954
 23.9580967204966342 44.7512551634787386 28.6327538495249954
 54.9626607900494406 25.2234067682127652 28.6327538495249954
 -9.8650369598975125 39.8692747573272612 28.6327538495249954
 53.5533757814501215 37.4283211689214923 28.6327538495249954
 -8.4557942302688005 27.6644335859584807 28.6327538495249954
 19.7301575837512004 27.6644335859584807 28.6327538495249954
 42.2789697697312050 27.6644335859584807 28.6327538495249954
 47.9161939557112078 27.6644335859584807 28.6327538495249954
 56.3719879557112051 27.6644335859584807 28.6327538495249954
 -1.4092851575964171 30.1053871743642461 28.6327538495249954
  4.2279390283835818 30.1053871743642461 28.6327538495249954
  9.8650786564235791 30.1053871743642461 28.6327538495249954
 29.5953210283835837 30.1053871743642461 28.6327538495249954
 35.2324606564235907 30.1053871743642461 28.6327538495249954
 52.1440486564235925 30.1053871743642461 28.6327538495249954
 -16.9115882709040370 32.5463407627700150 28.6327538495249954
 62.0091697814501188 37.4283211689214923 28.6327538495249954
 -11.2743640849240396 32.5463407627700150 28.6327538495249954
 22.5488119150759623 32.5463407627700150 28.6327538495249954
 45.0976241010559633 32.5463407627700150 28.6327538495249954
 59.1905577290959641 32.5463407627700150 28.6327538495249954
 35.2325028947577295 34.9873675805157234 28.6327538495249954
 40.8696425227977400 34.9873675805157234 28.6327538495249954
 43.6882968947577410 34.9873675805157234 28.6327538495249954
 -16.9115460325698876 37.4283211689214923 28.6327538495249954
 -2.8186124045298877 37.4283211689214923 28.6327538495249954
  2.8186117814501150 37.4283211689214923 28.6327538495249954
 14.0929755954701115 37.4283211689214923 28.6327538495249954
 19.7301997814501142 37.4283211689214923 28.6327538495249954
 47.9161515954701187 37.4283211689214923 28.6327538495249954
 16.9115877290959595 32.5463407627700150 28.6327538495249954
 39.4603995899903808 71.6020375533019688 28.6327538495249954
