 H  O 
 1.0000000000000000
    84.5579400000000021    0.0000000000000000    0.0000000000000000
   -42.2789706095346958   73.2293399455724767    0.0000000000000000
     0.0000000000000000    0.0000000000000000   46.9039550000000034
 H   O  
 201 175
Cartesian
 26.7766663042478434 72.4156887494372228 28.1128704123049964
  8.4557937426410454 30.9190383704995000 28.1128704123049964
 -2.8185703151928343 60.2107743487284921 28.1128704123049964
 16.9115877426410464 30.9190383704995000 28.1128704123049964
 -5.6372246871528393 60.2107743487284921 28.1128704123049964
 22.5488119286210420 30.9190383704995000 28.1128704123049964
 25.3673817426410437 30.9190383704995000 28.1128704123049964
 -8.4557945011728339 60.2107743487284921 28.1128704123049964
 31.0046059286210465 30.9190383704995000 28.1128704123049964
 33.8231757426410411 30.9190383704995000 28.1128704123049964
 39.4603999286210438 30.9190383704995000 28.1128704123049964
 45.0975395566610331 30.9190383704995000 28.1128704123049964
 -0.0000005011728327 60.2107743487284921 28.1128704123049964
 -14.0930186871528367 60.2107743487284921 28.1128704123049964
 -33.8231765011728385 60.2107743487284921 28.1128704123049964
 21.1394422401747804 57.7698207603227232 28.1128704123049964
 29.5952787223228171 33.3600651882452155 28.1128704123049964
 52.1440063503628082 33.3600651882452155 28.1128704123049964
 63.4184547223228137 33.3600651882452155 28.1128704123049964
 -19.7302003909848089 35.8010187766509844 28.1128704123049964
 -11.2744063909848098 35.8010187766509844 28.1128704123049964
 -5.6371822050048115 35.8010187766509844 28.1128704123049964
 11.2744057949951930 35.8010187766509844 28.1128704123049964
 -21.1395277598252136 57.7698207603227232 28.1128704123049964
 25.3673394230351938 35.8010187766509844 28.1128704123049964
 -16.9115885011728366 60.2107743487284921 28.1128704123049964
 33.8231334230351877 35.8010187766509844 28.1128704123049964
 -0.0000002573589589 30.9190383704995000 28.1128704123049964
  5.6372236848071626 60.2107743487284921 28.1128704123049964
 38.0510724785089351 62.6518011664742076 28.1128704123049964
 29.5952784785089271 62.6518011664742076 28.1128704123049964
 23.9580542925289315 62.6518011664742076 28.1128704123049964
 29.5952788035945140 23.5961043759422537 28.1128704123049964
 21.1394844785089369 62.6518011664742076 28.1128704123049964
 38.0510728035945078 23.5961043759422537 28.1128704123049964
 43.6882969895745106 23.5961043759422537 28.1128704123049964
 -21.1394855214910677 62.6518011664742076 28.1128704123049964
 52.1440909895745008 23.5961043759422537 28.1128704123049964
 63.4184548035945070 23.5961043759422537 28.1128704123049964
 -29.5952795214910651 62.6518011664742076 28.1128704123049964
 -2.8185700713789608 30.9190383704995000 28.1128704123049964
 45.0975393128471538 60.2107743487284921 28.1128704123049964
 11.2743635972962863 26.0371311936879657 28.1128704123049964
 25.3673817832762829 26.0371311936879657 28.1128704123049964
 31.0045214113162864 26.0371311936879657 28.1128704123049964
 47.9161094113162704 26.0371311936879657 28.1128704123049964
 56.3719034113162749 26.0371311936879657 28.1128704123049964
 -15.5023033300313369 28.4780847820937346 28.1128704123049964
 -7.0465093300313377 28.4780847820937346 28.1128704123049964
 18.3208726699686650 28.4780847820937346 28.1128704123049964
 14.0930176848071671 60.2107743487284921 28.1128704123049964
 11.2743633128471661 60.2107743487284921 28.1128704123049964
 60.5998426699686590 28.4780847820937346 28.1128704123049964
  5.6371394113162827 26.0371311936879657 28.1128704123049964
 -12.6836911964054888 23.5961043759422537 28.1128704123049964
 -29.5953217598252145 57.7698207603227232 28.1128704123049964
 42.2789695394624090 55.3288671719169614 28.1128704123049964
 49.3254787340417238 43.1239527712082307 28.1128704123049964
 -1.4093276261993704 52.8878403541712458 28.1128704123049964
 -4.2278974402193654 52.8878403541712458 28.1128704123049964
 57.7812727340417212 43.1239527712082307 28.1128704123049964
 -22.5488125652458997 45.5649063596139996 28.1128704123049964
 -9.8651216261993682 52.8878403541712458 28.1128704123049964
 -14.0930185652459006 45.5649063596139996 28.1128704123049964
 -12.6836914402193699 52.8878403541712458 28.1128704123049964
 -5.6372245652458988 45.5649063596139996 28.1128704123049964
  5.6372238067141032 45.5649063596139996 28.1128704123049964
 19.7301574347541049 45.5649063596139996 28.1128704123049964
 40.8696847340417122 43.1239527712082307 28.1128704123049964
 25.3673816207341005 45.5649063596139996 28.1128704123049964
 -18.3209156261993691 52.8878403541712458 28.1128704123049964
 -23.9580552542393690 52.8878403541712458 28.1128704123049964
 -26.7767095855641273 48.0059331773597151 28.1128704123049964
 -12.6836913995841307 48.0059331773597151 28.1128704123049964
 -4.2278973995841262 48.0059331773597151 28.1128704123049964
 -1.4093275855641247 48.0059331773597151 28.1128704123049964
 -29.5952794402193682 52.8878403541712458 28.1128704123049964
 36.6417876730882455 50.4468867657654769 28.1128704123049964
 43.6882122284558676 48.0059331773597151 28.1128704123049964
 49.3254364144358703 48.0059331773597151 28.1128704123049964
 22.5487694871082525 50.4468867657654769 28.1128704123049964
 31.0046058067141033 45.5649063596139996 28.1128704123049964
 42.2789274230351850 35.8010187766509844 28.1128704123049964
 32.4138907340417219 43.1239527712082307 28.1128704123049964
 12.6836905597806329 52.8878403541712458 28.1128704123049964
 23.9580964902278346 72.4156887494372228 28.1128704123049964
 62.0091697949951950 35.8010187766509844 28.1128704123049964
 33.8231755394623974 55.3288671719169614 28.1128704123049964
  4.2278966816875769 38.2419723650567462 28.1128704123049964
  9.8651208676675761 38.2419723650567462 28.1128704123049964
 12.6836906816875779 38.2419723650567462 28.1128704123049964
 21.1394846816875770 38.2419723650567462 28.1128704123049964
 29.5952786816875744 38.2419723650567462 28.1128704123049964
 49.3254364957075708 38.2419723650567462 28.1128704123049964
 54.9626606816875736 38.2419723650567462 28.1128704123049964
 25.3673815394624036 55.3288671719169614 28.1128704123049964
  7.0464663738006301 52.8878403541712458 28.1128704123049964
 -16.9115883386306614 40.6829991828024689 28.1128704123049964
 -8.4557943386306622 40.6829991828024689 28.1128704123049964
  5.6371391675024016 55.3288671719169614 28.1128704123049964
 -28.1860368324975958 55.3288671719169614 28.1128704123049964
 46.5068665597806330 52.8878403541712458 28.1128704123049964
 39.4603152894093299 40.6829991828024689 28.1128704123049964
 47.9161092894093343 40.6829991828024689 28.1128704123049964
 59.1905576613693398 40.6829991828024689 28.1128704123049964
 -1.4092852659582757 43.1239527712082307 28.1128704123049964
 18.3209147457606356 52.8878403541712458 28.1128704123049964
 12.6836483620817209 43.1239527712082307 28.1128704123049964
 15.5023027340417219 43.1239527712082307 28.1128704123049964
 19.7301573534824009 55.3288671719169614 28.1128704123049964
 40.8696422925289298 62.6518011664742076 28.1128704123049964
 -2.8186545886837178 26.0371311936879657 28.1128704123049964
 46.5068664785089325 62.6518011664742076 28.1128704123049964
 -2.8186549544045376 69.9747351610314468 28.1128704123049964
 18.3209151114814510  8.9502363868277595 28.1128704123049964
 26.7767091114814519  8.9502363868277595 28.1128704123049964
 32.4138487395214483  8.9502363868277595 28.1128704123049964
 40.8696427395214528  8.9502363868277595 28.1128704123049964
 46.5068669255014484  8.9502363868277595 28.1128704123049964
 -31.0046067684245337 69.9747351610314468 28.1128704123049964
 -33.8231765824445318 69.9747351610314468 28.1128704123049964
 74.6928187395214422  8.9502363868277595 28.1128704123049964
 -39.4604007684245346 69.9747351610314468 28.1128704123049964
 -5.6372242807967794 11.3912632045734714 28.1128704123049964
  2.8185697192032206 11.3912632045734714 28.1128704123049964
 14.0929335332232206 11.3912632045734714 28.1128704123049964
 50.7347639051832218 11.3912632045734714 28.1128704123049964
 21.1394844378736906 67.5337083432857384 28.1128704123049964
 56.3719457309221283 21.1551507875364884 28.1128704123049964
 62.0091277192032209 11.3912632045734714 28.1128704123049964
 67.6463519051832236 11.3912632045734714 28.1128704123049964
 18.3209146238536960 67.5337083432857384 28.1128704123049964
  1.4092847918756004 13.8322167929792403 28.1128704123049964
 -7.0464673761463033 67.5337083432857384 28.1128704123049964
  9.8650787918756002 13.8322167929792403 28.1128704123049964
 -15.5022613761463042 67.5337083432857384 28.1128704123049964
 76.1021036668490609  6.5092827984219914 28.1128704123049964
 50.7347216668490617  6.5092827984219914 28.1128704123049964
  5.6371390455954664 69.9747351610314468 28.1128704123049964
 22.5487698528290750  6.5092827984219914 28.1128704123049964
  5.6372241724349186  1.6273023922705114 28.1128704123049964
 16.9115879864549186  1.6273023922705114 28.1128704123049964
 18.3208723042478390 72.4156887494372228 28.1128704123049964
 25.3673819864549230  1.6273023922705114 28.1128704123049964
 31.0046061724349222  1.6273023922705114 28.1128704123049964
 12.6836481182678362 72.4156887494372228 28.1128704123049964
  9.8650783042478416 72.4156887494372228 28.1128704123049964
 -7.0465096957521522 72.4156887494372228 28.1128704123049964
 50.7347639864549222  1.6273023922705114 28.1128704123049964
 78.9207158004749090  1.6273023922705114 28.1128704123049964
 -23.9580976957521585 72.4156887494372228 28.1128704123049964
 18.3208727918756047 13.8322167929792403 28.1128704123049964
  1.4092425941766900  4.0683292100162243 28.1128704123049964
 35.2324185941766927  4.0683292100162243 28.1128704123049964
 39.4603150455954648 69.9747351610314468 28.1128704123049964
 43.6882125941766972  4.0683292100162243 28.1128704123049964
 33.8231754175554755 69.9747351610314468 28.1128704123049964
 57.7812307801566902  4.0683292100162243 28.1128704123049964
 25.3673814175554639 69.9747351610314468 28.1128704123049964
 66.2370247801566876  4.0683292100162243 28.1128704123049964
 71.8742489661366903  4.0683292100162243 28.1128704123049964
 -0.0000423331509293  6.5092827984219914 28.1128704123049964
  5.6371818528290705  6.5092827984219914 28.1128704123049964
 14.0929758528290687  6.5092827984219914 28.1128704123049964
 26.7766245941766883  4.0683292100162243 28.1128704123049964
 21.1394426058955993 13.8322167929792403 28.1128704123049964
  2.8186116730882564 50.4468867657654769 28.1128704123049964
 -21.1394855621263069 67.5337083432857384 28.1128704123049964
  5.6371817309221299 21.1551507875364884 28.1128704123049964
 36.6417456785679860 16.2731703813850075 28.1128704123049964
 16.9115451792213065 65.0927547548799765 28.1128704123049964
 -11.2744066347986838 65.0927547548799765 28.1128704123049964
 53.5533336785679737 16.2731703813850075 28.1128704123049964
 59.1905578645479835 16.2731703813850075 28.1128704123049964
 -0.0000424550578693 21.1551507875364884 28.1128704123049964
 22.5488120505279817 16.2731703813850075 28.1128704123049964
 -25.3674248207786874 65.0927547548799765 28.1128704123049964
  8.4557511792213162 65.0927547548799765 28.1128704123049964
  9.8650364722697521 18.7141971991307194 28.1128704123049964
 -8.4558364550578684 21.1551507875364884 28.1128704123049964
 71.8742488442297542 18.7141971991307194 28.1128704123049964
 69.0555944722697461 18.7141971991307194 28.1128704123049964
 18.3208304722697477 18.7141971991307194 28.1128704123049964
 26.7766244722697486 18.7141971991307194 28.1128704123049964
 67.6463518645479809 16.2731703813850075 28.1128704123049964
 14.0930180505279825 16.2731703813850075 28.1128704123049964
 47.9161940505279844 16.2731703813850075 28.1128704123049964
 40.8696426582497523 18.7141971991307194 28.1128704123049964
 -29.5952795621263043 67.5337083432857384 28.1128704123049964
 -36.6417886347986865 65.0927547548799765 28.1128704123049964
 14.0929757309221344 21.1551507875364884 28.1128704123049964
 47.9161517309221239 21.1551507875364884 28.1128704123049964
 33.8231335449421309 21.1551507875364884 28.1128704123049964
 25.3673395449421299 21.1551507875364884 28.1128704123049964
 36.6417879169021319 21.1551507875364884 28.1128704123049964
 25.3673391792213039 65.0927547548799765 28.1128704123049964
 71.8742066058955942 13.8322167929792403 28.1128704123049964
 -8.4557941354520185 16.2731703813850075 28.1128704123049964
 22.5487697309221353 21.1551507875364884 28.1128704123049964
 52.1440487918755977 13.8322167929792403 28.1128704123049964
 29.5952366058956002 13.8322167929792403 28.1128704123049964
  2.8186116595431669 52.0741891580359919 28.6327538495249954
 -5.6371823404568273 52.0741891580359919 28.6327538495249954
 -15.5022613490561429 64.2791035587447084 28.6327538495249954
 35.2324604126097114 59.3971231525932382 28.6327538495249954
 40.8696845985897141 59.3971231525932382 28.6327538495249954
 29.5952784243286260 69.1610107355562462 28.6327538495249954
 18.3209147728507951 49.6332355696302230 28.6327538495249954
 22.5488115899903860 71.6020375533019688 28.6327538495249954
 -28.1859945264368292 52.0741891580359919 28.6327538495249954
 12.6836905868707941 49.6332355696302230 28.6327538495249954
 26.7767087728507853 49.6332355696302230 28.6327538495249954
 -14.0929763404568273 52.0741891580359919 28.6327538495249954
 -25.3673825147179137 61.8380767409990000 28.6327538495249954
 32.4138484008907994 49.6332355696302230 28.6327538495249954
 -32.4138493490561430 64.2791035587447084 28.6327538495249954
 -19.7301584100096186 71.6020375533019688 28.6327538495249954
 -14.0930187819696204 71.6020375533019688 28.6327538495249954
 -18.3209157210161457 64.2791035587447084 28.6327538495249954
 -28.1859524100096195 71.6020375533019688 28.6327538495249954
  1.4093266103086164 69.1610107355562462 28.6327538495249954
 -7.0464673490561447 64.2791035587447084 28.6327538495249954
 11.2743633399373131 56.9561695641874692 28.6327538495249954
 47.9161937118973214 56.9561695641874692 28.6327538495249954
  8.4557935259173256 56.9561695641874692 28.6327538495249954
 -36.6417886483437698 66.7200571471504844 28.6327538495249954
  2.8185693399373224 56.9561695641874692 28.6327538495249954
 -2.8185702881026811 56.9561695641874692 28.6327538495249954
 -5.6372246600626781 56.9561695641874692 28.6327538495249954
 -11.2743642881026744 56.9561695641874692 28.6327538495249954
 26.7767086509438528 64.2791035587447084 28.6327538495249954
 -16.9115884740826736 56.9561695641874692 28.6327538495249954
 21.1394844649638500 64.2791035587447084 28.6327538495249954
 31.0045633516562411 66.7200571471504844 28.6327538495249954
 36.6417875376362474 66.7200571471504844 28.6327538495249954
 38.0510725462355595 54.5151427464417537 28.6327538495249954
 15.5023447962886092 69.1610107355562462 28.6327538495249954
 42.2790117236162359 66.7200571471504844 28.6327538495249954
 29.5952785462355585 54.5151427464417537 28.6327538495249954
 12.6836904649638509 64.2791035587447084 28.6327538495249954
 23.9581389181955480 54.5151427464417537 28.6327538495249954
 -9.8650372037113900 69.1610107355562462 28.6327538495249954
  4.2278964649638544 64.2791035587447084 28.6327538495249954
 -1.4093277210161486 64.2791035587447084 28.6327538495249954
 50.7348058455231694 52.0741891580359919 28.6327538495249954
 18.3208724126097096 59.3971231525932382 28.6327538495249954
 26.7766664126097069 59.3971231525932382 28.6327538495249954
 42.2790118455231720 52.0741891580359919 28.6327538495249954
 14.0930177118973283 56.9561695641874692 28.6327538495249954
 32.4138905985897026 59.3971231525932382 28.6327538495249954
 19.7301996595431604 52.0741891580359919 28.6327538495249954
  9.8651206103086064 69.1610107355562462 28.6327538495249954
 -26.7766252037113830 69.1610107355562462 28.6327538495249954
 -25.3673824740826745 56.9561695641874692 28.6327538495249954
  1.4092849002374601  0.8136511961352557 28.6327538495249954
 -12.6836914131292051 49.6332355696302230 28.6327538495249954
 33.8231758916381438 13.0185655968439828 28.6327538495249954
 39.4604000776181465 13.0185655968439828 28.6327538495249954
 47.9161940776181368 13.0185655968439828 28.6327538495249954
 56.3719880776181483 13.0185655968439828 28.6327538495249954
 -4.2278548497094786 15.4595191852497500 28.6327538495249954
 43.6882547783305313 15.4595191852497500 28.6327538495249954
 63.4184971502905270 15.4595191852497500 28.6327538495249954
 69.0556367783305234 15.4595191852497500 28.6327538495249954
  2.8186542229628988 17.9004727736555189 28.6327538495249954
 11.2744482229629011 17.9004727736555189 28.6327538495249954
 22.5488120369828984 17.9004727736555189 28.6327538495249954
 31.0046060369829029 17.9004727736555189 28.6327538495249954
 25.3673818916381357 13.0185655968439828 28.6327538495249954
 50.7347638510029029 17.9004727736555189 28.6327538495249954
 -4.2278971693153311 20.3414995914012344 28.6327538495249954
 38.0510728306846602 20.3414995914012344 28.6327538495249954
 40.8696426447046761 20.3414995914012344 28.6327538495249954
 54.9626608306846691 20.3414995914012344 28.6327538495249954
 60.5998850166646719 20.3414995914012344 28.6327538495249954
  2.8186119033570516 22.7824531798069998 28.6327538495249954
  8.4558360893370512 22.7824531798069998 28.6327538495249954
 28.1859939033570512 22.7824531798069998 28.6327538495249954
 33.8232180893370540 22.7824531798069998 28.6327538495249954
 47.9161517173770548 22.7824531798069998 28.6327538495249954
 67.6463940893370506 22.7824531798069998 28.6327538495249954
 -7.0464670239705693 25.2234067682127652 28.6327538495249954
 73.2835760369829075 17.9004727736555189 28.6327538495249954
 16.9115878916381419 13.0185655968439828 28.6327538495249954
  5.6372240776181393 13.0185655968439828 28.6327538495249954
 74.6929032839163654 10.5775387790982709 28.6327538495249954
  9.8650789002374601  0.8136511961352557 28.6327538495249954
 21.1395272721974621  0.8136511961352557 28.6327538495249954
 40.8696850862174585  0.8136511961352557 28.6327538495249954
 46.5069092721974613  0.8136511961352557 28.6327538495249954
 49.3254790862174488  0.8136511961352557 28.6327538495249954
 69.0556369002374737  0.8136511961352557 28.6327538495249954
 74.6928610862174764  0.8136511961352557 28.6327538495249954
 83.1486550862174738  0.8136511961352557 28.6327538495249954
  2.8186543448698407  3.2546047845410229 28.6327538495249954
 39.4604001588898399  3.2546047845410229 28.6327538495249954
 47.9161941588898301  3.2546047845410229 28.6327538495249954
 53.5534183448698329  3.2546047845410229 28.6327538495249954
 62.0092123448698445  3.2546047845410229 28.6327538495249954
  9.8651211385716078  5.6956316022867357 28.6327538495249954
 18.3209151385716105  5.6956316022867357 28.6327538495249954
 29.5952789525916060  5.6956316022867357 28.6327538495249954
 43.6882971385716132  5.6956316022867357 28.6327538495249954
 80.3300429525916257  5.6956316022867357 28.6327538495249954
 36.6417880252639918  8.1365851906925037 28.6327538495249954
 59.1906002112439964  8.1365851906925037 28.6327538495249954
 64.8277398392839928  8.1365851906925037 28.6327538495249954
 70.4649640252639955  8.1365851906925037 28.6327538495249954
 78.9207580252639929  8.1365851906925037 28.6327538495249954
 -1.4092427160836287 10.5775387790982709 28.6327538495249954
  7.0465512839163686 10.5775387790982709 28.6327538495249954
 21.1394849119563659 10.5775387790982709 28.6327538495249954
 52.1440910979363750 10.5775387790982709 28.6327538495249954
  1.4093269760294336 25.2234067682127652 28.6327538495249954
  7.0464664008907913 49.6332355696302230 28.6327538495249954
 15.5023451620094264 25.2234067682127652 28.6327538495249954
 -11.2743640442888005 27.6644335859584807 28.6327538495249954
 -12.6836913318575100 39.8692747573272612 28.6327538495249954
 -4.2278973318575099 39.8692747573272612 28.6327538495249954
 12.6836906681424875 39.8692747573272612 28.6327538495249954
 18.3209148541224920 39.8692747573272612 28.6327538495249954
 35.2325028541224938 39.8692747573272612 28.6327538495249954
 43.6882968541224912 39.8692747573272612 28.6327538495249954
  2.8185694618442589 42.3103015750729767 28.6327538495249954
  8.4557936478242581 42.3103015750729767 28.6327538495249954
 22.5488118338042653 42.3103015750729767 28.6327538495249954
 28.1859514618442688 42.3103015750729767 28.6327538495249954
 36.6417454618442662 42.3103015750729767 28.6327538495249954
 50.7347636478242734 42.3103015750729767 28.6327538495249954
 -21.1394853318575109 39.8692747573272612 28.6327538495249954
 53.5533334618442680 42.3103015750729767 28.6327538495249954
 -18.3208732795033562 44.7512551634787386 28.6327538495249954
 -9.8650792795033553 44.7512551634787386 28.6327538495249954
 -4.2278550935233552 44.7512551634787386 28.6327538495249954
 46.5069089064766459 44.7512551634787386 28.6327538495249954
 52.1440485345166493 44.7512551634787386 28.6327538495249954
 54.9627029064766432 44.7512551634787386 28.6327538495249954
 -0.0000003928109814 47.1922087518845075 28.6327538495249954
 14.0930177931690217 47.1922087518845075 28.6327538495249954
 33.8231756071890288 47.1922087518845075 28.6327538495249954
 39.4603997931690245 47.1922087518845075 28.6327538495249954
 -21.1394854131292078 49.6332355696302230 28.6327538495249954
 -15.5022612271492086 49.6332355696302230 28.6327538495249954
 -23.9580974654833554 44.7512551634787386 28.6327538495249954
 59.1905999674301100 37.4283211689214923 28.6327538495249954
 50.7348059674301126 37.4283211689214923 28.6327538495249954
 -14.0929762185498877 37.4283211689214923 28.6327538495249954
 -5.6372244162487979 27.6644335859584807 28.6327538495249954
 -0.0000002302687971 27.6644335859584807 28.6327538495249954
 36.6417455837512094 27.6644335859584807 28.6327538495249954
 42.2789697697312050 27.6644335859584807 28.6327538495249954
 64.8277819557112025 27.6644335859584807 28.6327538495249954
  4.2279390283835818 30.1053871743642461 28.6327538495249954
 12.6837330283835765 30.1053871743642461 28.6327538495249954
 21.1395270283835863 30.1053871743642461 28.6327538495249954
 29.5953210283835837 30.1053871743642461 28.6327538495249954
 49.3254788424035837 30.1053871743642461 28.6327538495249954
 54.9627030283835865 30.1053871743642461 28.6327538495249954
 63.4184970283835838 30.1053871743642461 28.6327538495249954
 -16.9115882709040370 32.5463407627700150 28.6327538495249954
 -14.0929338989440378 32.5463407627700150 28.6327538495249954
 -8.4557942709040379 32.5463407627700150 28.6327538495249954
 62.0092121010559580 32.5463407627700150 28.6327538495249954
 64.8277819150759740 32.5463407627700150 28.6327538495249954
 -1.4093274772022688 34.9873675805157234 28.6327538495249954
  1.4093268947577322 34.9873675805157234 28.6327538495249954
  7.0464665227977319 34.9873675805157234 28.6327538495249954
  9.8651208947577302 34.9873675805157234 28.6327538495249954
 15.5022605227977337 34.9873675805157234 28.6327538495249954
 21.1394847087777364 34.9873675805157234 28.6327538495249954
 29.5952787087777267 34.9873675805157234 28.6327538495249954
 38.0510727087777383 34.9873675805157234 28.6327538495249954
 46.5068667087777357 34.9873675805157234 28.6327538495249954
 -19.7302004045298887 37.4283211689214923 28.6327538495249954
 21.1394847900494298 25.2234067682127652 28.6327538495249954
 57.7812305227977419 34.9873675805157234 28.6327538495249954
