 H  O 
 1.0000000000000000
    84.5579400000000021    0.0000000000000000    0.0000000000000000
   -42.2789706095346958   73.2293399455724767    0.0000000000000000
     0.0000000000000000    0.0000000000000000   46.9039550000000034
 H   O  
 245 204
Cartesian
 40.8696844902278471 72.4156887494372228 28.1128704123049964
 52.1440486699686616 28.4780847820937346 28.1128704123049964
 54.9626184839886562 28.4780847820937346 28.1128704123049964
 60.5998426699686590 28.4780847820937346 28.1128704123049964
 -11.2743640713789581 30.9190383704995000 28.1128704123049964
 -5.6372244433389582 30.9190383704995000 28.1128704123049964
 -0.0000002573589589 30.9190383704995000 28.1128704123049964
  2.8185695566610427 30.9190383704995000 28.1128704123049964
  5.6372239286210437 30.9190383704995000 28.1128704123049964
 11.2743635566610401 30.9190383704995000 28.1128704123049964
 21.1394422401747804 57.7698207603227232 28.1128704123049964
 25.3673817426410437 30.9190383704995000 28.1128704123049964
 28.1859515566610455 30.9190383704995000 28.1128704123049964
 36.6417455566610357 30.9190383704995000 28.1128704123049964
 39.4603999286210438 30.9190383704995000 28.1128704123049964
 42.2789697426410385 30.9190383704995000 28.1128704123049964
 45.0975395566610331 30.9190383704995000 28.1128704123049964
 64.8277819286210502 30.9190383704995000 28.1128704123049964
 -16.9116305769648072 35.8010187766509844 28.1128704123049964
 -12.6837337598252144 57.7698207603227232 28.1128704123049964
 60.5998003503628055 33.3600651882452155 28.1128704123049964
 57.7812305363428109 33.3600651882452155 28.1128704123049964
 -1.4092853878652121 57.7698207603227232 28.1128704123049964
  1.4092844261547897 57.7698207603227232 28.1128704123049964
 26.7766664261547831 57.7698207603227232 28.1128704123049964
  4.2278542401747847 57.7698207603227232 28.1128704123049964
 29.5952787223228171 33.3600651882452155 28.1128704123049964
 23.9580545363428143 33.3600651882452155 28.1128704123049964
 21.1394847223228126 33.3600651882452155 28.1128704123049964
 15.5022605363428152 33.3600651882452155 28.1128704123049964
  7.0464665363428152 33.3600651882452155 28.1128704123049964
 12.6836482401747883 57.7698207603227232 28.1128704123049964
  7.0465086121347857 57.7698207603227232 28.1128704123049964
 -15.5023035738452162 57.7698207603227232 28.1128704123049964
 46.5068244839886518 28.4780847820937346 28.1128704123049964
 32.4138908559486651 28.4780847820937346 28.1128704123049964
 15.5022606176145086 23.5961043759422537 28.1128704123049964
 21.1394848035945166 23.5961043759422537 28.1128704123049964
 23.9580546176145113 23.5961043759422537 28.1128704123049964
 35.2325029895745132 23.5961043759422537 28.1128704123049964
 47.9161936848071619 60.2107743487284921 28.1128704123049964
 40.8696426176145025 23.5961043759422537 28.1128704123049964
 42.2789694988271592 60.2107743487284921 28.1128704123049964
 60.5998849895745124 23.5961043759422537 28.1128704123049964
 43.6882122284558676 48.0059331773597151 28.1128704123049964
 -8.4557942167237172 26.0371311936879657 28.1128704123049964
  8.4557937832762846 26.0371311936879657 28.1128704123049964
 11.2743635972962863 26.0371311936879657 28.1128704123049964
 28.1859513128471555 60.2107743487284921 28.1128704123049964
 19.7301575972962873 26.0371311936879657 28.1128704123049964
 28.1859515972962846 26.0371311936879657 28.1128704123049964
 33.8231757832762838 26.0371311936879657 28.1128704123049964
 36.6417455972962784 26.0371311936879657 28.1128704123049964
 35.2324604261547876 57.7698207603227232 28.1128704123049964
 23.9580968559486607 28.4780847820937346 28.1128704123049964
 21.1394424839886597 28.4780847820937346 28.1128704123049964
 12.6836484839886605 28.4780847820937346 28.1128704123049964
 43.6882544261547849 57.7698207603227232 28.1128704123049964
  4.2278544839886631 28.4780847820937346 28.1128704123049964
 29.5952362401747777 57.7698207603227232 28.1128704123049964
 -28.1859523151928357 60.2107743487284921 28.1128704123049964
 -19.7301583151928384 60.2107743487284921 28.1128704123049964
 67.6463517832762875 26.0371311936879657 28.1128704123049964
 -14.0930186871528367 60.2107743487284921 28.1128704123049964
 -5.6372246871528393 60.2107743487284921 28.1128704123049964
 50.7347637832762715 26.0371311936879657 28.1128704123049964
 42.2789697832762812 26.0371311936879657 28.1128704123049964
 -25.3673825011728376 60.2107743487284921 28.1128704123049964
 12.6836908035945140 23.5961043759422537 28.1128704123049964
 -8.4558365769648098 35.8010187766509844 28.1128704123049964
 -0.0000425769648080 35.8010187766509844 28.1128704123049964
 21.1394423620817271 43.1239527712082307 28.1128704123049964
 29.5952363620817174 43.1239527712082307 28.1128704123049964
 38.0510303620817112 43.1239527712082307 28.1128704123049964
  7.0464663738006301 52.8878403541712458 28.1128704123049964
 52.1440485480617184 43.1239527712082307 28.1128704123049964
 54.9626183620817130 43.1239527712082307 28.1128704123049964
 -9.8651216261993682 52.8878403541712458 28.1128704123049964
 -15.5022612542393716 52.8878403541712458 28.1128704123049964
 -21.1394854402193673 52.8878403541712458 28.1128704123049964
 -5.6372245652458988 45.5649063596139996 28.1128704123049964
  2.8185694347540982 45.5649063596139996 28.1128704123049964
 -29.5952794402193682 52.8878403541712458 28.1128704123049964
 11.2743634347540986 45.5649063596139996 28.1128704123049964
 39.4603574871082543 50.4468867657654769 28.1128704123049964
 16.9115876207341032 45.5649063596139996 28.1128704123049964
 22.5488118067141059 45.5649063596139996 28.1128704123049964
 31.0045634871082498 50.4468867657654769 28.1128704123049964
 23.9580544144358711 48.0059331773597151 28.1128704123049964
 21.1394846004158765 48.0059331773597151 28.1128704123049964
 15.5022604144358738 48.0059331773597151 28.1128704123049964
  1.4092422284558699 48.0059331773597151 28.1128704123049964
 52.1440062284558650 48.0059331773597151 28.1128704123049964
 54.9626606004158731 48.0059331773597151 28.1128704123049964
  9.8651207457606311 52.8878403541712458 28.1128704123049964
 -11.2744065128917477 50.4468867657654769 28.1128704123049964
 -15.5023457715441282 48.0059331773597151 28.1128704123049964
 -21.1394853995841281 48.0059331773597151 28.1128704123049964
 -26.7767095855641273 48.0059331773597151 28.1128704123049964
 -0.0000426988717480 50.4468867657654769 28.1128704123049964
 39.4603998067140935 45.5649063596139996 28.1128704123049964
 19.7301996730882578 50.4468867657654769 28.1128704123049964
 -5.6371823269117440 50.4468867657654769 28.1128704123049964
 -2.8186123909848098 35.8010187766509844 28.1128704123049964
 15.5023027340417219 43.1239527712082307 28.1128704123049964
  7.0465087340417254 43.1239527712082307 28.1128704123049964
  2.8186117949951930 35.8010187766509844 28.1128704123049964
 11.2744057949951930 35.8010187766509844 28.1128704123049964
 32.4138904902278497 72.4156887494372228 28.1128704123049964
 -32.4138915738452127 57.7698207603227232 28.1128704123049964
 47.9161091675023982 55.3288671719169614 28.1128704123049964
 39.4603576090151904 35.8010187766509844 28.1128704123049964
 45.0975817949951860 35.8010187766509844 28.1128704123049964
 50.7347214230351895 35.8010187766509844 28.1128704123049964
 56.3719456090151922 35.8010187766509844 28.1128704123049964
 39.4603151675024009 55.3288671719169614 28.1128704123049964
 -15.5022611323324266 38.2419723650567462 28.1128704123049964
 15.5022604957075725 38.2419723650567462 28.1128704123049964
 29.5952786816875744 38.2419723650567462 28.1128704123049964
 -8.4557944605375948 55.3288671719169614 28.1128704123049964
 -19.7302427105906588 40.6829991828024689 28.1128704123049964
 -11.2744487105906597 40.6829991828024689 28.1128704123049964
 43.6882967457606384 52.8878403541712458 28.1128704123049964
 -4.2279396379182765 43.1239527712082307 28.1128704123049964
 -12.6837336379182783 43.1239527712082307 28.1128704123049964
 12.6836905597806329 52.8878403541712458 28.1128704123049964
 -21.1395276379182775 43.1239527712082307 28.1128704123049964
 15.5022603738006346 52.8878403541712458 28.1128704123049964
 53.5533334753893371 40.6829991828024689 28.1128704123049964
  9.8650785480617262 43.1239527712082307 28.1128704123049964
 47.9161092894093343 40.6829991828024689 28.1128704123049964
 39.4603152894093299 40.6829991828024689 28.1128704123049964
 33.8231756613693406 40.6829991828024689 28.1128704123049964
 25.3673816613693432 40.6829991828024689 28.1128704123049964
 35.2325027457606268 52.8878403541712458 28.1128704123049964
 11.2743634753893449 40.6829991828024689 28.1128704123049964
 -0.0000003386306579 40.6829991828024689 28.1128704123049964
 23.9580543738006249 52.8878403541712458 28.1128704123049964
  4.2278968035945095 23.5961043759422537 28.1128704123049964
 33.8231754988271618 60.2107743487284921 28.1128704123049964
 -4.2278971964054897 23.5961043759422537 28.1128704123049964
 73.2835338528290663  6.5092827984219914 28.1128704123049964
  1.4093271114814494  8.9502363868277595 28.1128704123049964
  9.8651211114814483  8.9502363868277595 28.1128704123049964
 21.1394844378736906 67.5337083432857384 28.1128704123049964
 15.5022607395214518  8.9502363868277595 28.1128704123049964
 21.1394849255014528  8.9502363868277595 28.1128704123049964
 29.5952789255014537  8.9502363868277595 28.1128704123049964
 32.4138487395214483  8.9502363868277595 28.1128704123049964
 38.0510729255014510  8.9502363868277595 28.1128704123049964
 43.6882971114814538  8.9502363868277595 28.1128704123049964
 46.5068669255014484  8.9502363868277595 28.1128704123049964
 52.1440911114814512  8.9502363868277595 28.1128704123049964
 57.7812307395214404  8.9502363868277595 28.1128704123049964
 67.6463096668490635  6.5092827984219914 28.1128704123049964
 77.5114731114814504  8.9502363868277595 28.1128704123049964
  8.4557939051832172 11.3912632045734714 28.1128704123049964
 -29.5952795214910651 62.6518011664742076 28.1128704123049964
 11.2743637192032189 11.3912632045734714 28.1128704123049964
 -9.8651217481063078 67.5337083432857384 28.1128704123049964
 16.9115879051832216 11.3912632045734714 28.1128704123049964
 50.7347639051832218 11.3912632045734714 28.1128704123049964
 -15.5022613761463042 67.5337083432857384 28.1128704123049964
 59.1905579051832120 11.3912632045734714 28.1128704123049964
 62.0091277192032209 11.3912632045734714 28.1128704123049964
 70.4649217192032182 11.3912632045734714 28.1128704123049964
 -4.2279393941043990 13.8322167929792403 28.1128704123049964
 45.0975815511813138 65.0927547548799765 28.1128704123049964
 39.4603573652013111 65.0927547548799765 28.1128704123049964
 -2.8186544667767790 11.3912632045734714 28.1128704123049964
 31.0045633652013137 65.0927547548799765 28.1128704123049964
 62.0091700388090601  6.5092827984219914 28.1128704123049964
 25.3673396668490696  6.5092827984219914 28.1128704123049964
 18.3208723042478390 72.4156887494372228 28.1128704123049964
 -1.4092855097721566 72.4156887494372228 28.1128704123049964
 22.5488121724349213  1.6273023922705114 28.1128704123049964
 28.1859518004749177  1.6273023922705114 28.1128704123049964
 36.6417458004749221  1.6273023922705114 28.1128704123049964
 -18.3208735097721558 72.4156887494372228 28.1128704123049964
 -23.9580976957521585 72.4156887494372228 28.1128704123049964
 47.9161941724349276  1.6273023922705114 28.1128704123049964
 -26.7766675097721567 72.4156887494372228 28.1128704123049964
 56.3719881724349250  1.6273023922705114 28.1128704123049964
 -29.5953218817321577 72.4156887494372228 28.1128704123049964
 62.0091278004749142  1.6273023922705114 28.1128704123049964
 67.6463519864549170  1.6273023922705114 28.1128704123049964
 -22.5488127684245363 69.9747351610314468 28.1128704123049964
 -1.4093272198433096  4.0683292100162243 28.1128704123049964
  7.0464667801566900  4.0683292100162243 28.1128704123049964
 28.1859512315754728 69.9747351610314468 28.1128704123049964
 12.6836909661366875  4.0683292100162243 28.1128704123049964
 21.1394849661366919  4.0683292100162243 28.1128704123049964
 23.9580547801566937  4.0683292100162243 28.1128704123049964
 14.0929330455954638 69.9747351610314468 28.1128704123049964
 29.5952789661366928  4.0683292100162243 28.1128704123049964
 40.8696427801566955  4.0683292100162243 28.1128704123049964
  8.4557934175554603 69.9747351610314468 28.1128704123049964
 -2.8186549544045376 69.9747351610314468 28.1128704123049964
 -5.6372247684245327 69.9747351610314468 28.1128704123049964
 77.5113885941766796  4.0683292100162243 28.1128704123049964
 -11.2744489544045354 69.9747351610314468 28.1128704123049964
  4.2278969661366892  4.0683292100162243 28.1128704123049964
 25.3673391792213039 65.0927547548799765 28.1128704123049964
 32.4138484144358685 48.0059331773597151 28.1128704123049964
 63.4184548442297569 18.7141971991307194 28.1128704123049964
 -28.1859946347986892 65.0927547548799765 28.1128704123049964
 19.7301576785679771 16.2731703813850075 28.1128704123049964
 25.3673818645479834 16.2731703813850075 28.1128704123049964
 31.0046060505279790 16.2731703813850075 28.1128704123049964
 12.6836908442297531 18.7141971991307194 28.1128704123049964
 45.0975819169021293 21.1551507875364884 28.1128704123049964
 -31.0045644488186873 65.0927547548799765 28.1128704123049964
 12.6836904785089395 62.6518011664742076 28.1128704123049964
 50.7347215449421185 21.1551507875364884 28.1128704123049964
 53.5533336785679737 16.2731703813850075 28.1128704123049964
 56.3719880505279747 16.2731703813850075 28.1128704123049964
 -1.4093277074710613 62.6518011664742076 28.1128704123049964
  8.4557515449421317 21.1551507875364884 28.1128704123049964
 28.1859939169021310 21.1551507875364884 28.1128704123049964
  4.2278964785089341 62.6518011664742076 28.1128704123049964
 73.2835760505279836 16.2731703813850075 28.1128704123049964
 -7.0465515277302488 18.7141971991307194 28.1128704123049964
  1.4092424722697507 18.7141971991307194 28.1128704123049964
 22.5487693652013093 65.0927547548799765 28.1128704123049964
 -4.2278971557702505 18.7141971991307194 28.1128704123049964
  8.4557938645479798 16.2731703813850075 28.1128704123049964
 -0.0000424550578693 21.1551507875364884 28.1128704123049964
 18.3208301065489287 62.6518011664742076 28.1128704123049964
 69.0555944722697461 18.7141971991307194 28.1128704123049964
 35.2324607918756030 13.8322167929792403 28.1128704123049964
 16.9115451792213065 65.0927547548799765 28.1128704123049964
 71.8742488442297542 18.7141971991307194 28.1128704123049964
 43.6882547918756003 13.8322167929792403 28.1128704123049964
 -23.9581398934510652 62.6518011664742076 28.1128704123049964
 -0.0000428207786890 65.0927547548799765 28.1128704123049964
 53.5533759169021195 21.1551507875364884 28.1128704123049964
 43.6882121065489244 62.6518011664742076 28.1128704123049964
 54.9626186058955923 13.8322167929792403 28.1128704123049964
 -5.6371824488186855 65.0927547548799765 28.1128704123049964
 69.0556367918755996 13.8322167929792403 28.1128704123049964
 70.4649639169021356 21.1551507875364884 28.1128704123049964
 -15.5023458934510643 62.6518011664742076 28.1128704123049964
 -8.4557941354520185 16.2731703813850075 28.1128704123049964
 -22.5487704488186900 65.0927547548799765 28.1128704123049964
 49.3254789778556031 13.8322167929792403 28.1128704123049964
 23.9581387962886225 69.1610107355562462 28.6327538495249954
 14.0930176712620749 61.8380767409990000 28.6327538495249954
 -19.7302005264368283 52.0741891580359919 28.6327538495249954
  8.4557934852820722 61.8380767409990000 28.6327538495249954
 -25.3673401544768282 52.0741891580359919 28.6327538495249954
 21.1394844649638500 64.2791035587447084 28.6327538495249954
 32.4139327962886199 69.1610107355562462 28.6327538495249954
 38.0510724243286234 69.1610107355562462 28.6327538495249954
 38.0511147845697053 59.3971231525932382 28.6327538495249954
 15.5022604008907816 49.6332355696302230 28.6327538495249954
  9.8651207728507995 49.6332355696302230 28.6327538495249954
  1.4092844126096999 59.3971231525932382 28.6327538495249954
 -2.8185703287379194 61.8380767409990000 28.6327538495249954
 -31.0045221427579136 61.8380767409990000 28.6327538495249954
 -16.9115885959896168 71.6020375533019688 28.6327538495249954
 -12.6836914131292051 49.6332355696302230 28.6327538495249954
 -16.9115885147179164 61.8380767409990000 28.6327538495249954
 47.9161937931690360 47.1922087518845075 28.6327538495249954
 22.5488115899903860 71.6020375533019688 28.6327538495249954
 31.0046055899903834 71.6020375533019688 28.6327538495249954
 29.5952784243286260 69.1610107355562462 28.6327538495249954
  4.2278965868707896 49.6332355696302230 28.6327538495249954
 -35.2324192037113804 69.1610107355562462 28.6327538495249954
  1.4093266103086164 69.1610107355562462 28.6327538495249954
  1.4093267322155492 54.5151427464417537 28.6327538495249954
  7.0465509181955595 54.5151427464417537 28.6327538495249954
 11.2744055376362251 66.7200571471504844 28.6327538495249954
  5.6371813516562215 66.7200571471504844 28.6327538495249954
 -28.1859522881026763 56.9561695641874692 28.6327538495249954
 -26.7767097210161431 64.2791035587447084 28.6327538495249954
 -18.3209157210161457 64.2791035587447084 28.6327538495249954
 -12.6836915350361448 64.2791035587447084 28.6327538495249954
 25.3673815259173274 56.9561695641874692 28.6327538495249954
 -16.9115884740826736 56.9561695641874692 28.6327538495249954
 -19.7302006483437680 66.7200571471504844 28.6327538495249954
 -22.5487704623637697 66.7200571471504844 28.6327538495249954
 -36.6417886483437698 66.7200571471504844 28.6327538495249954
 35.2325026509438644 64.2791035587447084 28.6327538495249954
 16.9115875259173158 56.9561695641874692 28.6327538495249954
 -4.2278974537644496 54.5151427464417537 28.6327538495249954
 31.0046057118973302 56.9561695641874692 28.6327538495249954
 16.9116297236162261 66.7200571471504844 28.6327538495249954
 -12.6836914537644478 54.5151427464417537 28.6327538495249954
 -9.8650794014102949 59.3971231525932382 28.6327538495249954
 28.1860358572420893 61.8380767409990000 28.6327538495249954
 -7.0464673896913883 69.1610107355562462 28.6327538495249954
 33.8231754852820927 61.8380767409990000 28.6327538495249954
 36.6418298572420866 61.8380767409990000 28.6327538495249954
 39.4603996712620955 61.8380767409990000 28.6327538495249954
 -21.1394855756713831 69.1610107355562462 28.6327538495249954
 22.5488116712620865 61.8380767409990000 28.6327538495249954
 -29.5952795756713840 69.1610107355562462 28.6327538495249954
 45.0975393399373274 56.9561695641874692 28.6327538495249954
 28.1859936595431719 52.0741891580359919 28.6327538495249954
 -38.0510735756713814 69.1610107355562462 28.6327538495249954
 42.2790117236162359 66.7200571471504844 28.6327538495249954
 39.4603574735631781 52.0741891580359919 28.6327538495249954
 50.7348058455231694 52.0741891580359919 28.6327538495249954
 -35.2325037210161440 64.2791035587447084 28.6327538495249954
 19.7301996595431604 52.0741891580359919 28.6327538495249954
 -22.5488126600626764 56.9561695641874692 28.6327538495249954
  1.4092849002374601  0.8136511961352557 28.6327538495249954
 19.7302419791490244 47.1922087518845075 28.6327538495249954
  2.8185697056581414 13.0185655968439828 28.6327538495249954
 11.2743637056581409 13.0185655968439828 28.6327538495249954
 14.0930180776181420 13.0185655968439828 28.6327538495249954
 22.5488120776181340 13.0185655968439828 28.6327538495249954
 25.3673818916381357 13.0185655968439828 28.6327538495249954
 28.1859517056581375 13.0185655968439828 28.6327538495249954
 31.0046060776181456 13.0185655968439828 28.6327538495249954
 39.4604000776181465 13.0185655968439828 28.6327538495249954
 45.0975397056581500 13.0185655968439828 28.6327538495249954
 56.3719880776181483 13.0185655968439828 28.6327538495249954
 73.2835760776181360 13.0185655968439828 28.6327538495249954
 76.1021458916381448 13.0185655968439828 28.6327538495249954
 -7.0465092216694787 15.4595191852497500 28.6327538495249954
  4.2279391502905188 15.4595191852497500 28.6327538495249954
 15.5023029643105232 15.4595191852497500 28.6327538495249954
 52.1440487783305286 15.4595191852497500 28.6327538495249954
 60.5998427783305331 15.4595191852497500 28.6327538495249954
 54.9626608306846691 20.3414995914012344 28.6327538495249954
 49.3254366447046735 20.3414995914012344 28.6327538495249954
 32.4138486447046574 20.3414995914012344 28.6327538495249954
 23.9580546447046672 20.3414995914012344 28.6327538495249954
 18.3209150166646637 20.3414995914012344 28.6327538495249954
  4.2278968306846716 20.3414995914012344 28.6327538495249954
 -0.0000001083618602 13.0185655968439828 28.6327538495249954
 -9.8651213552953294 20.3414995914012344 28.6327538495249954
 50.7347638510029029 17.9004727736555189 28.6327538495249954
 47.9161940369829011 17.9004727736555189 28.6327538495249954
 42.2789698510029055 17.9004727736555189 28.6327538495249954
 36.6418302229629020 17.9004727736555189 28.6327538495249954
 33.8231758510028868 17.9004727736555189 28.6327538495249954
 -2.8185699630171004 17.9004727736555189 28.6327538495249954
 67.6463518510029047 17.9004727736555189 28.6327538495249954
 74.6929032839163654 10.5775387790982709 28.6327538495249954
 66.2371092839163680 10.5775387790982709 28.6327538495249954
 54.9626609119563767 10.5775387790982709 28.6327538495249954
 16.9115879729098388  3.2546047845410229 28.6327538495249954
 11.2744483448698372  3.2546047845410229 28.6327538495249954
 83.1486550862174738  0.8136511961352557 28.6327538495249954
 80.3300852721974650  0.8136511961352557 28.6327538495249954
 71.8742912721974676  0.8136511961352557 28.6327538495249954
 57.7812730862174604  0.8136511961352557 28.6327538495249954
 25.3673819729098362  3.2546047845410229 28.6327538495249954
 52.1440489002374647  0.8136511961352557 28.6327538495249954
 38.0511152721974639  0.8136511961352557 28.6327538495249954
 32.4138910862174541  0.8136511961352557 28.6327538495249954
 21.1395272721974621  0.8136511961352557 28.6327538495249954
 12.6837332721974576  0.8136511961352557 28.6327538495249954
  9.8650789002374601  0.8136511961352557 28.6327538495249954
  4.2279392721974602  0.8136511961352557 28.6327538495249954
 43.6882549002374461  0.8136511961352557 28.6327538495249954
 -11.2744062826229499 22.7824531798069998 28.6327538495249954
 59.1905579729098434  3.2546047845410229 28.6327538495249954
 67.6463519729098550  3.2546047845410229 28.6327538495249954
 12.6836909119563703 10.5775387790982709 28.6327538495249954
 76.1021882112439840  8.1365851906925037 28.6327538495249954
 42.2790122112439946  8.1365851906925037 28.6327538495249954
 19.7302000252639935  8.1365851906925037 28.6327538495249954
 11.2744060252639908  8.1365851906925037 28.6327538495249954
  5.6371818392839907  8.1365851906925037 28.6327538495249954
 64.8277821588898462  3.2546047845410229 28.6327538495249954
 -2.8186121607160102  8.1365851906925037 28.6327538495249954
 49.3254367666116167  5.6956316022867357 28.6327538495249954
 35.2325031385716159  5.6956316022867357 28.6327538495249954
 29.5952789525916060  5.6956316022867357 28.6327538495249954
 81.7393701588898551  3.2546047845410229 28.6327538495249954
 73.2835761588898578  3.2546047845410229 28.6327538495249954
 70.4650063448698489  3.2546047845410229 28.6327538495249954
 54.9626609525916123  5.6956316022867357 28.6327538495249954
 -8.4557519106629488 22.7824531798069998 28.6327538495249954
  0.0000420893370479 22.7824531798069998 28.6327538495249954
 25.3674240893370566 22.7824531798069998 28.6327538495249954
 50.7347636478242734 42.3103015750729767 28.6327538495249954
 19.7301574618442501 42.3103015750729767 28.6327538495249954
 -16.9115883521757375 42.3103015750729767 28.6327538495249954
 57.7813150401024913 39.8692747573272612 28.6327538495249954
 52.1440908541225028 39.8692747573272612 28.6327538495249954
 43.6882968541224912 39.8692747573272612 28.6327538495249954
 59.1905576478242708 42.3103015750729767 28.6327538495249954
 38.0510726681424956 39.8692747573272612 28.6327538495249954
  4.2278966681424874 39.8692747573272612 28.6327538495249954
 -4.2278973318575099 39.8692747573272612 28.6327538495249954
 -7.0464671458775081 39.8692747573272612 28.6327538495249954
 -18.3208309598975099 39.8692747573272612 28.6327538495249954
 62.0091697814501188 37.4283211689214923 28.6327538495249954
 22.5487695954701017 37.4283211689214923 28.6327538495249954
 12.6836906681424875 39.8692747573272612 28.6327538495249954
 -5.6371822185498859 37.4283211689214923 28.6327538495249954
 -23.9580974654833554 44.7512551634787386 28.6327538495249954
 -9.8650792795033553 44.7512551634787386 28.6327538495249954
 -0.0000003928109814 47.1922087518845075 28.6327538495249954
 -2.8185702068309761 47.1922087518845075 28.6327538495249954
 -5.6371400208509774 47.1922087518845075 28.6327538495249954
 -8.4557943928109793 47.1922087518845075 28.6327538495249954
 -11.2743642068309775 47.1922087518845075 28.6327538495249954
 57.7812727204966521 44.7512551634787386 28.6327538495249954
 -18.3208732795033562 44.7512551634787386 28.6327538495249954
 52.1440485345166493 44.7512551634787386 28.6327538495249954
 46.5069089064766459 44.7512551634787386 28.6327538495249954
 35.2324605345166475 44.7512551634787386 28.6327538495249954
 23.9580967204966342 44.7512551634787386 28.6327538495249954
 12.6837329064766493 44.7512551634787386 28.6327538495249954
  7.0465087204966403 44.7512551634787386 28.6327538495249954
 -1.4092852795033535 44.7512551634787386 28.6327538495249954
 49.3254787204966547 44.7512551634787386 28.6327538495249954
 28.1860359791490147 47.1922087518845075 28.6327538495249954
 -19.7302004045298887 37.4283211689214923 28.6327538495249954
 35.2325028947577295 34.9873675805157234 28.6327538495249954
  8.4557937697312031 27.6644335859584807 28.6327538495249954
 -0.0000002302687971 27.6644335859584807 28.6327538495249954
 -2.8185700442888009 27.6644335859584807 28.6327538495249954
 -8.4557942302688005 27.6644335859584807 28.6327538495249954
 -14.0930184162487979 27.6644335859584807 28.6327538495249954
 63.4184547900494380 25.2234067682127652 28.6327538495249954
 28.1859515837511907 27.6644335859584807 28.6327538495249954
 57.7813151620094345 25.2234067682127652 28.6327538495249954
 46.5068667900494361 25.2234067682127652 28.6327538495249954
 15.5023451620094264 25.2234067682127652 28.6327538495249954
 70.4649639033570594 22.7824531798069998 28.6327538495249954
 64.8277397173770566 22.7824531798069998 28.6327538495249954
 56.3719457173770593 22.7824531798069998 28.6327538495249954
 39.4603577173770574 22.7824531798069998 28.6327538495249954
 54.9626607900494406 25.2234067682127652 28.6327538495249954
 63.4184547087777446 34.9873675805157234 28.6327538495249954
 36.6417455837512094 27.6644335859584807 28.6327538495249954
 47.9161939557112078 27.6644335859584807 28.6327538495249954
 32.4138485227977426 34.9873675805157234 28.6327538495249954
 26.7767088947577392 34.9873675805157234 28.6327538495249954
  7.0464665227977319 34.9873675805157234 28.6327538495249954
 -4.2278972912222672 34.9873675805157234 28.6327538495249954
 -12.6836912912222672 34.9873675805157234 28.6327538495249954
 62.0092121010559580 32.5463407627700150 28.6327538495249954
 42.2789697697312050 27.6644335859584807 28.6327538495249954
 53.5534181010559607 32.5463407627700150 28.6327538495249954
 42.2789697290959623 32.5463407627700150 28.6327538495249954
 33.8231757290959649 32.5463407627700150 28.6327538495249954
  2.8186541010559618 32.5463407627700150 28.6327538495249954
 -14.0929338989440378 32.5463407627700150 28.6327538495249954
 23.9580968424035810 30.1053871743642461 28.6327538495249954
 18.3208726564235782 30.1053871743642461 28.6327538495249954
 47.9161939150759579 32.5463407627700150 28.6327538495249954
 12.6836907087777320 34.9873675805157234 28.6327538495249954
