 H  O 
 1.0000000000000000
    84.5579400000000021    0.0000000000000000    0.0000000000000000
   -42.2789706095346958   73.2293399455724767    0.0000000000000000
     0.0000000000000000    0.0000000000000000   46.9039550000000034
 H   O  
 200 395
Cartesian
 -4.2278971964054897 23.5961043759422537 28.1128704123049964
 -33.8231765011728385 60.2107743487284921 28.1128704123049964
 49.3254366176144998 23.5961043759422537 28.1128704123049964
 69.0556789895745169 23.5961043759422537 28.1128704123049964
  2.8185695972962814 26.0371311936879657 28.1128704123049964
  1.4092844261547897 57.7698207603227232 28.1128704123049964
 -1.4092853878652121 57.7698207603227232 28.1128704123049964
 16.9115877832762855 26.0371311936879657 28.1128704123049964
 22.5487274113162819 26.0371311936879657 28.1128704123049964
 -4.2279397598252162 57.7698207603227232 28.1128704123049964
 31.0045214113162864 26.0371311936879657 28.1128704123049964
 42.2789697832762812 26.0371311936879657 28.1128704123049964
 -7.0465095738452108 57.7698207603227232 28.1128704123049964
 -21.1395277598252136 57.7698207603227232 28.1128704123049964
 15.5022606176145086 23.5961043759422537 28.1128704123049964
 -32.4138915738452127 57.7698207603227232 28.1128704123049964
 36.6417453534824062 55.3288671719169614 28.1128704123049964
 -7.0465093300313377 28.4780847820937346 28.1128704123049964
 -0.0000004605375943 55.3288671719169614 28.1128704123049964
 -1.4092851440513405 28.4780847820937346 28.1128704123049964
  7.0465088559486642 28.4780847820937346 28.1128704123049964
 -5.6372246465175939 55.3288671719169614 28.1128704123049964
 12.6836484839886605 28.4780847820937346 28.1128704123049964
 18.3208726699686650 28.4780847820937346 28.1128704123049964
 -19.7302428324975985 55.3288671719169614 28.1128704123049964
 -25.3673824605375984 55.3288671719169614 28.1128704123049964
 46.5068244839886518 28.4780847820937346 28.1128704123049964
 54.9626184839886562 28.4780847820937346 28.1128704123049964
 46.5068665597806330 52.8878403541712458 28.1128704123049964
 45.0975393534824036 55.3288671719169614 28.1128704123049964
  7.0464666176145112 23.5961043759422537 28.1128704123049964
  1.4093269895745080 23.5961043759422537 28.1128704123049964
  2.8185694347540982 45.5649063596139996 28.1128704123049964
 59.1905578645479835 16.2731703813850075 28.1128704123049964
 73.2835760505279836 16.2731703813850075 28.1128704123049964
 -29.5952795214910651 62.6518011664742076 28.1128704123049964
 -1.4093273417502492 18.7141971991307194 28.1128704123049964
  1.4092424722697507 18.7141971991307194 28.1128704123049964
  9.8650364722697521 18.7141971991307194 28.1128704123049964
 18.3208304722697477 18.7141971991307194 28.1128704123049964
 21.1394848442297523 18.7141971991307194 28.1128704123049964
 26.7766244722697486 18.7141971991307194 28.1128704123049964
 42.2789694988271592 60.2107743487284921 28.1128704123049964
 32.4138486582497549 18.7141971991307194 28.1128704123049964
 35.2324184722697566 18.7141971991307194 28.1128704123049964
 40.8696426582497523 18.7141971991307194 28.1128704123049964
 46.5068668442297550 18.7141971991307194 28.1128704123049964
 28.1859513128471555 60.2107743487284921 28.1128704123049964
 25.3673814988271609 60.2107743487284921 28.1128704123049964
 69.0555944722697461 18.7141971991307194 28.1128704123049964
 22.5488116848071662 60.2107743487284921 28.1128704123049964
 16.9115874988271635 60.2107743487284921 28.1128704123049964
 11.2743633128471661 60.2107743487284921 28.1128704123049964
  2.8186119169021282 21.1551507875364884 28.1128704123049964
  5.6371817309221299 21.1551507875364884 28.1128704123049964
  2.8185693128471621 60.2107743487284921 28.1128704123049964
 50.7347215449421185 21.1551507875364884 28.1128704123049964
 59.1905155449421230 21.1551507875364884 28.1128704123049964
 64.8277397309221328 21.1551507875364884 28.1128704123049964
 70.4649639169021356 21.1551507875364884 28.1128704123049964
 -12.6836911964054888 23.5961043759422537 28.1128704123049964
 -14.0930186871528367 60.2107743487284921 28.1128704123049964
 60.5998426699686590 28.4780847820937346 28.1128704123049964
 -15.5023458934510643 62.6518011664742076 28.1128704123049964
 40.8696423738006303 52.8878403541712458 28.1128704123049964
  5.6372239286210437 30.9190383704995000 28.1128704123049964
 35.2324182284558631 48.0059331773597151 28.1128704123049964
 29.5952786004158739 48.0059331773597151 28.1128704123049964
 21.1394846004158765 48.0059331773597151 28.1128704123049964
 54.9626606816875736 38.2419723650567462 28.1128704123049964
 12.6836906004158720 48.0059331773597151 28.1128704123049964
 -19.7302427105906588 40.6829991828024689 28.1128704123049964
 -11.2744487105906597 40.6829991828024689 28.1128704123049964
 -8.4557943386306622 40.6829991828024689 28.1128704123049964
  4.2278966004158747 48.0059331773597151 28.1128704123049964
 -2.8186547105906588 40.6829991828024689 28.1128704123049964
 -9.8651215855641290 48.0059331773597151 28.1128704123049964
 11.2743634753893449 40.6829991828024689 28.1128704123049964
 -15.5023457715441282 48.0059331773597151 28.1128704123049964
 43.6882122284558676 48.0059331773597151 28.1128704123049964
 25.3673816613693432 40.6829991828024689 28.1128704123049964
 39.4603152894093299 40.6829991828024689 28.1128704123049964
 -26.7767095855641273 48.0059331773597151 28.1128704123049964
 47.9161092894093343 40.6829991828024689 28.1128704123049964
 50.7347636613693425 40.6829991828024689 28.1128704123049964
 -7.0465094519382783 43.1239527712082307 28.1128704123049964
 36.6417454347540925 45.5649063596139996 28.1128704123049964
  1.4092845480617260 43.1239527712082307 28.1128704123049964
  7.0465087340417254 43.1239527712082307 28.1128704123049964
 28.1859514347540951 45.5649063596139996 28.1128704123049964
 26.7766665480617228 43.1239527712082307 28.1128704123049964
 14.0930178067140996 45.5649063596139996 28.1128704123049964
 57.7812727340417212 43.1239527712082307 28.1128704123049964
 11.2743634347540986 45.5649063596139996 28.1128704123049964
 -21.1394853995841281 48.0059331773597151 28.1128704123049964
 -22.5487703269117468 50.4468867657654769 28.1128704123049964
 15.5022604957075725 38.2419723650567462 28.1128704123049964
 -9.8651215042924267 38.2419723650567462 28.1128704123049964
 26.7767087457606330 52.8878403541712458 28.1128704123049964
 14.0930179286210446 30.9190383704995000 28.1128704123049964
 23.9580543738006249 52.8878403541712458 28.1128704123049964
 18.3209147457606356 52.8878403541712458 28.1128704123049964
 33.8231757426410411 30.9190383704995000 28.1128704123049964
 39.4603999286210438 30.9190383704995000 28.1128704123049964
 12.6836905597806329 52.8878403541712458 28.1128704123049964
  7.0464663738006301 52.8878403541712458 28.1128704123049964
  4.2278965597806355 52.8878403541712458 28.1128704123049964
 -9.8651216261993682 52.8878403541712458 28.1128704123049964
 18.3208303503628116 33.3600651882452155 28.1128704123049964
 21.1394847223228126 33.3600651882452155 28.1128704123049964
 -29.5952794402193682 52.8878403541712458 28.1128704123049964
 35.2324183503628063 33.3600651882452155 28.1128704123049964
 53.5533756730882544 50.4468867657654769 28.1128704123049964
 57.7812305363428109 33.3600651882452155 28.1128704123049964
 63.4184547223228137 33.3600651882452155 28.1128704123049964
 -16.9116305769648072 35.8010187766509844 28.1128704123049964
 -11.2744063909848098 35.8010187766509844 28.1128704123049964
  2.8186117949951930 35.8010187766509844 28.1128704123049964
  8.4557514230351885 35.8010187766509844 28.1128704123049964
 11.2744057949951930 35.8010187766509844 28.1128704123049964
 36.6417877949951958 35.8010187766509844 28.1128704123049964
 42.2789274230351850 35.8010187766509844 28.1128704123049964
 50.7347214230351895 35.8010187766509844 28.1128704123049964
 59.1905154230351869 35.8010187766509844 28.1128704123049964
 -5.6371823269117440 50.4468867657654769 28.1128704123049964
 -15.5022611323324266 38.2419723650567462 28.1128704123049964
 -14.0929763269117494 50.4468867657654769 28.1128704123049964
 -0.0000002573589589 30.9190383704995000 28.1128704123049964
 -9.8651217074710615 62.6518011664742076 28.1128704123049964
 -5.6372245652458988 45.5649063596139996 28.1128704123049964
 52.1440065941766875  4.0683292100162243 28.1128704123049964
  9.8651206238536986 67.5337083432857384 28.1128704123049964
 35.2325031114814493  8.9502363868277595 28.1128704123049964
 -29.5953218817321577 72.4156887494372228 28.1128704123049964
 16.9115456668490722  6.5092827984219914 28.1128704123049964
 38.0510729661366938  4.0683292100162243 28.1128704123049964
 -23.9580976957521585 72.4156887494372228 28.1128704123049964
 -15.5023036957521541 72.4156887494372228 28.1128704123049964
 43.6882966238536952 67.5337083432857384 28.1128704123049964
 31.0045633652013137 65.0927547548799765 28.1128704123049964
  9.8650787918756002 13.8322167929792403 28.1128704123049964
 23.9580547801566937  4.0683292100162243 28.1128704123049964
 18.3208305941766909  4.0683292100162243 28.1128704123049964
 12.6836486058956019 13.8322167929792403 28.1128704123049964
 18.3208727918756047 13.8322167929792403 28.1128704123049964
 33.8231754175554755 69.9747351610314468 28.1128704123049964
 25.3673391792213039 65.0927547548799765 28.1128704123049964
 -7.0465096957521522 72.4156887494372228 28.1128704123049964
 50.7347639051832218 11.3912632045734714 28.1128704123049964
 22.5487693652013093 65.0927547548799765 28.1128704123049964
 42.2789699051832244 11.3912632045734714 28.1128704123049964
 39.4603155332232234 11.3912632045734714 28.1128704123049964
  1.4093266238536943 67.5337083432857384 28.1128704123049964
 -2.8186121471709296  6.5092827984219914 28.1128704123049964
 69.0556791114814530  8.9502363868277595 28.1128704123049964
 71.8742489661366903  4.0683292100162243 28.1128704123049964
 -7.0464673761463033 67.5337083432857384 28.1128704123049964
 -12.6836915621263024 67.5337083432857384 28.1128704123049964
 -15.5022613761463042 67.5337083432857384 28.1128704123049964
 11.2743637192032189 11.3912632045734714 28.1128704123049964
 49.3254367395214430  8.9502363868277595 28.1128704123049964
  8.4557516668490695  6.5092827984219914 28.1128704123049964
 66.2370247801566876  4.0683292100162243 28.1128704123049964
 -38.0511158817321586 72.4156887494372228 28.1128704123049964
 -26.7767097481063061 67.5337083432857384 28.1128704123049964
  7.0464662518936976 67.5337083432857384 28.1128704123049964
 60.5998005941766849  4.0683292100162243 28.1128704123049964
 31.0045215332232189 11.3912632045734714 28.1128704123049964
 -35.2325037481063035 67.5337083432857384 28.1128704123049964
 -38.0510735621263052 67.5337083432857384 28.1128704123049964
 40.8696849778556057 13.8322167929792403 28.1128704123049964
 21.1394426058955993 13.8322167929792403 28.1128704123049964
 54.9626609255014458  8.9502363868277595 28.1128704123049964
 40.8696422925289298 62.6518011664742076 28.1128704123049964
 81.7393701724349171  1.6273023922705114 28.1128704123049964
 21.1394421182678336 72.4156887494372228 28.1128704123049964
  7.0465084902278479 72.4156887494372228 28.1128704123049964
  2.8185696785679806 16.2731703813850075 28.1128704123049964
 -14.0929764488186855 65.0927547548799765 28.1128704123049964
 43.6882547918756003 13.8322167929792403 28.1128704123049964
 73.2835338528290663  6.5092827984219914 28.1128704123049964
 59.1905579864549196  1.6273023922705114 28.1128704123049964
 31.0045638528290759  6.5092827984219914 28.1128704123049964
 12.6836481182678362 72.4156887494372228 28.1128704123049964
 71.8742066058955942 13.8322167929792403 28.1128704123049964
  2.8186115511813119 65.0927547548799765 28.1128704123049964
 -5.6371824488186855 65.0927547548799765 28.1128704123049964
 49.3254789778556031 13.8322167929792403 28.1128704123049964
 -4.2278975214910632 62.6518011664742076 28.1128704123049964
 22.5487698528290750  6.5092827984219914 28.1128704123049964
  9.8650365941766900  4.0683292100162243 28.1128704123049964
 16.9115451792213065 65.0927547548799765 28.1128704123049964
 -1.4092855097721566 72.4156887494372228 28.1128704123049964
 -1.4093277074710613 62.6518011664742076 28.1128704123049964
  1.4092425941766900  4.0683292100162243 28.1128704123049964
 39.4603578528290697  6.5092827984219914 28.1128704123049964
 57.7812729778555934 13.8322167929792403 28.1128704123049964
 -1.4093272604785494  8.9502363868277595 28.1128704123049964
  8.4557511792213162 65.0927547548799765 28.1128704123049964
 19.7301572315754683 69.9747351610314468 28.1128704123049964
 38.0510725868707951 49.6332355696302230 28.6327538495249954
  9.8651206103086064 69.1610107355562462 28.6327538495249954
 -1.4093275991092098 49.6332355696302230 28.6327538495249954
 40.8696424008908039 49.6332355696302230 28.6327538495249954
 43.6882967728507978 49.6332355696302230 28.6327538495249954
 15.5023447962886092 69.1610107355562462 28.6327538495249954
 35.2325027728508005 49.6332355696302230 28.6327538495249954
 49.3254364008908013 49.6332355696302230 28.6327538495249954
 18.3209147728507951 49.6332355696302230 28.6327538495249954
 18.3209146103086198 69.1610107355562462 28.6327538495249954
  1.4093267728507877 49.6332355696302230 28.6327538495249954
 29.5952785868707942 49.6332355696302230 28.6327538495249954
 29.5952784243286260 69.1610107355562462 28.6327538495249954
  4.2278965868707896 49.6332355696302230 28.6327538495249954
 23.9580544008907985 49.6332355696302230 28.6327538495249954
  7.0464664008907913 49.6332355696302230 28.6327538495249954
 23.9581387962886225 69.1610107355562462 28.6327538495249954
  9.8651207728507995 49.6332355696302230 28.6327538495249954
 12.6836905868707941 49.6332355696302230 28.6327538495249954
 15.5022604008907816 49.6332355696302230 28.6327538495249954
 21.1394845868707826 49.6332355696302230 28.6327538495249954
 32.4138484008907994 49.6332355696302230 28.6327538495249954
 26.7767087728507853 49.6332355696302230 28.6327538495249954
 -11.2743643287379136 61.8380767409990000 28.6327538495249954
 -7.0464672271492059 49.6332355696302230 28.6327538495249954
 54.9627029064766432 44.7512551634787386 28.6327538495249954
 52.1440485345166493 44.7512551634787386 28.6327538495249954
 46.5069089064766459 44.7512551634787386 28.6327538495249954
 40.8696847204966431 44.7512551634787386 28.6327538495249954
 38.0511149064766485 44.7512551634787386 28.6327538495249954
  8.4557934040103735 71.6020375533019688 28.6327538495249954
 32.4138907204966458 44.7512551634787386 28.6327538495249954
 16.9115874040103833 71.6020375533019688 28.6327538495249954
 23.9580967204966342 44.7512551634787386 28.6327538495249954
 18.3208725345166314 44.7512551634787386 28.6327538495249954
 15.5023027204966439 44.7512551634787386 28.6327538495249954
 31.0046055899903834 71.6020375533019688 28.6327538495249954
 36.6417452180303869 71.6020375533019688 28.6327538495249954
  9.8650785345166412 44.7512551634787386 28.6327538495249954
  7.0465087204966403 44.7512551634787386 28.6327538495249954
 57.7812727204966521 44.7512551634787386 28.6327538495249954
  2.8185692180303707 71.6020375533019688 28.6327538495249954
 -25.3673823928109776 47.1922087518845075 28.6327538495249954
 -5.6372247819696195 71.6020375533019688 28.6327538495249954
 -18.3209155991092061 49.6332355696302230 28.6327538495249954
 38.0510724243286234 69.1610107355562462 28.6327538495249954
 39.4603997931690245 47.1922087518845075 28.6327538495249954
 33.8231756071890288 47.1922087518845075 28.6327538495249954
 -33.8231765959896151 71.6020375533019688 28.6327538495249954
 25.3673816071890279 47.1922087518845075 28.6327538495249954
 52.1440907728507952 49.6332355696302230 28.6327538495249954
 32.4139327962886199 69.1610107355562462 28.6327538495249954
 16.9115876071890092 47.1922087518845075 28.6327538495249954
 -25.3673825959896213 71.6020375533019688 28.6327538495249954
  8.4557936071890190 47.1922087518845075 28.6327538495249954
 -19.7301584100096186 71.6020375533019688 28.6327538495249954
 -0.0000003928109814 47.1922087518845075 28.6327538495249954
 -8.4557943928109793 47.1922087518845075 28.6327538495249954
 -11.2743644100096230 71.6020375533019688 28.6327538495249954
 -19.7301582068309784 47.1922087518845075 28.6327538495249954
 -28.1859524100096195 71.6020375533019688 28.6327538495249954
  7.0465507962886189 69.1610107355562462 28.6327538495249954
 -21.1394855756713831 69.1610107355562462 28.6327538495249954
  1.4093266103086164 69.1610107355562462 28.6327538495249954
 -1.4092854014103018 59.3971231525932382 28.6327538495249954
 -4.2278552154303037 59.3971231525932382 28.6327538495249954
 21.1394844649638500 64.2791035587447084 28.6327538495249954
 -7.0465095873903012 59.3971231525932382 28.6327538495249954
 -9.8650794014102949 59.3971231525932382 28.6327538495249954
 -12.6836492154302967 59.3971231525932382 28.6327538495249954
 -23.9580975873902986 59.3971231525932382 28.6327538495249954
 -26.7766674014102968 59.3971231525932382 28.6327538495249954
 -29.5952372154302985 59.3971231525932382 28.6327538495249954
 42.2789695259173328 56.9561695641874692 28.6327538495249954
 39.4603997118973240 56.9561695641874692 28.6327538495249954
 31.0046057118973302 56.9561695641874692 28.6327538495249954
 28.1859513399373292 56.9561695641874692 28.6327538495249954
 22.5488117118973186 56.9561695641874692 28.6327538495249954
 19.7301573399373318 56.9561695641874692 28.6327538495249954
 14.0930177118973283 56.9561695641874692 28.6327538495249954
 32.4138482789838704 64.2791035587447084 28.6327538495249954
 11.2743633399373131 56.9561695641874692 28.6327538495249954
 35.2325026509438644 64.2791035587447084 28.6327538495249954
 12.6836904649638509 64.2791035587447084 28.6327538495249954
  8.4557935259173256 56.9561695641874692 28.6327538495249954
  7.0465085985897025 59.3971231525932382 28.6327538495249954
 -12.6836915350361448 64.2791035587447084 28.6327538495249954
 -19.7301583287379145 61.8380767409990000 28.6327538495249954
 -25.3673825147179137 61.8380767409990000 28.6327538495249954
  2.8186538572420905 61.8380767409990000 28.6327538495249954
  5.6372236712620847 61.8380767409990000 28.6327538495249954
 -31.0045221427579136 61.8380767409990000 28.6327538495249954
 19.7302418572420777 61.8380767409990000 28.6327538495249954
 22.5488116712620865 61.8380767409990000 28.6327538495249954
 -33.8231765147179146 61.8380767409990000 28.6327538495249954
 25.3673814852820882 61.8380767409990000 28.6327538495249954
 46.5069087845697027 59.3971231525932382 28.6327538495249954
 28.1860358572420893 61.8380767409990000 28.6327538495249954
 31.0046056712620839 61.8380767409990000 28.6327538495249954
 43.6882544126097088 59.3971231525932382 28.6327538495249954
 45.0976238572420840 61.8380767409990000 28.6327538495249954
 -23.9580553490561456 64.2791035587447084 28.6327538495249954
 -21.1394855350361439 64.2791035587447084 28.6327538495249954
 38.0511147845697053 59.3971231525932382 28.6327538495249954
 32.4138905985897026 59.3971231525932382 28.6327538495249954
 29.5953207845697079 59.3971231525932382 28.6327538495249954
  9.8651206509438563 64.2791035587447084 28.6327538495249954
  4.2278964243286037 69.1610107355562462 28.6327538495249954
  5.6372237118973310 56.9561695641874692 28.6327538495249954
 46.5068664649638706 64.2791035587447084 28.6327538495249954
 -32.4138493896913857 69.1610107355562462 28.6327538495249954
 -8.4557945147179190 61.8380767409990000 28.6327538495249954
 22.5487694735631763 52.0741891580359919 28.6327538495249954
 -18.3208312037113821 69.1610107355562462 28.6327538495249954
 -15.5022613896913821 69.1610107355562462 28.6327538495249954
 -12.6836915756713875 69.1610107355562462 28.6327538495249954
 -9.8650372037113900 69.1610107355562462 28.6327538495249954
  2.8186116595431669 52.0741891580359919 28.6327538495249954
 -2.8186125264368322 52.0741891580359919 28.6327538495249954
 -5.6371823404568273 52.0741891580359919 28.6327538495249954
 -8.4557521544768282 52.0741891580359919 28.6327538495249954
 -7.0464673896913883 69.1610107355562462 28.6327538495249954
 -14.0929763404568273 52.0741891580359919 28.6327538495249954
 -16.9115461544768308 52.0741891580359919 28.6327538495249954
 -19.7302005264368283 52.0741891580359919 28.6327538495249954
 -22.5487703404568300 52.0741891580359919 28.6327538495249954
 -25.3673401544768282 52.0741891580359919 28.6327538495249954
 -4.2278975756713866 69.1610107355562462 28.6327538495249954
 -1.4092432037113782 69.1610107355562462 28.6327538495249954
 -38.0510735756713814 69.1610107355562462 28.6327538495249954
 43.6882966509438617 64.2791035587447084 28.6327538495249954
 28.1859936595431719 52.0741891580359919 28.6327538495249954
 33.8232178455231747 52.0741891580359919 28.6327538495249954
 -31.0045644623637671 66.7200571471504844 28.6327538495249954
 -8.4557944740826727 56.9561695641874692 28.6327538495249954
 -16.9115884740826736 56.9561695641874692 28.6327538495249954
 -31.0046066600626737 56.9561695641874692 28.6327538495249954
 -22.5487704623637697 66.7200571471504844 28.6327538495249954
 52.1440907322155596 54.5151427464417537 28.6327538495249954
 49.3255209181955507 54.5151427464417537 28.6327538495249954
 -2.8186126483437688 66.7200571471504844 28.6327538495249954
 -4.2278974537644496 54.5151427464417537 28.6327538495249954
  0.0000417236162395 66.7200571471504844 28.6327538495249954
 -15.5022612677844460 54.5151427464417537 28.6327538495249954
  5.6371813516562215 66.7200571471504844 28.6327538495249954
 -21.1394854537644470 54.5151427464417537 28.6327538495249954
 -29.5952794537644479 54.5151427464417537 28.6327538495249954
 50.7348058455231694 52.0741891580359919 28.6327538495249954
 33.8232177236162386 66.7200571471504844 28.6327538495249954
 42.2790118455231720 52.0741891580359919 28.6327538495249954
 39.4603573516562420 66.7200571471504844 28.6327538495249954
 36.6417876595431693 52.0741891580359919 28.6327538495249954
 42.2790117236162359 66.7200571471504844 28.6327538495249954
 15.5023030862174611  0.8136511961352557 28.6327538495249954
 -11.2744064045298860 37.4283211689214923 28.6327538495249954
 -12.6836490935233588 44.7512551634787386 28.6327538495249954
 38.0511151502905278 15.4595191852497500 28.6327538495249954
 35.2324607783305126 15.4595191852497500 28.6327538495249954
 32.4138909643105251 15.4595191852497500 28.6327538495249954
 29.5953211502905269 15.4595191852497500 28.6327538495249954
 23.9580969643105171 15.4595191852497500 28.6327538495249954
 21.1395271502905153 15.4595191852497500 28.6327538495249954
 18.3208727783305179 15.4595191852497500 28.6327538495249954
 15.5023029643105232 15.4595191852497500 28.6327538495249954
 12.6837331502905215 15.4595191852497500 28.6327538495249954
  7.0465089643105223 15.4595191852497500 28.6327538495249954
 -1.4092850356894804 15.4595191852497500 28.6327538495249954
 76.1021458916381448 13.0185655968439828 28.6327538495249954
 40.8696849643105153 15.4595191852497500 28.6327538495249954
 73.2835760776181360 13.0185655968439828 28.6327538495249954
 62.0091277056581518 13.0185655968439828 28.6327538495249954
 59.1905578916381430 13.0185655968439828 28.6327538495249954
 53.5533337056581473 13.0185655968439828 28.6327538495249954
 47.9161940776181368 13.0185655968439828 28.6327538495249954
 45.0975397056581500 13.0185655968439828 28.6327538495249954
 36.6417457056581313 13.0185655968439828 28.6327538495249954
 22.5488120776181340 13.0185655968439828 28.6327538495249954
  8.4557938916381428 13.0185655968439828 28.6327538495249954
  5.6372240776181393 13.0185655968439828 28.6327538495249954
 -0.0000001083618602 13.0185655968439828 28.6327538495249954
 74.6929032839163654 10.5775387790982709 28.6327538495249954
 71.8742489119563714 10.5775387790982709 28.6327538495249954
 67.6463518916381474 13.0185655968439828 28.6327538495249954
 40.8697272839163759 10.5775387790982709 28.6327538495249954
 43.6882547783305313 15.4595191852497500 28.6327538495249954
 49.3254789643105269 15.4595191852497500 28.6327538495249954
 -8.4557519106629488 22.7824531798069998 28.6327538495249954
 71.8742488306846781 20.3414995914012344 28.6327538495249954
 60.5998850166646719 20.3414995914012344 28.6327538495249954
 54.9626608306846691 20.3414995914012344 28.6327538495249954
 32.4138486447046574 20.3414995914012344 28.6327538495249954
 29.5952788306846699 20.3414995914012344 28.6327538495249954
  4.2278968306846716 20.3414995914012344 28.6327538495249954
 -1.4093273552953294 20.3414995914012344 28.6327538495249954
 -4.2278971693153311 20.3414995914012344 28.6327538495249954
 73.2835760369829075 17.9004727736555189 28.6327538495249954
 64.8277820369829101 17.9004727736555189 28.6327538495249954
 62.0092122229629013 17.9004727736555189 28.6327538495249954
 46.5069091502905181 15.4595191852497500 28.6327538495249954
 59.1905578510029073 17.9004727736555189 28.6327538495249954
 50.7347638510029029 17.9004727736555189 28.6327538495249954
 31.0046060369829029 17.9004727736555189 28.6327538495249954
 22.5488120369828984 17.9004727736555189 28.6327538495249954
 14.0930180369829028 17.9004727736555189 28.6327538495249954
  5.6372240369829028 17.9004727736555189 28.6327538495249954
 -2.8185699630171004 17.9004727736555189 28.6327538495249954
 -5.6371397770370981 17.9004727736555189 28.6327538495249954
 69.0556367783305234 15.4595191852497500 28.6327538495249954
 60.5998427783305331 15.4595191852497500 28.6327538495249954
 57.7812729643105243 15.4595191852497500 28.6327538495249954
 54.9627031502905297 15.4595191852497500 28.6327538495249954
 52.1440487783305286 15.4595191852497500 28.6327538495249954
 56.3719880369828985 17.9004727736555189 28.6327538495249954
 -5.6371820966429516 22.7824531798069998 28.6327538495249954
 32.4139332839163785 10.5775387790982709 28.6327538495249954
 15.5023452839163713 10.5775387790982709 28.6327538495249954
 26.7767091385716043  5.6956316022867357 28.6327538495249954
 21.1394849525916122  5.6956316022867357 28.6327538495249954
 12.6836909525916113  5.6956316022867357 28.6327538495249954
  4.2278969525916086  5.6956316022867357 28.6327538495249954
 -1.4093272333883895  5.6956316022867357 28.6327538495249954
 70.4650063448698489  3.2546047845410229 28.6327538495249954
 62.0092123448698445  3.2546047845410229 28.6327538495249954
 56.3719881588898417  3.2546047845410229 28.6327538495249954
 47.9161941588898301  3.2546047845410229 28.6327538495249954
 42.2789699729098274  3.2546047845410229 28.6327538495249954
 39.4604001588898399  3.2546047845410229 28.6327538495249954
 33.8231759729098371  3.2546047845410229 28.6327538495249954
 35.2325031385716159  5.6956316022867357 28.6327538495249954
 28.1860363448698337  3.2546047845410229 28.6327538495249954
 16.9115879729098388  3.2546047845410229 28.6327538495249954
 14.0930181588898407  3.2546047845410229 28.6327538495249954
 11.2744483448698372  3.2546047845410229 28.6327538495249954
  5.6372241588898389  3.2546047845410229 28.6327538495249954
 -0.0000000270901599  3.2546047845410229 28.6327538495249954
 83.1486550862174738  0.8136511961352557 28.6327538495249954
 74.6928610862174764  0.8136511961352557 28.6327538495249954
 71.8742912721974676  0.8136511961352557 28.6327538495249954
 69.0556369002374737  0.8136511961352557 28.6327538495249954
 60.5998429002374621  0.8136511961352557 28.6327538495249954
 57.7812730862174604  0.8136511961352557 28.6327538495249954
 21.1395272721974621  0.8136511961352557 28.6327538495249954
 25.3673819729098362  3.2546047845410229 28.6327538495249954
 23.9581392839163634 10.5775387790982709 28.6327538495249954
 43.6882971385716132  5.6956316022867357 28.6327538495249954
 52.1440911385716035  5.6956316022867357 28.6327538495249954
 12.6836909119563703 10.5775387790982709 28.6327538495249954
  9.8651210979363722 10.5775387790982709 28.6327538495249954
 -4.2278970880436288 10.5775387790982709 28.6327538495249954
 78.9207580252639929  8.1365851906925037 28.6327538495249954
 70.4649640252639955  8.1365851906925037 28.6327538495249954
 64.8277398392839928  8.1365851906925037 28.6327538495249954
 59.1906002112439964  8.1365851906925037 28.6327538495249954
 53.5533760252639937  8.1365851906925037 28.6327538495249954
 45.0975820252639821  8.1365851906925037 28.6327538495249954
 42.2790122112439946  8.1365851906925037 28.6327538495249954
 39.4603578392839793  8.1365851906925037 28.6327538495249954
 31.0045638392839891  8.1365851906925037 28.6327538495249954
 49.3254367666116167  5.6956316022867357 28.6327538495249954
 28.1859940252639873  8.1365851906925037 28.6327538495249954
 16.9116302112439918  8.1365851906925037 28.6327538495249954
 11.2744060252639908  8.1365851906925037 28.6327538495249954
  2.8186120252639890  8.1365851906925037 28.6327538495249954
  0.0000422112439907  8.1365851906925037 28.6327538495249954
 80.3300429525916257  5.6956316022867357 28.6327538495249954
 77.5114731385716169  5.6956316022867357 28.6327538495249954
 69.0556791385716195  5.6956316022867357 28.6327538495249954
 66.2370247666116256  5.6956316022867357 28.6327538495249954
 63.4184549525916097  5.6956316022867357 28.6327538495249954
 60.5998851385716151  5.6956316022867357 28.6327538495249954
 57.7812307666116141  5.6956316022867357 28.6327538495249954
 54.9626609525916123  5.6956316022867357 28.6327538495249954
 25.3674242112439856  8.1365851906925037 28.6327538495249954
  0.0000420893370479 22.7824531798069998 28.6327538495249954
 11.2744059033570529 22.7824531798069998 28.6327538495249954
 14.0929757173770476 22.7824531798069998 28.6327538495249954
 42.2790119674301152 37.4283211689214923 28.6327538495249954
 39.4603575954701142 37.4283211689214923 28.6327538495249954
 36.6417877814501125 37.4283211689214923 28.6327538495249954
 28.1859937814501045 37.4283211689214923 28.6327538495249954
 25.3674239674301170 37.4283211689214923 28.6327538495249954
 19.7301997814501142 37.4283211689214923 28.6327538495249954
 14.0929755954701115 37.4283211689214923 28.6327538495249954
 39.4603995899903808 71.6020375533019688 28.6327538495249954
 -14.0929762185498877 37.4283211689214923 28.6327538495249954
 -19.7302004045298887 37.4283211689214923 28.6327538495249954
 63.4184547087777446 34.9873675805157234 28.6327538495249954
 54.9626607087777472 34.9873675805157234 28.6327538495249954
 45.0975817814501099 37.4283211689214923 28.6327538495249954
 46.5068667087777357 34.9873675805157234 28.6327538495249954
 32.4138485227977426 34.9873675805157234 28.6327538495249954
 26.7767088947577392 34.9873675805157234 28.6327538495249954
 23.9580545227977240 34.9873675805157234 28.6327538495249954
 18.3209148947577418 34.9873675805157234 28.6327538495249954
 12.6836907087777320 34.9873675805157234 28.6327538495249954
  7.0464665227977319 34.9873675805157234 28.6327538495249954
 -1.4093274772022688 34.9873675805157234 28.6327538495249954
 -7.0464671052422672 34.9873675805157234 28.6327538495249954
 -15.5022611052422672 34.9873675805157234 28.6327538495249954
 -18.3209154772022664 34.9873675805157234 28.6327538495249954
 59.1905577290959641 32.5463407627700150 28.6327538495249954
 56.3719879150759695 32.5463407627700150 28.6327538495249954
 40.8696425227977400 34.9873675805157234 28.6327538495249954
 53.5534181010559607 32.5463407627700150 28.6327538495249954
 47.9161515954701187 37.4283211689214923 28.6327538495249954
 -21.1394853318575109 39.8692747573272612 28.6327538495249954
 -18.3208732795033562 44.7512551634787386 28.6327538495249954
 -21.1394430935233544 44.7512551634787386 28.6327538495249954
 -23.9580974654833554 44.7512551634787386 28.6327538495249954
 53.5533334618442680 42.3103015750729767 28.6327538495249954
 28.1859514618442688 42.3103015750729767 28.6327538495249954
 25.3673816478242529 42.3103015750729767 28.6327538495249954
 22.5488118338042653 42.3103015750729767 28.6327538495249954
 14.0930178338042680 42.3103015750729767 28.6327538495249954
 11.2743634618442599 42.3103015750729767 28.6327538495249954
 -0.0000003521757358 42.3103015750729767 28.6327538495249954
 -2.8185701661957374 42.3103015750729767 28.6327538495249954
 -11.2743641661957401 42.3103015750729767 28.6327538495249954
 50.7348059674301126 37.4283211689214923 28.6327538495249954
 -14.0930185381557376 42.3103015750729767 28.6327538495249954
 -22.5488125381557367 42.3103015750729767 28.6327538495249954
 60.5998848541225001 39.8692747573272612 28.6327538495249954
 43.6882968541224912 39.8692747573272612 28.6327538495249954
 35.2325028541224938 39.8692747573272612 28.6327538495249954
 29.5952786681424982 39.8692747573272612 28.6327538495249954
 26.7767088541224823 39.8692747573272612 28.6327538495249954
 12.6836906681424875 39.8692747573272612 28.6327538495249954
  7.0465510401024849 39.8692747573272612 28.6327538495249954
  4.2278966681424874 39.8692747573272612 28.6327538495249954
  1.4093268541224926 39.8692747573272612 28.6327538495249954
 -7.0464671458775081 39.8692747573272612 28.6327538495249954
 -12.6836913318575100 39.8692747573272612 28.6327538495249954
 -16.9115883521757375 42.3103015750729767 28.6327538495249954
 47.9161939150759579 32.5463407627700150 28.6327538495249954
 45.0976241010559633 32.5463407627700150 28.6327538495249954
 36.6418301010559517 32.5463407627700150 28.6327538495249954
  8.4557937697312031 27.6644335859584807 28.6327538495249954
 -5.6372244162487979 27.6644335859584807 28.6327538495249954
 -8.4557942302688005 27.6644335859584807 28.6327538495249954
 -11.2743640442888005 27.6644335859584807 28.6327538495249954
 69.0556789760294407 25.2234067682127652 28.6327538495249954
 66.2371091620094319 25.2234067682127652 28.6327538495249954
 63.4184547900494380 25.2234067682127652 28.6327538495249954
 60.5998849760294434 25.2234067682127652 28.6327538495249954
 57.7813151620094345 25.2234067682127652 28.6327538495249954
 52.1440909760294318 25.2234067682127652 28.6327538495249954
 49.3255211620094371 25.2234067682127652 28.6327538495249954
 46.5068667900494361 25.2234067682127652 28.6327538495249954
 11.2743635837511977 27.6644335859584807 28.6327538495249954
 26.7767089760294326 25.2234067682127652 28.6327538495249954
  4.2278967900494315 25.2234067682127652 28.6327538495249954
 -4.2278972099505676 25.2234067682127652 28.6327538495249954
 -7.0464670239705693 25.2234067682127652 28.6327538495249954
 67.6463940893370506 22.7824531798069998 28.6327538495249954
 47.9161517173770548 22.7824531798069998 28.6327538495249954
 45.0975819033570531 22.7824531798069998 28.6327538495249954
 39.4603577173770574 22.7824531798069998 28.6327538495249954
 33.8232180893370540 22.7824531798069998 28.6327538495249954
 31.0045637173770388 22.7824531798069998 28.6327538495249954
 28.1859939033570512 22.7824531798069998 28.6327538495249954
 25.3674240893370566 22.7824531798069998 28.6327538495249954
 19.7301999033570468 22.7824531798069998 28.6327538495249954
 12.6836907900494289 25.2234067682127652 28.6327538495249954
 14.0930179557111952 27.6644335859584807 28.6327538495249954
 22.5488119557112086 27.6644335859584807 28.6327538495249954
 36.6417455837512094 27.6644335859584807 28.6327538495249954
 25.3673817290959498 32.5463407627700150 28.6327538495249954
 16.9115877290959595 32.5463407627700150 28.6327538495249954
 14.0930179150759578 32.5463407627700150 28.6327538495249954
  8.4557937290959586 32.5463407627700150 28.6327538495249954
  5.6372239150759640 32.5463407627700150 28.6327538495249954
  2.8186541010559618 32.5463407627700150 28.6327538495249954
 -0.0000002709040391 32.5463407627700150 28.6327538495249954
 -2.8185700849240374 32.5463407627700150 28.6327538495249954
 -8.4557942709040379 32.5463407627700150 28.6327538495249954
 -14.0929338989440378 32.5463407627700150 28.6327538495249954
 -16.9115882709040370 32.5463407627700150 28.6327538495249954
 60.5998426564235899 30.1053871743642461 28.6327538495249954
 57.7812728424035953 30.1053871743642461 28.6327538495249954
 43.6882546564235881 30.1053871743642461 28.6327538495249954
 29.5953210283835837 30.1053871743642461 28.6327538495249954
 23.9580968424035810 30.1053871743642461 28.6327538495249954
 18.3208726564235782 30.1053871743642461 28.6327538495249954
  9.8650786564235791 30.1053871743642461 28.6327538495249954
  1.4092846564235810 30.1053871743642461 28.6327538495249954
 -9.8650791575964192 30.1053871743642461 28.6327538495249954
 -15.5023033435764184 30.1053871743642461 28.6327538495249954
 67.6463517697312113 27.6644335859584807 28.6327538495249954
 64.8277819557112025 27.6644335859584807 28.6327538495249954
 59.1905577697312140 27.6644335859584807 28.6327538495249954
 50.7347637697312024 27.6644335859584807 28.6327538495249954
 45.0975395837512067 27.6644335859584807 28.6327538495249954
 42.2789697697312050 27.6644335859584807 28.6327538495249954
 -1.4092852795033535 44.7512551634787386 28.6327538495249954
 42.2789694040103896 71.6020375533019688 28.6327538495249954
