 H  O 
 1.0000000000000000
    84.5579400000000021    0.0000000000000000    0.0000000000000000
   -42.2789706095346958   73.2293399455724767    0.0000000000000000
     0.0000000000000000    0.0000000000000000   46.9039550000000034
 H   O  
 226 372
Cartesian
  2.8185694753893440 40.6829991828024689 28.1128704123049964
 32.4138484957075690 38.2419723650567462 28.1128704123049964
 26.7767088676675797 38.2419723650567462 28.1128704123049964
  5.6371814871082586 50.4468867657654769 28.1128704123049964
 -1.4093277074710613 62.6518011664742076 28.1128704123049964
  5.6371817309221299 21.1551507875364884 28.1128704123049964
 -12.6836915214910633 62.6518011664742076 28.1128704123049964
 -21.1394855214910677 62.6518011664742076 28.1128704123049964
 14.0929757309221344 21.1551507875364884 28.1128704123049964
 -4.2278973183124275 38.2419723650567462 28.1128704123049964
 -26.7767097074710669 62.6518011664742076 28.1128704123049964
 28.1859939169021310 21.1551507875364884 28.1128704123049964
 19.7301996730882578 50.4468867657654769 28.1128704123049964
 71.8742488442297542 18.7141971991307194 28.1128704123049964
 33.8231335449421309 21.1551507875364884 28.1128704123049964
 45.0975819169021293 21.1551507875364884 28.1128704123049964
 31.0046056848071565 60.2107743487284921 28.1128704123049964
 28.1859936730882552 50.4468867657654769 28.1128704123049964
 50.7347214230351895 35.8010187766509844 28.1128704123049964
 -9.8651213823854889 23.5961043759422537 28.1128704123049964
 40.8696844902278471 72.4156887494372228 28.1128704123049964
 -1.4093273823854895 23.5961043759422537 28.1128704123049964
  4.2278968035945095 23.5961043759422537 28.1128704123049964
 42.2789274230351850 35.8010187766509844 28.1128704123049964
  9.8651209895745122 23.5961043759422537 28.1128704123049964
 12.6836908035945140 23.5961043759422537 28.1128704123049964
 15.5022606176145086 23.5961043759422537 28.1128704123049964
 39.4603577309221265 21.1551507875364884 28.1128704123049964
 63.4184548442297569 18.7141971991307194 28.1128704123049964
  2.8186116730882564 50.4468867657654769 28.1128704123049964
 57.7812306582497541 18.7141971991307194 28.1128704123049964
 16.9115878645479825 16.2731703813850075 28.1128704123049964
 -2.8186126347986837 65.0927547548799765 28.1128704123049964
 25.3673818645479834 16.2731703813850075 28.1128704123049964
 -22.5487703269117468 50.4468867657654769 28.1128704123049964
 -19.7302005128917450 50.4468867657654769 28.1128704123049964
 47.9161940505279844 16.2731703813850075 28.1128704123049964
 -2.8186547105906588 40.6829991828024689 28.1128704123049964
 -16.9116306988717469 50.4468867657654769 28.1128704123049964
 -31.0045644488186873 65.0927547548799765 28.1128704123049964
 -33.8232188207786848 65.0927547548799765 28.1128704123049964
 -11.2744487105906597 40.6829991828024689 28.1128704123049964
 46.5068664785089325 62.6518011664742076 28.1128704123049964
 -14.0929763269117494 50.4468867657654769 28.1128704123049964
 -11.2744065128917477 50.4468867657654769 28.1128704123049964
 57.7812304957075682 38.2419723650567462 28.1128704123049964
  9.8650364722697521 18.7141971991307194 28.1128704123049964
 12.6836908442297531 18.7141971991307194 28.1128704123049964
 15.5022606582497549 18.7141971991307194 28.1128704123049964
 18.3208304722697477 18.7141971991307194 28.1128704123049964
 54.9626606816875736 38.2419723650567462 28.1128704123049964
 29.5952784785089271 62.6518011664742076 28.1128704123049964
 32.4138486582497549 18.7141971991307194 28.1128704123049964
 -8.4558366988717459 50.4468867657654769 28.1128704123049964
 38.0510726816875717 38.2419723650567462 28.1128704123049964
 12.6836904785089395 62.6518011664742076 28.1128704123049964
 52.1440064722697443 18.7141971991307194 28.1128704123049964
 54.9626608442297453 18.7141971991307194 28.1128704123049964
 36.6417877949951958 35.8010187766509844 28.1128704123049964
  2.8186115511813119 65.0927547548799765 28.1128704123049964
 31.0045634871082498 50.4468867657654769 28.1128704123049964
 36.6417876730882455 50.4468867657654769 28.1128704123049964
 35.2324606699686598 28.4780847820937346 28.1128704123049964
 54.9626607223228163 33.3600651882452155 28.1128704123049964
 43.6882546699686571 28.4780847820937346 28.1128704123049964
 52.1440486699686616 28.4780847820937346 28.1128704123049964
 54.9626184839886562 28.4780847820937346 28.1128704123049964
 57.7812728559486644 28.4780847820937346 28.1128704123049964
 60.5998426699686590 28.4780847820937346 28.1128704123049964
 63.4184124839886536 28.4780847820937346 28.1128704123049964
 46.5068667223228047 33.3600651882452155 28.1128704123049964
  9.8651207457606311 52.8878403541712458 28.1128704123049964
 33.8231755394623974 55.3288671719169614 28.1128704123049964
 -11.2743640713789581 30.9190383704995000 28.1128704123049964
 63.4184547223228137 33.3600651882452155 28.1128704123049964
  8.4557937426410454 30.9190383704995000 28.1128704123049964
 25.3673815394624036 55.3288671719169614 28.1128704123049964
 22.5488119286210420 30.9190383704995000 28.1128704123049964
 22.5487271675023955 55.3288671719169614 28.1128704123049964
 33.8231757426410411 30.9190383704995000 28.1128704123049964
 42.2789697426410385 30.9190383704995000 28.1128704123049964
 14.0929331675024070 55.3288671719169614 28.1128704123049964
 32.4138485363428117 33.3600651882452155 28.1128704123049964
 23.9580545363428143 33.3600651882452155 28.1128704123049964
 -8.4557944605375948 55.3288671719169614 28.1128704123049964
 -15.5023456496371885 33.3600651882452155 28.1128704123049964
 43.6882967457606384 52.8878403541712458 28.1128704123049964
 -1.4093274636571897 33.3600651882452155 28.1128704123049964
 11.2743635566610401 30.9190383704995000 28.1128704123049964
 26.7766666699686624 28.4780847820937346 28.1128704123049964
 -29.5953217598252145 57.7698207603227232 28.1128704123049964
 18.3208726699686650 28.4780847820937346 28.1128704123049964
 45.0975816730882570 50.4468867657654769 28.1128704123049964
 -14.0930186871528367 60.2107743487284921 28.1128704123049964
 54.9626608035945097 23.5961043759422537 28.1128704123049964
 60.5998849895745124 23.5961043759422537 28.1128704123049964
 50.7347213011282463 50.4468867657654769 28.1128704123049964
 19.7301997949951904 35.8010187766509844 28.1128704123049964
 -28.1859523151928357 60.2107743487284921 28.1128704123049964
 11.2744057949951930 35.8010187766509844 28.1128704123049964
 49.3254786121347877 57.7698207603227232 28.1128704123049964
 46.5068242401747796 57.7698207603227232 28.1128704123049964
 38.0510302401747822 57.7698207603227232 28.1128704123049964
 39.4603154113162731 26.0371311936879657 28.1128704123049964
 42.2789697832762812 26.0371311936879657 28.1128704123049964
  5.6371816090151947 35.8010187766509844 28.1128704123049964
 -4.2278974402193654 52.8878403541712458 28.1128704123049964
 50.7347637832762715 26.0371311936879657 28.1128704123049964
 15.5023026121347893 57.7698207603227232 28.1128704123049964
 -2.8186123909848098 35.8010187766509844 28.1128704123049964
  9.8650784261547866 57.7698207603227232 28.1128704123049964
  7.0465086121347857 57.7698207603227232 28.1128704123049964
  1.4093267457606342 52.8878403541712458 28.1128704123049964
 -4.2279395160113378 28.4780847820937346 28.1128704123049964
 -8.4558365769648098 35.8010187766509844 28.1128704123049964
  1.4092846699686612 28.4780847820937346 28.1128704123049964
 -7.0465095738452108 57.7698207603227232 28.1128704123049964
  4.2278965597806355 52.8878403541712458 28.1128704123049964
 -18.3208733878652161 57.7698207603227232 28.1128704123049964
 29.5952788035945140 23.5961043759422537 28.1128704123049964
  5.6371813652013136 65.0927547548799765 28.1128704123049964
 -31.0046066465175976 55.3288671719169614 28.1128704123049964
 -0.0000001354520196 16.2731703813850075 28.1128704123049964
 11.2744060388090670  6.5092827984219914 28.1128704123049964
 35.2324605480617166 43.1239527712082307 28.1128704123049964
 45.0975398004749266  1.6273023922705114 28.1128704123049964
 -0.0000005824445366 69.9747351610314468 28.1128704123049964
 39.4604001724349231  1.6273023922705114 28.1128704123049964
 -0.0000003792658964 45.5649063596139996 28.1128704123049964
 29.5952363620817174 43.1239527712082307 28.1128704123049964
  9.8650362284558710 48.0059331773597151 28.1128704123049964
 31.0045638528290759  6.5092827984219914 28.1128704123049964
 -19.7302429544045346 69.9747351610314468 28.1128704123049964
  2.8185696785679806 16.2731703813850075 28.1128704123049964
  5.6371390455954664 69.9747351610314468 28.1128704123049964
 39.4603578528290697  6.5092827984219914 28.1128704123049964
 47.9161518528290671  6.5092827984219914 28.1128704123049964
 -28.1860369544045355 69.9747351610314468 28.1128704123049964
 56.3719458528290644  6.5092827984219914 28.1128704123049964
 12.6836906004158720 48.0059331773597151 28.1128704123049964
 15.5023027340417219 43.1239527712082307 28.1128704123049964
 -1.4093272604785494  8.9502363868277595 28.1128704123049964
 -33.8231765824445318 69.9747351610314468 28.1128704123049964
  7.0464667395214500  8.9502363868277595 28.1128704123049964
 -39.4604007684245346 69.9747351610314468 28.1128704123049964
  9.8650785480617262 43.1239527712082307 28.1128704123049964
 21.1394849255014528  8.9502363868277595 28.1128704123049964
 23.9580967340417281 43.1239527712082307 28.1128704123049964
 70.4649218004749116  1.6273023922705114 28.1128704123049964
 77.5113885941766796  4.0683292100162243 28.1128704123049964
 -9.8650795097721549 72.4156887494372228 28.1128704123049964
 -22.5488125652458997 45.5649063596139996 28.1128704123049964
 -26.7766675097721567 72.4156887494372228 28.1128704123049964
 -35.2324615097721576 72.4156887494372228 28.1128704123049964
 -14.0930185652459006 45.5649063596139996 28.1128704123049964
 -1.4093272198433096  4.0683292100162243 28.1128704123049964
  1.4092425941766900  4.0683292100162243 28.1128704123049964
  9.8650365941766900  4.0683292100162243 28.1128704123049964
 -12.6836913995841307 48.0059331773597151 28.1128704123049964
 12.6836909661366875  4.0683292100162243 28.1128704123049964
 15.5022607801566892  4.0683292100162243 28.1128704123049964
 21.1394849661366919  4.0683292100162243 28.1128704123049964
 74.6928187801566850  4.0683292100162243 28.1128704123049964
 54.9626183620817130 43.1239527712082307 28.1128704123049964
 40.8696427801566955  4.0683292100162243 28.1128704123049964
 31.0045210455954674 69.9747351610314468 28.1128704123049964
 49.3254367801566929  4.0683292100162243 28.1128704123049964
 -7.0465517715441273 48.0059331773597151 28.1128704123049964
 25.3673814175554639 69.9747351610314468 28.1128704123049964
 54.9626609661366956  4.0683292100162243 28.1128704123049964
 60.5998005941766849  4.0683292100162243 28.1128704123049964
 22.5487270455954629 69.9747351610314468 28.1128704123049964
 46.5068243620817157 43.1239527712082307 28.1128704123049964
 16.9115874175554666 69.9747351610314468 28.1128704123049964
 71.8742489661366903  4.0683292100162243 28.1128704123049964
 32.4138487801566981  4.0683292100162243 28.1128704123049964
 35.2325026238536978 67.5337083432857384 28.1128704123049964
 40.8696422518936870 67.5337083432857384 28.1128704123049964
  1.4092845480617260 43.1239527712082307 28.1128704123049964
 22.5488118067141059 45.5649063596139996 28.1128704123049964
 46.5068666004158757 48.0059331773597151 28.1128704123049964
 62.0091277192032209 11.3912632045734714 28.1128704123049964
 64.8276975332232155 11.3912632045734714 28.1128704123049964
 42.2789271792213057 65.0927547548799765 28.1128704123049964
 70.4649217192032182 11.3912632045734714 28.1128704123049964
 76.1021459051832210 11.3912632045734714 28.1128704123049964
 11.2743638004749194  1.6273023922705114 28.1128704123049964
 36.6417875511813165 65.0927547548799765 28.1128704123049964
 31.0045633652013137 65.0927547548799765 28.1128704123049964
 33.8231756613693406 40.6829991828024689 28.1128704123049964
  9.8650787918756002 13.8322167929792403 28.1128704123049964
 38.0510306058956047 13.8322167929792403 28.1128704123049964
 16.9115451792213065 65.0927547548799765 28.1128704123049964
 32.4138904902278497 72.4156887494372228 28.1128704123049964
 49.3254789778556031 13.8322167929792403 28.1128704123049964
 52.1440487918755977 13.8322167929792403 28.1128704123049964
 54.9626186058955923 13.8322167929792403 28.1128704123049964
 14.0929753652013119 65.0927547548799765 28.1128704123049964
 11.2744055511813173 65.0927547548799765 28.1128704123049964
 -5.6372243214320203 16.2731703813850075 28.1128704123049964
  2.8185698004749202  1.6273023922705114 28.1128704123049964
  8.4557511792213162 65.0927547548799765 28.1128704123049964
 53.5533337192032164 11.3912632045734714 28.1128704123049964
  1.4092843042478451 72.4156887494372228 28.1128704123049964
 -16.9115883792659005 45.5649063596139996 28.1128704123049964
 59.1905576613693398 40.6829991828024689 28.1128704123049964
 -21.1395276379182775 43.1239527712082307 28.1128704123049964
 57.7812307395214404  8.9502363868277595 28.1128704123049964
 -15.5023034519382783 43.1239527712082307 28.1128704123049964
 18.3208723042478390 72.4156887494372228 28.1128704123049964
 21.1394844378736906 67.5337083432857384 28.1128704123049964
 -4.2278975621263015 67.5337083432857384 28.1128704123049964
 -9.8651217481063078 67.5337083432857384 28.1128704123049964
 -12.6836915621263024 67.5337083432857384 28.1128704123049964
 -21.1394853995841281 48.0059331773597151 28.1128704123049964
 19.7301578004749203  1.6273023922705114 28.1128704123049964
 22.5487275332232180 11.3912632045734714 28.1128704123049964
 28.1859517192032243 11.3912632045734714 28.1128704123049964
 26.7766242284558658 48.0059331773597151 28.1128704123049964
 36.6417457192032217 11.3912632045734714 28.1128704123049964
 -23.9580553761463051 67.5337083432857384 28.1128704123049964
 -26.7767097481063061 67.5337083432857384 28.1128704123049964
 26.7767086238536862 67.5337083432857384 28.1128704123049964
 50.7347639051832218 11.3912632045734714 28.1128704123049964
 28.1859518004749177  1.6273023922705114 28.1128704123049964
 -18.3209157481063052 67.5337083432857384 28.1128704123049964
 16.9116298455231728 52.0741891580359919 28.6327538495249954
 14.0929754735631594 52.0741891580359919 28.6327538495249954
 28.1859936595431719 52.0741891580359919 28.6327538495249954
 -16.9115883928109767 47.1922087518845075 28.6327538495249954
 39.4603574735631781 52.0741891580359919 28.6327538495249954
 -19.7301582068309784 47.1922087518845075 28.6327538495249954
 22.5487694735631763 52.0741891580359919 28.6327538495249954
 38.0511149064766485 44.7512551634787386 28.6327538495249954
 19.7301996595431604 52.0741891580359919 28.6327538495249954
 25.3674238455231631 52.0741891580359919 28.6327538495249954
 49.3254364008908013 49.6332355696302230 28.6327538495249954
  5.6371814735631682 52.0741891580359919 28.6327538495249954
 -23.9580552271492060 49.6332355696302230 28.6327538495249954
 47.9161514735631755 52.0741891580359919 28.6327538495249954
 56.3719877931690334 47.1922087518845075 28.6327538495249954
 53.5534179791490246 47.1922087518845075 28.6327538495249954
 50.7347636071890307 47.1922087518845075 28.6327538495249954
 42.2789696071890333 47.1922087518845075 28.6327538495249954
 -1.4093275991092098 49.6332355696302230 28.6327538495249954
 39.4603997931690245 47.1922087518845075 28.6327538495249954
 33.8231756071890288 47.1922087518845075 28.6327538495249954
  7.0464664008907913 49.6332355696302230 28.6327538495249954
 25.3673816071890279 47.1922087518845075 28.6327538495249954
 22.5488117931690120 47.1922087518845075 28.6327538495249954
 15.5022604008907816 49.6332355696302230 28.6327538495249954
 16.9115876071890092 47.1922087518845075 28.6327538495249954
 23.9580544008907985 49.6332355696302230 28.6327538495249954
 14.0930177931690217 47.1922087518845075 28.6327538495249954
 54.9626605868708040 49.6332355696302230 28.6327538495249954
  8.4557936071890190 47.1922087518845075 28.6327538495249954
 -28.1859945264368292 52.0741891580359919 28.6327538495249954
 -8.4557521544768282 52.0741891580359919 28.6327538495249954
  5.6372237931690181 47.1922087518845075 28.6327538495249954
  2.8186539791490159 47.1922087518845075 28.6327538495249954
 -11.2743642068309775 47.1922087518845075 28.6327538495249954
  8.4558358455231772 52.0741891580359919 28.6327538495249954
  1.4092849002374601  0.8136511961352557 28.6327538495249954
 12.6837327845697061 59.3971231525932382 28.6327538495249954
 -21.1394854537644470 54.5151427464417537 28.6327538495249954
 19.7301995376362349 66.7200571471504844 28.6327538495249954
 11.2744055376362251 66.7200571471504844 28.6327538495249954
  8.4558357236162376 66.7200571471504844 28.6327538495249954
  2.8186115376362340 66.7200571471504844 28.6327538495249954
  0.0000417236162395 66.7200571471504844 28.6327538495249954
 -14.0929764623637634 66.7200571471504844 28.6327538495249954
 -22.5487704623637697 66.7200571471504844 28.6327538495249954
 -28.1859946483437653 66.7200571471504844 28.6327538495249954
 -33.8231342763837688 66.7200571471504844 28.6327538495249954
 -36.6417886483437698 66.7200571471504844 28.6327538495249954
 28.1859935376362323 66.7200571471504844 28.6327538495249954
 46.5068664649638706 64.2791035587447084 28.6327538495249954
 26.7767086509438528 64.2791035587447084 28.6327538495249954
 23.9580542789838589 64.2791035587447084 28.6327538495249954
 18.3209146509438554 64.2791035587447084 28.6327538495249954
  1.4093266509438596 64.2791035587447084 28.6327538495249954
 -7.0464673490561447 64.2791035587447084 28.6327538495249954
 -12.6836915350361448 64.2791035587447084 28.6327538495249954
 -15.5022613490561429 64.2791035587447084 28.6327538495249954
 -21.1394855350361439 64.2791035587447084 28.6327538495249954
 -23.9580553490561456 64.2791035587447084 28.6327538495249954
 -35.2325037210161440 64.2791035587447084 28.6327538495249954
 38.0510724649638732 64.2791035587447084 28.6327538495249954
 42.2789694852820901 61.8380767409990000 28.6327538495249954
 31.0045633516562411 66.7200571471504844 28.6327538495249954
 -32.4138493896913857 69.1610107355562462 28.6327538495249954
 28.1859512180303895 71.6020375533019688 28.6327538495249954
 25.3673814040103807 71.6020375533019688 28.6327538495249954
 14.0930175899903762 71.6020375533019688 28.6327538495249954
 -2.8185704100096114 71.6020375533019688 28.6327538495249954
 -5.6372247819696195 71.6020375533019688 28.6327538495249954
 -11.2743644100096230 71.6020375533019688 28.6327538495249954
 -14.0930187819696204 71.6020375533019688 28.6327538495249954
 -16.9115885959896168 71.6020375533019688 28.6327538495249954
 -19.7301584100096186 71.6020375533019688 28.6327538495249954
 -22.5488127819696196 71.6020375533019688 28.6327538495249954
 45.0975815376362448 66.7200571471504844 28.6327538495249954
 38.0510724243286234 69.1610107355562462 28.6327538495249954
 29.5952784243286260 69.1610107355562462 28.6327538495249954
 18.3209146103086198 69.1610107355562462 28.6327538495249954
 12.6836904243286224 69.1610107355562462 28.6327538495249954
  9.8651206103086064 69.1610107355562462 28.6327538495249954
  1.4093266103086164 69.1610107355562462 28.6327538495249954
 -1.4092432037113782 69.1610107355562462 28.6327538495249954
 -4.2278975756713866 69.1610107355562462 28.6327538495249954
 -15.5022613896913821 69.1610107355562462 28.6327538495249954
 -21.1394855756713831 69.1610107355562462 28.6327538495249954
 -29.5952795756713840 69.1610107355562462 28.6327538495249954
 35.2325026103086287 69.1610107355562462 28.6327538495249954
 -26.7766250818044469 54.5151427464417537 28.6327538495249954
 39.4603996712620955 61.8380767409990000 28.6327538495249954
 33.8231754852820927 61.8380767409990000 28.6327538495249954
 42.2789695259173328 56.9561695641874692 28.6327538495249954
 36.6417453399373301 56.9561695641874692 28.6327538495249954
 19.7301573399373318 56.9561695641874692 28.6327538495249954
 11.2743633399373131 56.9561695641874692 28.6327538495249954
  2.8185693399373224 56.9561695641874692 28.6327538495249954
 -2.8185702881026811 56.9561695641874692 28.6327538495249954
 -14.0930186600626755 56.9561695641874692 28.6327538495249954
 49.3255209181955507 54.5151427464417537 28.6327538495249954
 46.5068665462355568 54.5151427464417537 28.6327538495249954
 43.6882967322155622 54.5151427464417537 28.6327538495249954
 50.7347635259173302 56.9561695641874692 28.6327538495249954
 40.8697269181955534 54.5151427464417537 28.6327538495249954
 35.2325027322155506 54.5151427464417537 28.6327538495249954
 29.5952785462355585 54.5151427464417537 28.6327538495249954
 21.1394845462355612 54.5151427464417537 28.6327538495249954
 12.6836905462355407 54.5151427464417537 28.6327538495249954
  9.8651207322155532 54.5151427464417537 28.6327538495249954
  7.0465509181955595 54.5151427464417537 28.6327538495249954
  4.2278965462355513 54.5151427464417537 28.6327538495249954
 -7.0464672677844442 54.5151427464417537 28.6327538495249954
 -12.6836914537644478 54.5151427464417537 28.6327538495249954
 -15.5022612677844460 54.5151427464417537 28.6327538495249954
 38.0510725462355595 54.5151427464417537 28.6327538495249954
 36.6418298572420866 61.8380767409990000 28.6327538495249954
 -32.4138915873902960 59.3971231525932382 28.6327538495249954
 -23.9580975873902986 59.3971231525932382 28.6327538495249954
 25.3673814852820882 61.8380767409990000 28.6327538495249954
 22.5488116712620865 61.8380767409990000 28.6327538495249954
 14.0930176712620749 61.8380767409990000 28.6327538495249954
 11.2744478572420874 61.8380767409990000 28.6327538495249954
  8.4557934852820722 61.8380767409990000 28.6327538495249954
  2.8186538572420905 61.8380767409990000 28.6327538495249954
 -0.0000005147179177 61.8380767409990000 28.6327538495249954
 -16.9115885147179164 61.8380767409990000 28.6327538495249954
 -25.3673825147179137 61.8380767409990000 28.6327538495249954
 -31.0045221427579136 61.8380767409990000 28.6327538495249954
 -26.7766674014102968 59.3971231525932382 28.6327538495249954
 -33.8231765147179146 61.8380767409990000 28.6327538495249954
 26.7766664126097069 59.3971231525932382 28.6327538495249954
 21.1395267845696964 59.3971231525932382 28.6327538495249954
 15.5023025985896936 59.3971231525932382 28.6327538495249954
 35.2324605345166475 44.7512551634787386 28.6327538495249954
  1.4092844126096999 59.3971231525932382 28.6327538495249954
 -1.4092854014103018 59.3971231525932382 28.6327538495249954
 -4.2278552154303037 59.3971231525932382 28.6327538495249954
 -9.8650794014102949 59.3971231525932382 28.6327538495249954
 -12.6836492154302967 59.3971231525932382 28.6327538495249954
 -15.5023035873902977 59.3971231525932382 28.6327538495249954
 35.2324604126097114 59.3971231525932382 28.6327538495249954
 32.4138907204966458 44.7512551634787386 28.6327538495249954
 43.6882968947577410 34.9873675805157234 28.6327538495249954
 26.7766665345166501 44.7512551634787386 28.6327538495249954
 57.7812729643105243 15.4595191852497500 28.6327538495249954
 52.1440487783305286 15.4595191852497500 28.6327538495249954
 43.6882547783305313 15.4595191852497500 28.6327538495249954
 29.5953211502905269 15.4595191852497500 28.6327538495249954
 21.1395271502905153 15.4595191852497500 28.6327538495249954
 15.5023029643105232 15.4595191852497500 28.6327538495249954
 12.6837331502905215 15.4595191852497500 28.6327538495249954
  4.2279391502905188 15.4595191852497500 28.6327538495249954
 -1.4092850356894804 15.4595191852497500 28.6327538495249954
 67.6463518916381474 13.0185655968439828 28.6327538495249954
 56.3719880776181483 13.0185655968439828 28.6327538495249954
 60.5998427783305331 15.4595191852497500 28.6327538495249954
 47.9161940776181368 13.0185655968439828 28.6327538495249954
 14.0930180776181420 13.0185655968439828 28.6327538495249954
  5.6372240776181393 13.0185655968439828 28.6327538495249954
  2.8185697056581414 13.0185655968439828 28.6327538495249954
 -0.0000001083618602 13.0185655968439828 28.6327538495249954
 -2.8185699223818586 13.0185655968439828 28.6327538495249954
 66.2371092839163680 10.5775387790982709 28.6327538495249954
 57.7813152839163777 10.5775387790982709 28.6327538495249954
 54.9626609119563767 10.5775387790982709 28.6327538495249954
 52.1440910979363750 10.5775387790982709 28.6327538495249954
 49.3255212839163661 10.5775387790982709 28.6327538495249954
 46.5068669119563793 10.5775387790982709 28.6327538495249954
 33.8231758916381438 13.0185655968439828 28.6327538495249954
 66.2370669643105288 15.4595191852497500 28.6327538495249954
 69.0556367783305234 15.4595191852497500 28.6327538495249954
 74.6928609643105261 15.4595191852497500 28.6327538495249954
 60.5998850166646719 20.3414995914012344 28.6327538495249954
 57.7812306447046780 20.3414995914012344 28.6327538495249954
 43.6882970166646629 20.3414995914012344 28.6327538495249954
 29.5952788306846699 20.3414995914012344 28.6327538495249954
 26.7767090166646753 20.3414995914012344 28.6327538495249954
 23.9580546447046672 20.3414995914012344 28.6327538495249954
 15.5022606447046662 20.3414995914012344 28.6327538495249954
 12.6836908306846716 20.3414995914012344 28.6327538495249954
  9.8651210166646699 20.3414995914012344 28.6327538495249954
  7.0464666447046698 20.3414995914012344 28.6327538495249954
 -1.4093273552953294 20.3414995914012344 28.6327538495249954
 -4.2278971693153311 20.3414995914012344 28.6327538495249954
 -7.0464669833353293 20.3414995914012344 28.6327538495249954
 -9.8651213552953294 20.3414995914012344 28.6327538495249954
 59.1905578510029073 17.9004727736555189 28.6327538495249954
 47.9161940369829011 17.9004727736555189 28.6327538495249954
 45.0976242229628923 17.9004727736555189 28.6327538495249954
 42.2789698510029055 17.9004727736555189 28.6327538495249954
 36.6418302229629020 17.9004727736555189 28.6327538495249954
 31.0046060369829029 17.9004727736555189 28.6327538495249954
 28.1860362229629082 17.9004727736555189 28.6327538495249954
  5.6372240369829028 17.9004727736555189 28.6327538495249954
  2.8186542229628988 17.9004727736555189 28.6327538495249954
 -2.8185699630171004 17.9004727736555189 28.6327538495249954
 -8.4557941489970982 17.9004727736555189 28.6327538495249954
 38.0510729119563607 10.5775387790982709 28.6327538495249954
 32.4139332839163785 10.5775387790982709 28.6327538495249954
 78.9207580252639929  8.1365851906925037 28.6327538495249954
 73.2835338392839901  8.1365851906925037 28.6327538495249954
 73.2835761588898578  3.2546047845410229 28.6327538495249954
 67.6463519729098550  3.2546047845410229 28.6327538495249954
 64.8277821588898462  3.2546047845410229 28.6327538495249954
 62.0092123448698445  3.2546047845410229 28.6327538495249954
 53.5534183448698329  3.2546047845410229 28.6327538495249954
 50.7347639729098461  3.2546047845410229 28.6327538495249954
 42.2789699729098274  3.2546047845410229 28.6327538495249954
 31.0046061588898354  3.2546047845410229 28.6327538495249954
 16.9115879729098388  3.2546047845410229 28.6327538495249954
 80.3300852721974650  0.8136511961352557 28.6327538495249954
 74.6928610862174764  0.8136511961352557 28.6327538495249954
 71.8742912721974676  0.8136511961352557 28.6327538495249954
 66.2370670862174649  0.8136511961352557 28.6327538495249954
 60.5998429002374621  0.8136511961352557 28.6327538495249954
 57.7812730862174604  0.8136511961352557 28.6327538495249954
 54.9627032721974516  0.8136511961352557 28.6327538495249954
 49.3254790862174488  0.8136511961352557 28.6327538495249954
 46.5069092721974613  0.8136511961352557 28.6327538495249954
 35.2324609002374558  0.8136511961352557 28.6327538495249954
 29.5953212721974559  0.8136511961352557 28.6327538495249954
 23.9580970862174638  0.8136511961352557 28.6327538495249954
 18.3208729002374611  0.8136511961352557 28.6327538495249954
 15.5023030862174611  0.8136511961352557 28.6327538495249954
 12.6837332721974576  0.8136511961352557 28.6327538495249954
  7.0465090862174584  0.8136511961352557 28.6327538495249954
 -1.4093272333883895  5.6956316022867357 28.6327538495249954
 -11.2744062826229499 22.7824531798069998 28.6327538495249954
  4.2278969525916086  5.6956316022867357 28.6327538495249954
 18.3209151385716105  5.6956316022867357 28.6327538495249954
 67.6463942112439867  8.1365851906925037 28.6327538495249954
 64.8277398392839928  8.1365851906925037 28.6327538495249954
 62.0091700252639910  8.1365851906925037 28.6327538495249954
 53.5533760252639937  8.1365851906925037 28.6327538495249954
 50.7348062112439848  8.1365851906925037 28.6327538495249954
 47.9161518392839980  8.1365851906925037 28.6327538495249954
 42.2790122112439946  8.1365851906925037 28.6327538495249954
 39.4603578392839793  8.1365851906925037 28.6327538495249954
 36.6417880252639918  8.1365851906925037 28.6327538495249954
 33.8232182112439972  8.1365851906925037 28.6327538495249954
 31.0045638392839891  8.1365851906925037 28.6327538495249954
 28.1859940252639873  8.1365851906925037 28.6327538495249954
 25.3674242112439856  8.1365851906925037 28.6327538495249954
 22.5487698392839881  8.1365851906925037 28.6327538495249954
 16.9116302112439918  8.1365851906925037 28.6327538495249954
 11.2744060252639908  8.1365851906925037 28.6327538495249954
  2.8186120252639890  8.1365851906925037 28.6327538495249954
 71.8742489525916284  5.6956316022867357 28.6327538495249954
 63.4184549525916097  5.6956316022867357 28.6327538495249954
 52.1440911385716035  5.6956316022867357 28.6327538495249954
 43.6882971385716132  5.6956316022867357 28.6327538495249954
 38.0510729525916105  5.6956316022867357 28.6327538495249954
 29.5952789525916060  5.6956316022867357 28.6327538495249954
 26.7767091385716043  5.6956316022867357 28.6327538495249954
 21.1394849525916122  5.6956316022867357 28.6327538495249954
 15.5022607666116095  5.6956316022867357 28.6327538495249954
 -5.6371820966429516 22.7824531798069998 28.6327538495249954
  8.4558360893370512 22.7824531798069998 28.6327538495249954
 19.7301999033570468 22.7824531798069998 28.6327538495249954
 62.0091697814501188 37.4283211689214923 28.6327538495249954
 53.5533757814501215 37.4283211689214923 28.6327538495249954
 45.0975817814501099 37.4283211689214923 28.6327538495249954
 33.8232179674301037 37.4283211689214923 28.6327538495249954
 22.5487695954701017 37.4283211689214923 28.6327538495249954
  0.0000419674301133 37.4283211689214923 28.6327538495249954
 -5.6371822185498859 37.4283211689214923 28.6327538495249954
 -8.4557520325698885 37.4283211689214923 28.6327538495249954
 -14.0929762185498877 37.4283211689214923 28.6327538495249954
 -16.9115460325698876 37.4283211689214923 28.6327538495249954
 35.2325028947577295 34.9873675805157234 28.6327538495249954
 32.4138485227977426 34.9873675805157234 28.6327538495249954
 29.5952787087777267 34.9873675805157234 28.6327538495249954
 26.7767088947577392 34.9873675805157234 28.6327538495249954
 23.9580545227977240 34.9873675805157234 28.6327538495249954
 21.1394847087777364 34.9873675805157234 28.6327538495249954
 15.5022605227977337 34.9873675805157234 28.6327538495249954
  9.8651208947577302 34.9873675805157234 28.6327538495249954
  1.4093268947577322 34.9873675805157234 28.6327538495249954
 -4.2278972912222672 34.9873675805157234 28.6327538495249954
 -12.6836912912222672 34.9873675805157234 28.6327538495249954
 59.1905577290959641 32.5463407627700150 28.6327538495249954
 50.7347637290959668 32.5463407627700150 28.6327538495249954
 45.0976241010559633 32.5463407627700150 28.6327538495249954
 42.2789697290959623 32.5463407627700150 28.6327538495249954
 -15.5022611458775117 39.8692747573272612 28.6327538495249954
 39.4603999150759606 32.5463407627700150 28.6327538495249954
 -7.0464671458775081 39.8692747573272612 28.6327538495249954
  7.0465510401024849 39.8692747573272612 28.6327538495249954
 12.6837329064766493 44.7512551634787386 28.6327538495249954
  4.2279389064766386 44.7512551634787386 28.6327538495249954
 -4.2278550935233552 44.7512551634787386 28.6327538495249954
 -9.8650792795033553 44.7512551634787386 28.6327538495249954
 -12.6836490935233588 44.7512551634787386 28.6327538495249954
 59.1905576478242708 42.3103015750729767 28.6327538495249954
 50.7347636478242734 42.3103015750729767 28.6327538495249954
 39.4603998338042672 42.3103015750729767 28.6327538495249954
 36.6417454618442662 42.3103015750729767 28.6327538495249954
 33.8231756478242644 42.3103015750729767 28.6327538495249954
 28.1859514618442688 42.3103015750729767 28.6327538495249954
 19.7301574618442501 42.3103015750729767 28.6327538495249954
  5.6372238338042564 42.3103015750729767 28.6327538495249954
 -2.8185701661957374 42.3103015750729767 28.6327538495249954
 -16.9115883521757375 42.3103015750729767 28.6327538495249954
 -19.7301581661957393 42.3103015750729767 28.6327538495249954
 54.9626606681424974 39.8692747573272612 28.6327538495249954
 52.1440908541225028 39.8692747573272612 28.6327538495249954
 49.3255210401024939 39.8692747573272612 28.6327538495249954
 46.5068666681425000 39.8692747573272612 28.6327538495249954
 43.6882968541224912 39.8692747573272612 28.6327538495249954
 35.2325028541224938 39.8692747573272612 28.6327538495249954
 29.5952786681424982 39.8692747573272612 28.6327538495249954
 18.3209148541224920 39.8692747573272612 28.6327538495249954
 12.6836906681424875 39.8692747573272612 28.6327538495249954
  4.2278966681424874 39.8692747573272612 28.6327538495249954
 29.5953209064766369 44.7512551634787386 28.6327538495249954
 36.6418301010559517 32.5463407627700150 28.6327538495249954
 19.7302421010559677 32.5463407627700150 28.6327538495249954
  8.4557937697312031 27.6644335859584807 28.6327538495249954
  5.6372239557112023 27.6644335859584807 28.6327538495249954
 -2.8185700442888009 27.6644335859584807 28.6327538495249954
 -8.4557942302688005 27.6644335859584807 28.6327538495249954
 63.4184547900494380 25.2234067682127652 28.6327538495249954
 60.5998849760294434 25.2234067682127652 28.6327538495249954
 57.7813151620094345 25.2234067682127652 28.6327538495249954
 52.1440909760294318 25.2234067682127652 28.6327538495249954
 49.3255211620094371 25.2234067682127652 28.6327538495249954
 46.5068667900494361 25.2234067682127652 28.6327538495249954
 38.0510727900494388 25.2234067682127652 28.6327538495249954
 35.2325029760294228 25.2234067682127652 28.6327538495249954
 32.4139331620094353 25.2234067682127652 28.6327538495249954
 23.9581391620094379 25.2234067682127652 28.6327538495249954
 21.1394847900494298 25.2234067682127652 28.6327538495249954
  7.0465511620094325 25.2234067682127652 28.6327538495249954
 -12.6836912099505668 25.2234067682127652 28.6327538495249954
 70.4649639033570594 22.7824531798069998 28.6327538495249954
 64.8277397173770566 22.7824531798069998 28.6327538495249954
 62.0091699033570620 22.7824531798069998 28.6327538495249954
 53.5533759033570504 22.7824531798069998 28.6327538495249954
 50.7348060893370558 22.7824531798069998 28.6327538495249954
 42.2790120893370442 22.7824531798069998 28.6327538495249954
 31.0045637173770388 22.7824531798069998 28.6327538495249954
 25.3674240893370566 22.7824531798069998 28.6327538495249954
 14.0930179557111952 27.6644335859584807 28.6327538495249954
 28.1860361010559650 32.5463407627700150 28.6327538495249954
 22.5488119557112086 27.6644335859584807 28.6327538495249954
 33.8231757697311934 27.6644335859584807 28.6327538495249954
 16.9115877290959595 32.5463407627700150 28.6327538495249954
 14.0930179150759578 32.5463407627700150 28.6327538495249954
 11.2744481010559561 32.5463407627700150 28.6327538495249954
  8.4557937290959586 32.5463407627700150 28.6327538495249954
  5.6372239150759640 32.5463407627700150 28.6327538495249954
  2.8186541010559618 32.5463407627700150 28.6327538495249954
 -5.6371398989440404 32.5463407627700150 28.6327538495249954
 -11.2743640849240396 32.5463407627700150 28.6327538495249954
 -14.0929338989440378 32.5463407627700150 28.6327538495249954
 66.2370668424035927 30.1053871743642461 28.6327538495249954
 63.4184970283835838 30.1053871743642461 28.6327538495249954
 60.5998426564235899 30.1053871743642461 28.6327538495249954
 57.7812728424035953 30.1053871743642461 28.6327538495249954
 52.1440486564235925 30.1053871743642461 28.6327538495249954
 49.3254788424035837 30.1053871743642461 28.6327538495249954
 46.5069090283835891 30.1053871743642461 28.6327538495249954
 38.0511150283835775 30.1053871743642461 28.6327538495249954
 23.9580968424035810 30.1053871743642461 28.6327538495249954
 21.1395270283835863 30.1053871743642461 28.6327538495249954
  4.2279390283835818 30.1053871743642461 28.6327538495249954
 -15.5023033435764184 30.1053871743642461 28.6327538495249954
 67.6463517697312113 27.6644335859584807 28.6327538495249954
 64.8277819557112025 27.6644335859584807 28.6327538495249954
 47.9161939557112078 27.6644335859584807 28.6327538495249954
 36.6417455837512094 27.6644335859584807 28.6327538495249954
 31.0046059557112059 27.6644335859584807 28.6327538495249954
 42.2789694040103896 71.6020375533019688 28.6327538495249954
