 H  O 
 1.0000000000000000
    84.5579400000000021    0.0000000000000000    0.0000000000000000
   -42.2789706095346958   73.2293399455724767    0.0000000000000000
     0.0000000000000000    0.0000000000000000   46.9039550000000034
 H   O  
 209 408
Cartesian
  4.2278968035945095 23.5961043759422537 28.1128704123049964
  5.6371394113162827 26.0371311936879657 28.1128704123049964
 45.0975393534824036 55.3288671719169614 28.1128704123049964
 42.2789695394624090 55.3288671719169614 28.1128704123049964
 19.7301575972962873 26.0371311936879657 28.1128704123049964
 22.5487274113162819 26.0371311936879657 28.1128704123049964
 28.1859515972962846 26.0371311936879657 28.1128704123049964
 33.8231755394623974 55.3288671719169614 28.1128704123049964
 33.8231757832762838 26.0371311936879657 28.1128704123049964
 36.6417455972962784 26.0371311936879657 28.1128704123049964
 22.5487271675023955 55.3288671719169614 28.1128704123049964
 50.7347637832762715 26.0371311936879657 28.1128704123049964
 59.1905577832762830 26.0371311936879657 28.1128704123049964
 11.2743633534824053 55.3288671719169614 28.1128704123049964
 -9.8650791440513395 28.4780847820937346 28.1128704123049964
  5.6371391675024016 55.3288671719169614 28.1128704123049964
  4.2278544839886631 28.4780847820937346 28.1128704123049964
  7.0465088559486642 28.4780847820937346 28.1128704123049964
 12.6836484839886605 28.4780847820937346 28.1128704123049964
 21.1394424839886597 28.4780847820937346 28.1128704123049964
 -19.7302428324975985 55.3288671719169614 28.1128704123049964
 43.6882546699686571 28.4780847820937346 28.1128704123049964
 49.3254788559486528 28.4780847820937346 28.1128704123049964
 52.1440486699686616 28.4780847820937346 28.1128704123049964
 60.5998426699686590 28.4780847820937346 28.1128704123049964
 -16.9115882573589573 30.9190383704995000 28.1128704123049964
 -2.8185700713789608 30.9190383704995000 28.1128704123049964
 29.5952785597806276 52.8878403541712458 28.1128704123049964
 23.9580543738006249 52.8878403541712458 28.1128704123049964
 15.5022603738006346 52.8878403541712458 28.1128704123049964
 -8.4557942167237172 26.0371311936879657 28.1128704123049964
  9.8651207457606311 52.8878403541712458 28.1128704123049964
 -32.4138915738452127 57.7698207603227232 28.1128704123049964
 57.7812306176145043 23.5961043759422537 28.1128704123049964
 42.2789698645479817 16.2731703813850075 28.1128704123049964
 53.5533336785679737 16.2731703813850075 28.1128704123049964
 -4.2278971557702505 18.7141971991307194 28.1128704123049964
 18.3208304722697477 18.7141971991307194 28.1128704123049964
 23.9580546582497540 18.7141971991307194 28.1128704123049964
 49.3254366582497497 18.7141971991307194 28.1128704123049964
 19.7301573128471581 60.2107743487284921 28.1128704123049964
 66.2370246582497515 18.7141971991307194 28.1128704123049964
 -11.2743643151928357 60.2107743487284921 28.1128704123049964
 -19.7301583151928384 60.2107743487284921 28.1128704123049964
 -22.5488126871528358 60.2107743487284921 28.1128704123049964
 -31.0046066871528367 60.2107743487284921 28.1128704123049964
 31.0045637309221327 21.1551507875364884 28.1128704123049964
 39.4603577309221265 21.1551507875364884 28.1128704123049964
 35.2324604261547876 57.7698207603227232 28.1128704123049964
 53.5533759169021195 21.1551507875364884 28.1128704123049964
 59.1905155449421230 21.1551507875364884 28.1128704123049964
 70.4649639169021356 21.1551507875364884 28.1128704123049964
 -12.6836911964054888 23.5961043759422537 28.1128704123049964
 -7.0464670104254905 23.5961043759422537 28.1128704123049964
 15.5023026121347893 57.7698207603227232 28.1128704123049964
  9.8651209895745122 23.5961043759422537 28.1128704123049964
 15.5022606176145086 23.5961043759422537 28.1128704123049964
 18.3209149895745149 23.5961043759422537 28.1128704123049964
  1.4092844261547897 57.7698207603227232 28.1128704123049964
 -21.1395277598252136 57.7698207603227232 28.1128704123049964
 46.5068668035945052 23.5961043759422537 28.1128704123049964
 -23.9580975738452153 57.7698207603227232 28.1128704123049964
 52.1440909895745008 23.5961043759422537 28.1128704123049964
 63.4184548035945070 23.5961043759422537 28.1128704123049964
  4.2278965597806355 52.8878403541712458 28.1128704123049964
  1.4093267457606342 52.8878403541712458 28.1128704123049964
 -1.4093276261993704 52.8878403541712458 28.1128704123049964
 40.8696424144358730 48.0059331773597151 28.1128704123049964
 26.7767088676675797 38.2419723650567462 28.1128704123049964
 32.4138484957075690 38.2419723650567462 28.1128704123049964
 40.8696424957075664 38.2419723650567462 28.1128704123049964
 18.3208302284558755 48.0059331773597151 28.1128704123049964
 15.5022604144358738 48.0059331773597151 28.1128704123049964
 -22.5488125246106605 40.6829991828024689 28.1128704123049964
 -16.9115883386306614 40.6829991828024689 28.1128704123049964
  1.4092422284558699 48.0059331773597151 28.1128704123049964
 -2.8186547105906588 40.6829991828024689 28.1128704123049964
  8.4557936613693432 40.6829991828024689 28.1128704123049964
 11.2743634753893449 40.6829991828024689 28.1128704123049964
 14.0929332894093395 40.6829991828024689 28.1128704123049964
 -12.6836913995841307 48.0059331773597151 28.1128704123049964
 -15.5023457715441282 48.0059331773597151 28.1128704123049964
 -26.7767095855641273 48.0059331773597151 28.1128704123049964
 45.0975394753893397 40.6829991828024689 28.1128704123049964
 47.9161092894093343 40.6829991828024689 28.1128704123049964
 59.1905576613693398 40.6829991828024689 28.1128704123049964
 47.9161938067141051 45.5649063596139996 28.1128704123049964
 -18.3208732659582765 43.1239527712082307 28.1128704123049964
 -15.5023034519382783 43.1239527712082307 28.1128704123049964
 -1.4092852659582757 43.1239527712082307 28.1128704123049964
 36.6417454347540925 45.5649063596139996 28.1128704123049964
 23.9580967340417281 43.1239527712082307 28.1128704123049964
 29.5952363620817174 43.1239527712082307 28.1128704123049964
 38.0510303620817112 43.1239527712082307 28.1128704123049964
 -8.4557943792659014 45.5649063596139996 28.1128704123049964
 -19.7301581932858987 45.5649063596139996 28.1128704123049964
 12.6836906816875779 38.2419723650567462 28.1128704123049964
  1.4093268676675752 38.2419723650567462 28.1128704123049964
 54.9626606004158731 48.0059331773597151 28.1128704123049964
 38.0510301182678390 72.4156887494372228 28.1128704123049964
 -4.2278974402193654 52.8878403541712458 28.1128704123049964
 -9.8651216261993682 52.8878403541712458 28.1128704123049964
 -15.5022612542393716 52.8878403541712458 28.1128704123049964
 -18.3209156261993691 52.8878403541712458 28.1128704123049964
 -4.2278972776771910 33.3600651882452155 28.1128704123049964
 -23.9580552542393690 52.8878403541712458 28.1128704123049964
  4.2278967223228134 33.3600651882452155 28.1128704123049964
  7.0464665363428152 33.3600651882452155 28.1128704123049964
  9.8650363503628089 33.3600651882452155 28.1128704123049964
 -29.5952794402193682 52.8878403541712458 28.1128704123049964
 32.4138485363428117 33.3600651882452155 28.1128704123049964
 38.0510727223228145 33.3600651882452155 28.1128704123049964
 47.9161514871082517 50.4468867657654769 28.1128704123049964
 43.6882123503628037 33.3600651882452155 28.1128704123049964
  5.6372240505279780 16.2731703813850075 28.1128704123049964
 49.3254365363428136 33.3600651882452155 28.1128704123049964
 54.9626607223228163 33.3600651882452155 28.1128704123049964
 57.7812305363428109 33.3600651882452155 28.1128704123049964
 33.8231333011282445 50.4468867657654769 28.1128704123049964
 -19.7302003909848089 35.8010187766509844 28.1128704123049964
 -14.0929762050048097 35.8010187766509844 28.1128704123049964
 19.7301996730882578 50.4468867657654769 28.1128704123049964
 16.9115453011282568 50.4468867657654769 28.1128704123049964
 -2.8186125128917427 50.4468867657654769 28.1128704123049964
 16.9115454230351894 35.8010187766509844 28.1128704123049964
 -8.4558366988717459 50.4468867657654769 28.1128704123049964
 -16.9116306988717469 50.4468867657654769 28.1128704123049964
 33.8231334230351877 35.8010187766509844 28.1128704123049964
 -19.7302005128917450 50.4468867657654769 28.1128704123049964
 -12.6836913183124267 38.2419723650567462 28.1128704123049964
 42.2789273011282489 50.4468867657654769 28.1128704123049964
 -0.0000001354520196 16.2731703813850075 28.1128704123049964
 -14.0930185652459006 45.5649063596139996 28.1128704123049964
 -33.8231765824445318 69.9747351610314468 28.1128704123049964
 -19.7302006347986882 65.0927547548799765 28.1128704123049964
 -22.5487704488186900 65.0927547548799765 28.1128704123049964
  8.4557516668490695  6.5092827984219914 28.1128704123049964
 49.3254367395214430  8.9502363868277595 28.1128704123049964
  2.8185692315754580 69.9747351610314468 28.1128704123049964
 -7.0465092081243990 13.8322167929792403 28.1128704123049964
 -28.1859946347986892 65.0927547548799765 28.1128704123049964
 -18.3208735097721558 72.4156887494372228 28.1128704123049964
 -14.0929764488186855 65.0927547548799765 28.1128704123049964
 43.6882971114814538  8.9502363868277595 28.1128704123049964
 -12.6837338817321594 72.4156887494372228 28.1128704123049964
 -7.0465096957521522 72.4156887494372228 28.1128704123049964
 38.0510729255014510  8.9502363868277595 28.1128704123049964
 78.9207158004749090  1.6273023922705114 28.1128704123049964
  9.8650787918756002 13.8322167929792403 28.1128704123049964
 71.8742489255014476  8.9502363868277595 28.1128704123049964
  1.4092843042478451 72.4156887494372228 28.1128704123049964
 12.6836486058956019 13.8322167929792403 28.1128704123049964
 -36.6417886347986865 65.0927547548799765 28.1128704123049964
 35.2325031114814493  8.9502363868277595 28.1128704123049964
 26.7766245941766883  4.0683292100162243 28.1128704123049964
 -25.3673825824445345 69.9747351610314468 28.1128704123049964
 77.5113885941766796  4.0683292100162243 28.1128704123049964
 39.4603150455954648 69.9747351610314468 28.1128704123049964
 77.5114731114814504  8.9502363868277595 28.1128704123049964
 -2.8186544667767790 11.3912632045734714 28.1128704123049964
 63.4184549255014502  8.9502363868277595 28.1128704123049964
 -40.8696856957521533 72.4156887494372228 28.1128704123049964
  5.6371395332232206 11.3912632045734714 28.1128704123049964
 -38.0511158817321586 72.4156887494372228 28.1128704123049964
 -8.4558368207786891 65.0927547548799765 28.1128704123049964
 43.6882125941766972  4.0683292100162243 28.1128704123049964
 60.5998851114814414  8.9502363868277595 28.1128704123049964
 40.8696427801566955  4.0683292100162243 28.1128704123049964
  5.6371818528290705  6.5092827984219914 28.1128704123049964
 35.2324185941766927  4.0683292100162243 28.1128704123049964
 -0.0000428207786890 65.0927547548799765 28.1128704123049964
 21.1394844378736906 67.5337083432857384 28.1128704123049964
 -2.8186126347986837 65.0927547548799765 28.1128704123049964
 -32.4138916957521559 72.4156887494372228 28.1128704123049964
 42.2789271792213057 65.0927547548799765 28.1128704123049964
 21.1394426058955993 13.8322167929792403 28.1128704123049964
 15.5022602518936878 67.5337083432857384 28.1128704123049964
 26.7766667918756056 13.8322167929792403 28.1128704123049964
  9.8650361065489385 62.6518011664742076 28.1128704123049964
 31.0045638528290759  6.5092827984219914 28.1128704123049964
 38.0510724785089351 62.6518011664742076 28.1128704123049964
  4.2278964785089341 62.6518011664742076 28.1128704123049964
 39.4603578528290697  6.5092827984219914 28.1128704123049964
 33.8231759864549275  1.6273023922705114 28.1128704123049964
 -1.4093272604785494  8.9502363868277595 28.1128704123049964
 26.7767086238536862 67.5337083432857384 28.1128704123049964
 -4.2278970744985491  8.9502363868277595 28.1128704123049964
 69.0556367918755996 13.8322167929792403 28.1128704123049964
 40.8696422518936870 67.5337083432857384 28.1128704123049964
 50.7347216668490617  6.5092827984219914 28.1128704123049964
 73.2835338528290663  6.5092827984219914 28.1128704123049964
 67.6463096668490635  6.5092827984219914 28.1128704123049964
 16.9115879864549186  1.6273023922705114 28.1128704123049964
  8.4557939864549194  1.6273023922705114 28.1128704123049964
 63.4184126058955968 13.8322167929792403 28.1128704123049964
 53.5533338004749169  1.6273023922705114 28.1128704123049964
 35.2325026238536978 67.5337083432857384 28.1128704123049964
 46.5068246058955950 13.8322167929792403 28.1128704123049964
 29.5952784785089271 62.6518011664742076 28.1128704123049964
 23.9580542925289315 62.6518011664742076 28.1128704123049964
 32.4138487395214483  8.9502363868277595 28.1128704123049964
  4.2278541182678469 72.4156887494372228 28.1128704123049964
 64.8277821724349081  1.6273023922705114 28.1128704123049964
 15.5022602925289341 62.6518011664742076 28.1128704123049964
 29.5952789255014537  8.9502363868277595 28.1128704123049964
 67.6463519864549170  1.6273023922705114 28.1128704123049964
 29.5952366058956002 13.8322167929792403 28.1128704123049964
 19.7302000388090732  6.5092827984219914 28.1128704123049964
 59.1905579864549196  1.6273023922705114 28.1128704123049964
 52.1440907728507952 49.6332355696302230 28.6327538495249954
 23.9581387962886225 69.1610107355562462 28.6327538495249954
 -28.1859945264368292 52.0741891580359919 28.6327538495249954
 38.0510724243286234 69.1610107355562462 28.6327538495249954
 54.9626605868708040 49.6332355696302230 28.6327538495249954
 29.5952785868707942 49.6332355696302230 28.6327538495249954
 -23.9580553896913813 69.1610107355562462 28.6327538495249954
  4.2278964243286037 69.1610107355562462 28.6327538495249954
 -12.6836915756713875 69.1610107355562462 28.6327538495249954
 -21.1394855756713831 69.1610107355562462 28.6327538495249954
  4.2278965868707896 49.6332355696302230 28.6327538495249954
 38.0510725868707951 49.6332355696302230 28.6327538495249954
 -18.3208312037113821 69.1610107355562462 28.6327538495249954
 21.1394845868707826 49.6332355696302230 28.6327538495249954
 -15.5022613896913821 69.1610107355562462 28.6327538495249954
 12.6836905868707941 49.6332355696302230 28.6327538495249954
 -1.4092432037113782 69.1610107355562462 28.6327538495249954
 -9.8650372037113900 69.1610107355562462 28.6327538495249954
 -7.0464672271492059 49.6332355696302230 28.6327538495249954
 -7.0464673896913883 69.1610107355562462 28.6327538495249954
 -5.6371401427579215 61.8380767409990000 28.6327538495249954
 -26.7767095991092070 49.6332355696302230 28.6327538495249954
 52.1440485345166493 44.7512551634787386 28.6327538495249954
  8.4557934040103735 71.6020375533019688 28.6327538495249954
 14.0930175899903762 71.6020375533019688 28.6327538495249954
 19.7301572180303850 71.6020375533019688 28.6327538495249954
 43.6882545345166520 44.7512551634787386 28.6327538495249954
 40.8696847204966431 44.7512551634787386 28.6327538495249954
 22.5488115899903860 71.6020375533019688 28.6327538495249954
 18.3208725345166314 44.7512551634787386 28.6327538495249954
 54.9627029064766432 44.7512551634787386 28.6327538495249954
 15.5023027204966439 44.7512551634787386 28.6327538495249954
  7.0465087204966403 44.7512551634787386 28.6327538495249954
 25.3673814040103807 71.6020375533019688 28.6327538495249954
 28.1859512180303895 71.6020375533019688 28.6327538495249954
  4.2279389064766386 44.7512551634787386 28.6327538495249954
 33.8231754040103922 71.6020375533019688 28.6327538495249954
  1.4092845345166412 44.7512551634787386 28.6327538495249954
 -1.4092852795033535 44.7512551634787386 28.6327538495249954
 -4.2278550935233552 44.7512551634787386 28.6327538495249954
  9.8650785345166412 44.7512551634787386 28.6327538495249954
  5.6372235899903860 71.6020375533019688 28.6327538495249954
 57.7812727204966521 44.7512551634787386 28.6327538495249954
 -16.9115883928109767 47.1922087518845075 28.6327538495249954
 43.6882966103086261 69.1610107355562462 28.6327538495249954
 53.5534179791490246 47.1922087518845075 28.6327538495249954
 50.7347636071890307 47.1922087518845075 28.6327538495249954
 45.0976239791490272 47.1922087518845075 28.6327538495249954
 -36.6417464100096169 71.6020375533019688 28.6327538495249954
 39.4603997931690245 47.1922087518845075 28.6327538495249954
 36.6418299791490298 47.1922087518845075 28.6327538495249954
 28.1860359791490147 47.1922087518845075 28.6327538495249954
 22.5488117931690120 47.1922087518845075 28.6327538495249954
 -28.1859524100096195 71.6020375533019688 28.6327538495249954
 16.9115876071890092 47.1922087518845075 28.6327538495249954
 -22.5488127819696196 71.6020375533019688 28.6327538495249954
 11.2744479791490271 47.1922087518845075 28.6327538495249954
  5.6372237931690181 47.1922087518845075 28.6327538495249954
 -2.8185702068309761 47.1922087518845075 28.6327538495249954
 -2.8185704100096114 71.6020375533019688 28.6327538495249954
 -0.0000005959896168 71.6020375533019688 28.6327538495249954
 -5.6371400208509774 47.1922087518845075 28.6327538495249954
 -8.4557943928109793 47.1922087518845075 28.6327538495249954
 -21.1394854131292078 49.6332355696302230 28.6327538495249954
 31.0046057931690235 47.1922087518845075 28.6327538495249954
 31.0045634735631737 52.0741891580359919 28.6327538495249954
 -35.2324192037113804 69.1610107355562462 28.6327538495249954
  7.0465085985897025 59.3971231525932382 28.6327538495249954
 -15.5023035873902977 59.3971231525932382 28.6327538495249954
 -18.3208734014102959 59.3971231525932382 28.6327538495249954
 -26.7766674014102968 59.3971231525932382 28.6327538495249954
 33.8231754852820927 61.8380767409990000 28.6327538495249954
 47.9161937118973214 56.9561695641874692 28.6327538495249954
 39.4603997118973240 56.9561695641874692 28.6327538495249954
 31.0046057118973302 56.9561695641874692 28.6327538495249954
 25.3673815259173274 56.9561695641874692 28.6327538495249954
  9.8650784126096909 59.3971231525932382 28.6327538495249954
 42.2789694852820901 61.8380767409990000 28.6327538495249954
 22.5488117118973186 56.9561695641874692 28.6327538495249954
 16.9115875259173158 56.9561695641874692 28.6327538495249954
 -12.6836490935233588 44.7512551634787386 28.6327538495249954
 47.9161936712620928 61.8380767409990000 28.6327538495249954
 11.2743633399373131 56.9561695641874692 28.6327538495249954
 -32.4138493490561430 64.2791035587447084 28.6327538495249954
  8.4557935259173256 56.9561695641874692 28.6327538495249954
  5.6372237118973310 56.9561695641874692 28.6327538495249954
 -2.8185702881026811 56.9561695641874692 28.6327538495249954
 45.0976238572420840 61.8380767409990000 28.6327538495249954
 -8.4557944740826727 56.9561695641874692 28.6327538495249954
 12.6837327845697061 59.3971231525932382 28.6327538495249954
 23.9580965985897052 59.3971231525932382 28.6327538495249954
 -2.8185703287379194 61.8380767409990000 28.6327538495249954
 -11.2743643287379136 61.8380767409990000 28.6327538495249954
 -14.0929341427579153 61.8380767409990000 28.6327538495249954
 -16.9115885147179164 61.8380767409990000 28.6327538495249954
 -19.7301583287379145 61.8380767409990000 28.6327538495249954
 -22.5487281427579163 61.8380767409990000 28.6327538495249954
 -0.0000005147179177 61.8380767409990000 28.6327538495249954
 -25.3673825147179137 61.8380767409990000 28.6327538495249954
 -28.1859523287379155 61.8380767409990000 28.6327538495249954
 11.2744478572420874 61.8380767409990000 28.6327538495249954
 -31.0045221427579136 61.8380767409990000 28.6327538495249954
 49.3254785985897115 59.3971231525932382 28.6327538495249954
  2.8186538572420905 61.8380767409990000 28.6327538495249954
 46.5069087845697027 59.3971231525932382 28.6327538495249954
 40.8696845985897141 59.3971231525932382 28.6327538495249954
 38.0511147845697053 59.3971231525932382 28.6327538495249954
 35.2324604126097114 59.3971231525932382 28.6327538495249954
 32.4138905985897026 59.3971231525932382 28.6327538495249954
 29.5953207845697079 59.3971231525932382 28.6327538495249954
 26.7766664126097069 59.3971231525932382 28.6327538495249954
 -33.8231765147179146 61.8380767409990000 28.6327538495249954
 -11.2743642881026744 56.9561695641874692 28.6327538495249954
 -25.3673824740826745 56.9561695641874692 28.6327538495249954
 -12.6836915350361448 64.2791035587447084 28.6327538495249954
 22.5487693516562366 66.7200571471504844 28.6327538495249954
 -21.1394854537644470 54.5151427464417537 28.6327538495249954
 45.0975816595431809 52.0741891580359919 28.6327538495249954
 25.3674237236162377 66.7200571471504844 28.6327538495249954
 42.2790118455231720 52.0741891580359919 28.6327538495249954
 39.4603574735631781 52.0741891580359919 28.6327538495249954
 33.8232178455231747 52.0741891580359919 28.6327538495249954
 -8.4557945147179190 61.8380767409990000 28.6327538495249954
 28.1859936595431719 52.0741891580359919 28.6327538495249954
 -15.5022612677844460 54.5151427464417537 28.6327538495249954
 25.3674238455231631 52.0741891580359919 28.6327538495249954
 31.0045633516562411 66.7200571471504844 28.6327538495249954
  8.4558358455231772 52.0741891580359919 28.6327538495249954
  5.6371814735631682 52.0741891580359919 28.6327538495249954
  0.0000418455231652 52.0741891580359919 28.6327538495249954
 36.6417875376362474 66.7200571471504844 28.6327538495249954
 39.4603573516562420 66.7200571471504844 28.6327538495249954
 -11.2744065264368292 52.0741891580359919 28.6327538495249954
 -14.0929763404568273 52.0741891580359919 28.6327538495249954
 -38.0510735756713814 69.1610107355562462 28.6327538495249954
 16.9116298455231728 52.0741891580359919 28.6327538495249954
 -12.6836914537644478 54.5151427464417537 28.6327538495249954
 -9.8650370818044468 54.5151427464417537 28.6327538495249954
 -4.2278974537644496 54.5151427464417537 28.6327538495249954
 -28.1859522881026763 56.9561695641874692 28.6327538495249954
 -4.2278975350361501 64.2791035587447084 28.6327538495249954
 49.3255209181955507 54.5151427464417537 28.6327538495249954
 46.5068665462355568 54.5151427464417537 28.6327538495249954
  1.4093266509438596 64.2791035587447084 28.6327538495249954
 12.6836904649638509 64.2791035587447084 28.6327538495249954
 15.5022602789838597 64.2791035587447084 28.6327538495249954
 18.3209146509438554 64.2791035587447084 28.6327538495249954
 21.1394844649638500 64.2791035587447084 28.6327538495249954
 40.8697269181955534 54.5151427464417537 28.6327538495249954
 43.6882966509438617 64.2791035587447084 28.6327538495249954
  2.8186115376362340 66.7200571471504844 28.6327538495249954
 32.4139329181955560 54.5151427464417537 28.6327538495249954
 26.7767087322155568 54.5151427464417537 28.6327538495249954
  5.6371813516562215 66.7200571471504844 28.6327538495249954
 18.3209147322155452 54.5151427464417537 28.6327538495249954
 11.2744055376362251 66.7200571471504844 28.6327538495249954
  7.0465509181955595 54.5151427464417537 28.6327538495249954
  1.4093267322155492 54.5151427464417537 28.6327538495249954
 16.9116297236162261 66.7200571471504844 28.6327538495249954
 -1.4092430818044526 54.5151427464417537 28.6327538495249954
 -29.5952795756713840 69.1610107355562462 28.6327538495249954
  7.0465090862174584  0.8136511961352557 28.6327538495249954
 -8.4557520325698885 37.4283211689214923 28.6327538495249954
 -23.9580974654833554 44.7512551634787386 28.6327538495249954
 -1.4092850356894804 15.4595191852497500 28.6327538495249954
 76.1021458916381448 13.0185655968439828 28.6327538495249954
 73.2835760776181360 13.0185655968439828 28.6327538495249954
 70.4649217056581421 13.0185655968439828 28.6327538495249954
 59.1905578916381430 13.0185655968439828 28.6327538495249954
 56.3719880776181483 13.0185655968439828 28.6327538495249954
 53.5533337056581473 13.0185655968439828 28.6327538495249954
 50.7347638916381456 13.0185655968439828 28.6327538495249954
 42.2789698916381340 13.0185655968439828 28.6327538495249954
 39.4604000776181465 13.0185655968439828 28.6327538495249954
 36.6417457056581313 13.0185655968439828 28.6327538495249954
 33.8231758916381438 13.0185655968439828 28.6327538495249954
  7.0465089643105223 15.4595191852497500 28.6327538495249954
 25.3673818916381357 13.0185655968439828 28.6327538495249954
  8.4557938916381428 13.0185655968439828 28.6327538495249954
  5.6372240776181393 13.0185655968439828 28.6327538495249954
  2.8185697056581414 13.0185655968439828 28.6327538495249954
 -0.0000001083618602 13.0185655968439828 28.6327538495249954
 -2.8185699223818586 13.0185655968439828 28.6327538495249954
 69.0556790979363768 10.5775387790982709 28.6327538495249954
 66.2371092839163680 10.5775387790982709 28.6327538495249954
 63.4184549119563812 10.5775387790982709 28.6327538495249954
 60.5998850979363723 10.5775387790982709 28.6327538495249954
 57.7813152839163777 10.5775387790982709 28.6327538495249954
 54.9626609119563767 10.5775387790982709 28.6327538495249954
 52.1440910979363750 10.5775387790982709 28.6327538495249954
 11.2743637056581409 13.0185655968439828 28.6327538495249954
 12.6837331502905215 15.4595191852497500 28.6327538495249954
 15.5023029643105232 15.4595191852497500 28.6327538495249954
 23.9580969643105171 15.4595191852497500 28.6327538495249954
 35.2325030166646727 20.3414995914012344 28.6327538495249954
 21.1394848306846654 20.3414995914012344 28.6327538495249954
 18.3209150166646637 20.3414995914012344 28.6327538495249954
 15.5022606447046662 20.3414995914012344 28.6327538495249954
 12.6836908306846716 20.3414995914012344 28.6327538495249954
  7.0464666447046698 20.3414995914012344 28.6327538495249954
  4.2278968306846716 20.3414995914012344 28.6327538495249954
  1.4093270166646681 20.3414995914012344 28.6327538495249954
 -1.4093273552953294 20.3414995914012344 28.6327538495249954
 -9.8651213552953294 20.3414995914012344 28.6327538495249954
 73.2835760369829075 17.9004727736555189 28.6327538495249954
 70.4650062229628986 17.9004727736555189 28.6327538495249954
 64.8277820369829101 17.9004727736555189 28.6327538495249954
 62.0092122229629013 17.9004727736555189 28.6327538495249954
 53.5534182229629039 17.9004727736555189 28.6327538495249954
 45.0976242229628923 17.9004727736555189 28.6327538495249954
 36.6418302229629020 17.9004727736555189 28.6327538495249954
 33.8231758510028868 17.9004727736555189 28.6327538495249954
 28.1860362229629082 17.9004727736555189 28.6327538495249954
 22.5488120369828984 17.9004727736555189 28.6327538495249954
 19.7302422229628966 17.9004727736555189 28.6327538495249954
 14.0930180369829028 17.9004727736555189 28.6327538495249954
 -8.4557941489970982 17.9004727736555189 28.6327538495249954
 71.8742911502905173 15.4595191852497500 28.6327538495249954
 46.5069091502905181 15.4595191852497500 28.6327538495249954
 43.6882547783305313 15.4595191852497500 28.6327538495249954
 38.0511151502905278 15.4595191852497500 28.6327538495249954
 40.8697272839163759 10.5775387790982709 28.6327538495249954
 32.4139332839163785 10.5775387790982709 28.6327538495249954
 29.5952789119563668 10.5775387790982709 28.6327538495249954
 26.7767090979363651 10.5775387790982709 28.6327538495249954
  9.8651211385716078  5.6956316022867357 28.6327538495249954
  1.4093271385716108  5.6956316022867357 28.6327538495249954
 -1.4093272333883895  5.6956316022867357 28.6327538495249954
 81.7393701588898551  3.2546047845410229 28.6327538495249954
 73.2835761588898578  3.2546047845410229 28.6327538495249954
 70.4650063448698489  3.2546047845410229 28.6327538495249954
 62.0092123448698445  3.2546047845410229 28.6327538495249954
 50.7347639729098461  3.2546047845410229 28.6327538495249954
 39.4604001588898399  3.2546047845410229 28.6327538495249954
 31.0046061588898354  3.2546047845410229 28.6327538495249954
 22.5488121588898416  3.2546047845410229 28.6327538495249954
 19.7302423448698399  3.2546047845410229 28.6327538495249954
 11.2744483448698372  3.2546047845410229 28.6327538495249954
  8.4557939729098397  3.2546047845410229 28.6327538495249954
  5.6372241588898389  3.2546047845410229 28.6327538495249954
 83.1486550862174738  0.8136511961352557 28.6327538495249954
 77.5114309002374711  0.8136511961352557 28.6327538495249954
 69.0556369002374737  0.8136511961352557 28.6327538495249954
 63.4184972721974631  0.8136511961352557 28.6327538495249954
 60.5998429002374621  0.8136511961352557 28.6327538495249954
 49.3254790862174488  0.8136511961352557 28.6327538495249954
 46.5069092721974613  0.8136511961352557 28.6327538495249954
 40.8696850862174585  0.8136511961352557 28.6327538495249954
 38.0511152721974639  0.8136511961352557 28.6327538495249954
 32.4138910862174541  0.8136511961352557 28.6327538495249954
 21.1395272721974621  0.8136511961352557 28.6327538495249954
 18.3208729002374611  0.8136511961352557 28.6327538495249954
 15.5022607666116095  5.6956316022867357 28.6327538495249954
 43.6882970166646629 20.3414995914012344 28.6327538495249954
 18.3209151385716105  5.6956316022867357 28.6327538495249954
 29.5952789525916060  5.6956316022867357 28.6327538495249954
 23.9581392839163634 10.5775387790982709 28.6327538495249954
 18.3209150979363713 10.5775387790982709 28.6327538495249954
 15.5023452839163713 10.5775387790982709 28.6327538495249954
 12.6836909119563703 10.5775387790982709 28.6327538495249954
  9.8651210979363722 10.5775387790982709 28.6327538495249954
  1.4093270979363695 10.5775387790982709 28.6327538495249954
 76.1021882112439840  8.1365851906925037 28.6327538495249954
 67.6463942112439867  8.1365851906925037 28.6327538495249954
 64.8277398392839928  8.1365851906925037 28.6327538495249954
 59.1906002112439964  8.1365851906925037 28.6327538495249954
 53.5533760252639937  8.1365851906925037 28.6327538495249954
 47.9161518392839980  8.1365851906925037 28.6327538495249954
 28.1859940252639873  8.1365851906925037 28.6327538495249954
 16.9116302112439918  8.1365851906925037 28.6327538495249954
  0.0000422112439907  8.1365851906925037 28.6327538495249954
 80.3300429525916257  5.6956316022867357 28.6327538495249954
 77.5114731385716169  5.6956316022867357 28.6327538495249954
 74.6928187666116230  5.6956316022867357 28.6327538495249954
 71.8742489525916284  5.6956316022867357 28.6327538495249954
 63.4184549525916097  5.6956316022867357 28.6327538495249954
 60.5998851385716151  5.6956316022867357 28.6327538495249954
 54.9626609525916123  5.6956316022867357 28.6327538495249954
 52.1440911385716035  5.6956316022867357 28.6327538495249954
 46.5068669525916008  5.6956316022867357 28.6327538495249954
 40.8696427666115980  5.6956316022867357 28.6327538495249954
 35.2325031385716159  5.6956316022867357 28.6327538495249954
 32.4138487666116077  5.6956316022867357 28.6327538495249954
 21.1394849525916122  5.6956316022867357 28.6327538495249954
 -18.3208732795033562 44.7512551634787386 28.6327538495249954
 57.7812306447046780 20.3414995914012344 28.6327538495249954
 -2.8186122826229494 22.7824531798069998 28.6327538495249954
 31.0045635954701204 37.4283211689214923 28.6327538495249954
 16.9116299674301196 37.4283211689214923 28.6327538495249954
 14.0929755954701115 37.4283211689214923 28.6327538495249954
 11.2744057814501097 37.4283211689214923 28.6327538495249954
  8.4558359674301080 37.4283211689214923 28.6327538495249954
  5.6371815954701097 37.4283211689214923 28.6327538495249954
 -2.8186124045298877 37.4283211689214923 28.6327538495249954
 -16.9115460325698876 37.4283211689214923 28.6327538495249954
 60.5998848947577358 34.9873675805157234 28.6327538495249954
 35.2325028947577295 34.9873675805157234 28.6327538495249954
 29.5952787087777267 34.9873675805157234 28.6327538495249954
 23.9580545227977240 34.9873675805157234 28.6327538495249954
 36.6417877814501125 37.4283211689214923 28.6327538495249954
 21.1394847087777364 34.9873675805157234 28.6327538495249954
  4.2278967087777302 34.9873675805157234 28.6327538495249954
 -1.4093274772022688 34.9873675805157234 28.6327538495249954
 -4.2278972912222672 34.9873675805157234 28.6327538495249954
 -9.8651214772022673 34.9873675805157234 28.6327538495249954
 -15.5022611052422672 34.9873675805157234 28.6327538495249954
 -18.3209154772022664 34.9873675805157234 28.6327538495249954
 62.0092121010559580 32.5463407627700150 28.6327538495249954
 59.1905577290959641 32.5463407627700150 28.6327538495249954
 50.7347637290959668 32.5463407627700150 28.6327538495249954
 42.2789697290959623 32.5463407627700150 28.6327538495249954
 28.1860361010559650 32.5463407627700150 28.6327538495249954
 19.7302421010559677 32.5463407627700150 28.6327538495249954
 12.6836907087777320 34.9873675805157234 28.6327538495249954
 45.0975817814501099 37.4283211689214923 28.6327538495249954
 47.9161515954701187 37.4283211689214923 28.6327538495249954
 50.7348059674301126 37.4283211689214923 28.6327538495249954
 56.3719878338042619 42.3103015750729767 28.6327538495249954
 42.2789696478242618 42.3103015750729767 28.6327538495249954
 39.4603998338042672 42.3103015750729767 28.6327538495249954
 33.8231756478242644 42.3103015750729767 28.6327538495249954
 19.7301574618442501 42.3103015750729767 28.6327538495249954
 16.9115876478242626 42.3103015750729767 28.6327538495249954
 11.2743634618442599 42.3103015750729767 28.6327538495249954
  2.8185694618442589 42.3103015750729767 28.6327538495249954
 -0.0000003521757358 42.3103015750729767 28.6327538495249954
 -11.2743641661957401 42.3103015750729767 28.6327538495249954
 -14.0930185381557376 42.3103015750729767 28.6327538495249954
 -22.5488125381557367 42.3103015750729767 28.6327538495249954
 57.7813150401024913 39.8692747573272612 28.6327538495249954
 49.3255210401024939 39.8692747573272612 28.6327538495249954
 43.6882968541224912 39.8692747573272612 28.6327538495249954
 35.2325028541224938 39.8692747573272612 28.6327538495249954
 32.4139330401024850 39.8692747573272612 28.6327538495249954
 29.5952786681424982 39.8692747573272612 28.6327538495249954
 26.7767088541224823 39.8692747573272612 28.6327538495249954
 23.9581390401024947 39.8692747573272612 28.6327538495249954
 15.5023450401024956 39.8692747573272612 28.6327538495249954
 -4.2278973318575099 39.8692747573272612 28.6327538495249954
 -15.5022611458775117 39.8692747573272612 28.6327538495249954
 -18.3208309598975099 39.8692747573272612 28.6327538495249954
 62.0091697814501188 37.4283211689214923 28.6327538495249954
 59.1905999674301100 37.4283211689214923 28.6327538495249954
 56.3719455954701161 37.4283211689214923 28.6327538495249954
 14.0930179150759578 32.5463407627700150 28.6327538495249954
 11.2744481010559561 32.5463407627700150 28.6327538495249954
 -0.0000002709040391 32.5463407627700150 28.6327538495249954
 -8.4557942709040379 32.5463407627700150 28.6327538495249954
 -5.6372244162487979 27.6644335859584807 28.6327538495249954
 -14.0930184162487979 27.6644335859584807 28.6327538495249954
 60.5998849760294434 25.2234067682127652 28.6327538495249954
 54.9626607900494406 25.2234067682127652 28.6327538495249954
 49.3255211620094371 25.2234067682127652 28.6327538495249954
 40.8697271620094256 25.2234067682127652 28.6327538495249954
 38.0510727900494388 25.2234067682127652 28.6327538495249954
 32.4139331620094353 25.2234067682127652 28.6327538495249954
 23.9581391620094379 25.2234067682127652 28.6327538495249954
 15.5023451620094264 25.2234067682127652 28.6327538495249954
  7.0465511620094325 25.2234067682127652 28.6327538495249954
 -4.2278972099505676 25.2234067682127652 28.6327538495249954
 -9.8650368379905675 25.2234067682127652 28.6327538495249954
 67.6463940893370506 22.7824531798069998 28.6327538495249954
 62.0091699033570620 22.7824531798069998 28.6327538495249954
 50.7348060893370558 22.7824531798069998 28.6327538495249954
 47.9161517173770548 22.7824531798069998 28.6327538495249954
 42.2790120893370442 22.7824531798069998 28.6327538495249954
 36.6417879033570415 22.7824531798069998 28.6327538495249954
 33.8232180893370540 22.7824531798069998 28.6327538495249954
 31.0045637173770388 22.7824531798069998 28.6327538495249954
 25.3674240893370566 22.7824531798069998 28.6327538495249954
 22.5487697173770485 22.7824531798069998 28.6327538495249954
 19.7301999033570468 22.7824531798069998 28.6327538495249954
 14.0929757173770476 22.7824531798069998 28.6327538495249954
  5.6371817173770493 22.7824531798069998 28.6327538495249954
  0.0000420893370479 22.7824531798069998 28.6327538495249954
 -2.8185700442888009 27.6644335859584807 28.6327538495249954
 69.0556790166646692 20.3414995914012344 28.6327538495249954
  8.4557937697312031 27.6644335859584807 28.6327538495249954
 16.9115877697311987 27.6644335859584807 28.6327538495249954
 -11.2743640849240396 32.5463407627700150 28.6327538495249954
 -14.0929338989440378 32.5463407627700150 28.6327538495249954
 57.7812728424035953 30.1053871743642461 28.6327538495249954
 54.9627030283835865 30.1053871743642461 28.6327538495249954
 52.1440486564235925 30.1053871743642461 28.6327538495249954
 49.3254788424035837 30.1053871743642461 28.6327538495249954
 46.5069090283835891 30.1053871743642461 28.6327538495249954
 43.6882546564235881 30.1053871743642461 28.6327538495249954
 40.8696848424035863 30.1053871743642461 28.6327538495249954
 38.0511150283835775 30.1053871743642461 28.6327538495249954
 35.2324606564235907 30.1053871743642461 28.6327538495249954
 26.7766666564235685 30.1053871743642461 28.6327538495249954
 23.9580968424035810 30.1053871743642461 28.6327538495249954
 21.1395270283835863 30.1053871743642461 28.6327538495249954
  9.8650786564235791 30.1053871743642461 28.6327538495249954
  7.0465088424035836 30.1053871743642461 28.6327538495249954
  4.2279390283835818 30.1053871743642461 28.6327538495249954
  1.4092846564235810 30.1053871743642461 28.6327538495249954
 -1.4092851575964171 30.1053871743642461 28.6327538495249954
 -12.6836489716164174 30.1053871743642461 28.6327538495249954
 64.8277819557112025 27.6644335859584807 28.6327538495249954
 56.3719879557112051 27.6644335859584807 28.6327538495249954
 47.9161939557112078 27.6644335859584807 28.6327538495249954
 45.0975395837512067 27.6644335859584807 28.6327538495249954
 39.4603999557111962 27.6644335859584807 28.6327538495249954
 25.3673817697312032 27.6644335859584807 28.6327538495249954
 19.7301575837512004 27.6644335859584807 28.6327538495249954
 11.2743635837511977 27.6644335859584807 28.6327538495249954
 42.2789694040103896 71.6020375533019688 28.6327538495249954
