 H  O 
 1.0000000000000000
    84.5579400000000021    0.0000000000000000    0.0000000000000000
   -42.2789706095346958   73.2293399455724767    0.0000000000000000
     0.0000000000000000    0.0000000000000000   46.9039550000000034
 H   O  
 302 217
Cartesian
 -21.1394853183124276 38.2419723650567462 28.1128704123049964
 35.2324183503628063 33.3600651882452155 28.1128704123049964
 21.1394847223228126 33.3600651882452155 28.1128704123049964
 -33.8231765011728385 60.2107743487284921 28.1128704123049964
 -28.1859523151928357 60.2107743487284921 28.1128704123049964
  4.2278967223228134 33.3600651882452155 28.1128704123049964
 -1.4093274636571897 33.3600651882452155 28.1128704123049964
 -18.3209154636571903 33.3600651882452155 28.1128704123049964
 43.6882123503628037 33.3600651882452155 28.1128704123049964
 53.5533335566610376 30.9190383704995000 28.1128704123049964
 42.2789697426410385 30.9190383704995000 28.1128704123049964
 39.4603999286210438 30.9190383704995000 28.1128704123049964
 31.0046059286210465 30.9190383704995000 28.1128704123049964
 -22.5488126871528358 60.2107743487284921 28.1128704123049964
 -14.0930186871528367 60.2107743487284921 28.1128704123049964
 11.2743635566610401 30.9190383704995000 28.1128704123049964
  5.6372239286210437 30.9190383704995000 28.1128704123049964
 45.0975395566610331 30.9190383704995000 28.1128704123049964
 46.5068667223228047 33.3600651882452155 28.1128704123049964
 52.1440063503628082 33.3600651882452155 28.1128704123049964
 54.9626607223228163 33.3600651882452155 28.1128704123049964
 -18.3209155042924259 38.2419723650567462 28.1128704123049964
 32.4138904902278497 72.4156887494372228 28.1128704123049964
 21.1394422401747804 57.7698207603227232 28.1128704123049964
 39.4603576090151904 35.8010187766509844 28.1128704123049964
 25.3673394230351938 35.8010187766509844 28.1128704123049964
 19.7301997949951904 35.8010187766509844 28.1128704123049964
 16.9115454230351894 35.8010187766509844 28.1128704123049964
 29.5952362401747777 57.7698207603227232 28.1128704123049964
  5.6371816090151947 35.8010187766509844 28.1128704123049964
  2.8186117949951930 35.8010187766509844 28.1128704123049964
 -0.0000425769648080 35.8010187766509844 28.1128704123049964
 -2.8186123909848098 35.8010187766509844 28.1128704123049964
 35.2324604261547876 57.7698207603227232 28.1128704123049964
 38.0510302401747822 57.7698207603227232 28.1128704123049964
 -19.7302003909848089 35.8010187766509844 28.1128704123049964
 40.8696846121347903 57.7698207603227232 28.1128704123049964
 60.5998003503628055 33.3600651882452155 28.1128704123049964
 -11.2743643151928357 60.2107743487284921 28.1128704123049964
 -8.4557942573589582 30.9190383704995000 28.1128704123049964
 -11.2743640713789581 30.9190383704995000 28.1128704123049964
 -16.9115882573589573 30.9190383704995000 28.1128704123049964
 16.9115877832762855 26.0371311936879657 28.1128704123049964
  5.6371394113162827 26.0371311936879657 28.1128704123049964
  2.8185695972962814 26.0371311936879657 28.1128704123049964
 50.7347213011282463 50.4468867657654769 28.1128704123049964
 -12.6836915214910633 62.6518011664742076 28.1128704123049964
 -7.0465518934510678 62.6518011664742076 28.1128704123049964
 69.0556789895745169 23.5961043759422537 28.1128704123049964
 63.4184548035945070 23.5961043759422537 28.1128704123049964
 60.5998849895745124 23.5961043759422537 28.1128704123049964
 57.7812306176145043 23.5961043759422537 28.1128704123049964
 52.1440909895745008 23.5961043759422537 28.1128704123049964
 -4.2278975214910632 62.6518011664742076 28.1128704123049964
 40.8696426176145025 23.5961043759422537 28.1128704123049964
 38.0510728035945078 23.5961043759422537 28.1128704123049964
 35.2325029895745132 23.5961043759422537 28.1128704123049964
 23.9580546176145113 23.5961043759422537 28.1128704123049964
 21.1394848035945166 23.5961043759422537 28.1128704123049964
 25.3673817832762829 26.0371311936879657 28.1128704123049964
 15.5023026121347893 57.7698207603227232 28.1128704123049964
 33.8231757832762838 26.0371311936879657 28.1128704123049964
 45.0975393128471538 60.2107743487284921 28.1128704123049964
 66.2370668559486688 28.4780847820937346 28.1128704123049964
 63.4184124839886536 28.4780847820937346 28.1128704123049964
 -8.4557945011728339 60.2107743487284921 28.1128704123049964
 57.7812728559486644 28.4780847820937346 28.1128704123049964
 54.9626184839886562 28.4780847820937346 28.1128704123049964
 52.1440486699686616 28.4780847820937346 28.1128704123049964
 49.3254788559486528 28.4780847820937346 28.1128704123049964
 -2.8185703151928343 60.2107743487284921 28.1128704123049964
 38.0510304839886544 28.4780847820937346 28.1128704123049964
 21.1394424839886597 28.4780847820937346 28.1128704123049964
  2.8185693128471621 60.2107743487284921 28.1128704123049964
  7.0465088559486642 28.4780847820937346 28.1128704123049964
 -1.4092851440513405 28.4780847820937346 28.1128704123049964
 25.3673814988271609 60.2107743487284921 28.1128704123049964
 -12.6837335160113369 28.4780847820937346 28.1128704123049964
 64.8276974113162794 26.0371311936879657 28.1128704123049964
 56.3719034113162749 26.0371311936879657 28.1128704123049964
 42.2789697832762812 26.0371311936879657 28.1128704123049964
 12.6836482401747883 57.7698207603227232 28.1128704123049964
  7.0465086121347857 57.7698207603227232 28.1128704123049964
 -4.2279397598252162 57.7698207603227232 28.1128704123049964
  7.0464664144358764 48.0059331773597151 28.1128704123049964
 -4.2278973995841262 48.0059331773597151 28.1128704123049964
 -9.8651215855641290 48.0059331773597151 28.1128704123049964
 -26.7767095855641273 48.0059331773597151 28.1128704123049964
 50.7347636207340997 45.5649063596139996 28.1128704123049964
 47.9161938067141051 45.5649063596139996 28.1128704123049964
 45.0975394347540970 45.5649063596139996 28.1128704123049964
 40.8696423738006303 52.8878403541712458 28.1128704123049964
 16.9115876207341032 45.5649063596139996 28.1128704123049964
 14.0930178067140996 45.5649063596139996 28.1128704123049964
  5.6372238067141032 45.5649063596139996 28.1128704123049964
 49.3254363738006276 52.8878403541712458 28.1128704123049964
 -0.0000003792658964 45.5649063596139996 28.1128704123049964
 -2.8185701932858982 45.5649063596139996 28.1128704123049964
 -8.4557943792659014 45.5649063596139996 28.1128704123049964
 -14.0930185652459006 45.5649063596139996 28.1128704123049964
 -16.9115883792659005 45.5649063596139996 28.1128704123049964
  9.8650362284558710 48.0059331773597151 28.1128704123049964
 -19.7301581932858987 45.5649063596139996 28.1128704123049964
 15.5022603738006346 52.8878403541712458 28.1128704123049964
 18.3208302284558755 48.0059331773597151 28.1128704123049964
 31.0045634871082498 50.4468867657654769 28.1128704123049964
 53.5533756730882544 50.4468867657654769 28.1128704123049964
 14.0929754871082551 50.4468867657654769 28.1128704123049964
  5.6371814871082586 50.4468867657654769 28.1128704123049964
 -26.7767096261993700 52.8878403541712458 28.1128704123049964
 -2.8186125128917427 50.4468867657654769 28.1128704123049964
 -9.8651216261993682 52.8878403541712458 28.1128704123049964
 -7.0464672542393672 52.8878403541712458 28.1128704123049964
  1.4093267457606342 52.8878403541712458 28.1128704123049964
 52.1440062284558650 48.0059331773597151 28.1128704123049964
 49.3254364144358703 48.0059331773597151 28.1128704123049964
 46.5068666004158757 48.0059331773597151 28.1128704123049964
 43.6882122284558676 48.0059331773597151 28.1128704123049964
  9.8651207457606311 52.8878403541712458 28.1128704123049964
 12.6836905597806329 52.8878403541712458 28.1128704123049964
 29.5952786004158739 48.0059331773597151 28.1128704123049964
 23.9580544144358711 48.0059331773597151 28.1128704123049964
 15.5022604144358738 48.0059331773597151 28.1128704123049964
 -1.4093277074710613 62.6518011664742076 28.1128704123049964
 -22.5488125652458997 45.5649063596139996 28.1128704123049964
 -25.3673824605375984 55.3288671719169614 28.1128704123049964
 -0.0000003386306579 40.6829991828024689 28.1128704123049964
 33.8231755394623974 55.3288671719169614 28.1128704123049964
 45.0975393534824036 55.3288671719169614 28.1128704123049964
 -14.0930185246106596 40.6829991828024689 28.1128704123049964
 -16.9115883386306614 40.6829991828024689 28.1128704123049964
 -19.7302427105906588 40.6829991828024689 28.1128704123049964
 -22.5488125246106605 40.6829991828024689 28.1128704123049964
 -32.4138915738452127 57.7698207603227232 28.1128704123049964
 -29.5953217598252145 57.7698207603227232 28.1128704123049964
 40.8696424957075664 38.2419723650567462 28.1128704123049964
 35.2325028676675771 38.2419723650567462 28.1128704123049964
 32.4138484957075690 38.2419723650567462 28.1128704123049964
 -23.9580975738452153 57.7698207603227232 28.1128704123049964
 -12.6837337598252144 57.7698207603227232 28.1128704123049964
  9.8651208676675761 38.2419723650567462 28.1128704123049964
 -7.0465095738452108 57.7698207603227232 28.1128704123049964
  1.4093268676675752 38.2419723650567462 28.1128704123049964
  2.8185694753893440 40.6829991828024689 28.1128704123049964
 52.1440907457606357 52.8878403541712458 28.1128704123049964
  5.6371392894093386 40.6829991828024689 28.1128704123049964
 22.5487272894093422 40.6829991828024689 28.1128704123049964
 49.3254787340417238 43.1239527712082307 28.1128704123049964
 40.8696847340417122 43.1239527712082307 28.1128704123049964
 29.5952363620817174 43.1239527712082307 28.1128704123049964
 23.9580967340417281 43.1239527712082307 28.1128704123049964
 18.3208725480617254 43.1239527712082307 28.1128704123049964
 -5.6372246465175939 55.3288671719169614 28.1128704123049964
 -1.4092852659582757 43.1239527712082307 28.1128704123049964
  8.4557935394624035 55.3288671719169614 28.1128704123049964
 -15.5023034519382783 43.1239527712082307 28.1128704123049964
 -21.1395276379182775 43.1239527712082307 28.1128704123049964
 19.7301573534824009 55.3288671719169614 28.1128704123049964
 59.1905576613693398 40.6829991828024689 28.1128704123049964
 47.9161092894093343 40.6829991828024689 28.1128704123049964
 22.5487271675023955 55.3288671719169614 28.1128704123049964
 36.6417454753893352 40.6829991828024689 28.1128704123049964
 33.8231756613693406 40.6829991828024689 28.1128704123049964
 25.3673816613693432 40.6829991828024689 28.1128704123049964
 14.0929332894093395 40.6829991828024689 28.1128704123049964
 15.5022606176145086 23.5961043759422537 28.1128704123049964
 39.4603574871082543 50.4468867657654769 28.1128704123049964
 57.7812729778555934 13.8322167929792403 28.1128704123049964
 43.6882125941766972  4.0683292100162243 28.1128704123049964
 40.8696427801566955  4.0683292100162243 28.1128704123049964
  8.4557939051832172 11.3912632045734714 28.1128704123049964
 14.0929335332232206 11.3912632045734714 28.1128704123049964
 38.0510729661366938  4.0683292100162243 28.1128704123049964
 19.7301577192032234 11.3912632045734714 28.1128704123049964
 -29.5953218817321577 72.4156887494372228 28.1128704123049964
 25.3673819051832226 11.3912632045734714 28.1128704123049964
  9.8650361065489385 62.6518011664742076 28.1128704123049964
 -1.4093277481063067 67.5337083432857384 28.1128704123049964
 -26.7766675097721567 72.4156887494372228 28.1128704123049964
 -4.2278975621263015 67.5337083432857384 28.1128704123049964
 -7.0464673761463033 67.5337083432857384 28.1128704123049964
 64.8276975332232155 11.3912632045734714 28.1128704123049964
 -9.8651217481063078 67.5337083432857384 28.1128704123049964
 -7.0465092081243990 13.8322167929792403 28.1128704123049964
 -4.2279393941043990 13.8322167929792403 28.1128704123049964
 66.2370669778556049 13.8322167929792403 28.1128704123049964
 14.0929330455954638 69.9747351610314468 28.1128704123049964
 52.1440487918755977 13.8322167929792403 28.1128704123049964
 40.8696849778556057 13.8322167929792403 28.1128704123049964
 45.0975815511813138 65.0927547548799765 28.1128704123049964
 -32.4138493761463025 67.5337083432857384 28.1128704123049964
 -0.0000000948167802 11.3912632045734714 28.1128704123049964
 18.3208727918756047 13.8322167929792403 28.1128704123049964
 -21.1394855621263069 67.5337083432857384 28.1128704123049964
  9.8650787918756002 13.8322167929792403 28.1128704123049964
 -12.6836915621263024 67.5337083432857384 28.1128704123049964
 23.9580547801566937  4.0683292100162243 28.1128704123049964
 -23.9580976957521585 72.4156887494372228 28.1128704123049964
 -1.4092850221444004 13.8322167929792403 28.1128704123049964
 15.5023029778556030 13.8322167929792403 28.1128704123049964
 31.0045633652013137 65.0927547548799765 28.1128704123049964
 -5.6372242807967794 11.3912632045734714 28.1128704123049964
 35.2325026238536978 67.5337083432857384 28.1128704123049964
  8.4557516668490695  6.5092827984219914 28.1128704123049964
  8.4557934175554603 69.9747351610314468 28.1128704123049964
 28.1859940388090742  6.5092827984219914 28.1128704123049964
  2.8186120388090696  6.5092827984219914 28.1128704123049964
 -0.0000423331509293  6.5092827984219914 28.1128704123049964
 22.5487270455954629 69.9747351610314468 28.1128704123049964
 39.4603578528290697  6.5092827984219914 28.1128704123049964
 45.0975820388090725  6.5092827984219914 28.1128704123049964
 47.9161518528290671  6.5092827984219914 28.1128704123049964
 28.1859512315754728 69.9747351610314468 28.1128704123049964
 74.6928187801566850  4.0683292100162243 28.1128704123049964
 50.7347216668490617  6.5092827984219914 28.1128704123049964
 71.8742489661366903  4.0683292100162243 28.1128704123049964
 53.5533760388090698  6.5092827984219914 28.1128704123049964
  2.8185692315754580 69.9747351610314468 28.1128704123049964
 -0.0000005824445366 69.9747351610314468 28.1128704123049964
 -16.9115885824445336 69.9747351610314468 28.1128704123049964
 66.2370247395214449  8.9502363868277595 28.1128704123049964
 -38.0511158817321586 72.4156887494372228 28.1128704123049964
 43.6882966238536952 67.5337083432857384 28.1128704123049964
 54.9626609255014458  8.9502363868277595 28.1128704123049964
 38.0510729255014510  8.9502363868277595 28.1128704123049964
 32.4138487395214483  8.9502363868277595 28.1128704123049964
 21.1394844378736906 67.5337083432857384 28.1128704123049964
 29.5952789255014537  8.9502363868277595 28.1128704123049964
 21.1394849255014528  8.9502363868277595 28.1128704123049964
 -36.6418309544045329 69.9747351610314468 28.1128704123049964
 39.4603150455954648 69.9747351610314468 28.1128704123049964
  7.0464667395214500  8.9502363868277595 28.1128704123049964
 69.0555945941766822  4.0683292100162243 28.1128704123049964
 78.9207580388090690  6.5092827984219914 28.1128704123049964
 49.3254367801566929  4.0683292100162243 28.1128704123049964
 -8.4557941354520185 16.2731703813850075 28.1128704123049964
 19.7301572315754683 69.9747351610314468 28.1128704123049964
 -2.8185699494720202 16.2731703813850075 28.1128704123049964
 -33.8232188207786848 65.0927547548799765 28.1128704123049964
  2.8186119169021282 21.1551507875364884 28.1128704123049964
 -2.8186122690778692 21.1551507875364884 28.1128704123049964
 69.0555944722697461 18.7141971991307194 28.1128704123049964
 -28.1859946347986892 65.0927547548799765 28.1128704123049964
 42.2789699864549249  1.6273023922705114 28.1128704123049964
  5.6371817309221299 21.1551507875364884 28.1128704123049964
 -22.5487704488186900 65.0927547548799765 28.1128704123049964
 45.0975398004749266  1.6273023922705114 28.1128704123049964
 38.0510728442297577 18.7141971991307194 28.1128704123049964
 35.2324184722697566 18.7141971991307194 28.1128704123049964
  1.4092425941766900  4.0683292100162243 28.1128704123049964
 -5.6371824488186855 65.0927547548799765 28.1128704123049964
 26.7766244722697486 18.7141971991307194 28.1128704123049964
 -16.9116308207786865 65.0927547548799765 28.1128704123049964
  1.4092843042478451 72.4156887494372228 28.1128704123049964
 11.2744059169021327 21.1551507875364884 28.1128704123049964
 39.4604001724349231  1.6273023922705114 28.1128704123049964
  7.0464666176145112 23.5961043759422537 28.1128704123049964
 18.3208301065489287 62.6518011664742076 28.1128704123049964
  5.6372241724349186  1.6273023922705114 28.1128704123049964
 -7.0464670104254905 23.5961043759422537 28.1128704123049964
  8.4557939864549194  1.6273023922705114 28.1128704123049964
 67.6463095449421274 21.1551507875364884 28.1128704123049964
 16.9115455449421290 21.1551507875364884 28.1128704123049964
 62.0091699169021311 21.1551507875364884 28.1128704123049964
 47.9161517309221239 21.1551507875364884 28.1128704123049964
  9.8650783042478416 72.4156887494372228 28.1128704123049964
 28.1859518004749177  1.6273023922705114 28.1128704123049964
 39.4603577309221265 21.1551507875364884 28.1128704123049964
  4.2278541182678469 72.4156887494372228 28.1128704123049964
 -36.6417886347986865 65.0927547548799765 28.1128704123049964
 56.3719457309221283 21.1551507875364884 28.1128704123049964
 21.1394848442297523 18.7141971991307194 28.1128704123049964
 47.9161941724349276  1.6273023922705114 28.1128704123049964
 -0.0000428207786890 65.0927547548799765 28.1128704123049964
 53.5533338004749169  1.6273023922705114 28.1128704123049964
 59.1905579864549196  1.6273023922705114 28.1128704123049964
 42.2789698645479817 16.2731703813850075 28.1128704123049964
 36.6417456785679860 16.2731703813850075 28.1128704123049964
  8.4557511792213162 65.0927547548799765 28.1128704123049964
 67.6463519864549170  1.6273023922705114 28.1128704123049964
 18.3208304722697477 18.7141971991307194 28.1128704123049964
 25.3673818645479834 16.2731703813850075 28.1128704123049964
 14.0930180505279825 16.2731703813850075 28.1128704123049964
  8.4557938645479798 16.2731703813850075 28.1128704123049964
 78.9207158004749090  1.6273023922705114 28.1128704123049964
  2.8185696785679806 16.2731703813850075 28.1128704123049964
 25.3673391792213039 65.0927547548799765 28.1128704123049964
 81.7393701724349171  1.6273023922705114 28.1128704123049964
 19.7301576785679771 16.2731703813850075 28.1128704123049964
 53.5533336785679737 16.2731703813850075 28.1128704123049964
 50.7347638645479790 16.2731703813850075 28.1128704123049964
 15.5022606582497549 18.7141971991307194 28.1128704123049964
 62.0091276785679781 16.2731703813850075 28.1128704123049964
 70.4649216785679755 16.2731703813850075 28.1128704123049964
 -9.8651213417502497 18.7141971991307194 28.1128704123049964
 12.6836908442297531 18.7141971991307194 28.1128704123049964
 -7.0465515277302488 18.7141971991307194 28.1128704123049964
 50.7347639864549222  1.6273023922705114 28.1128704123049964
 -4.2278971557702505 18.7141971991307194 28.1128704123049964
  9.8650364722697521 18.7141971991307194 28.1128704123049964
  7.0464666582497495 18.7141971991307194 28.1128704123049964
 -1.4093273417502492 18.7141971991307194 28.1128704123049964
 -39.4604007819696179 71.6020375533019688 28.6327538495249954
 -5.6372247819696195 71.6020375533019688 28.6327538495249954
 -8.4557945959896212 71.6020375533019688 28.6327538495249954
 25.3674238455231631 52.0741891580359919 28.6327538495249954
 -11.2743644100096230 71.6020375533019688 28.6327538495249954
 28.1859936595431719 52.0741891580359919 28.6327538495249954
 22.5487694735631763 52.0741891580359919 28.6327538495249954
 -19.7301584100096186 71.6020375533019688 28.6327538495249954
 36.6417876595431693 52.0741891580359919 28.6327538495249954
 -8.4557521544768282 52.0741891580359919 28.6327538495249954
 -19.7302005264368283 52.0741891580359919 28.6327538495249954
 -14.0929763404568273 52.0741891580359919 28.6327538495249954
 54.9626605868708040 49.6332355696302230 28.6327538495249954
 14.0930176712620749 61.8380767409990000 28.6327538495249954
  2.8186115376362340 66.7200571471504844 28.6327538495249954
 -18.3208310818044460 54.5151427464417537 28.6327538495249954
 45.0975393399373274 56.9561695641874692 28.6327538495249954
 50.7347635259173302 56.9561695641874692 28.6327538495249954
 21.1394844649638500 64.2791035587447084 28.6327538495249954
 12.6836904649638509 64.2791035587447084 28.6327538495249954
  4.2278964649638544 64.2791035587447084 28.6327538495249954
 -18.3208734014102959 59.3971231525932382 28.6327538495249954
  1.4093266509438596 64.2791035587447084 28.6327538495249954
  1.4092844126096999 59.3971231525932382 28.6327538495249954
 12.6837327845697061 59.3971231525932382 28.6327538495249954
 23.9580965985897052 59.3971231525932382 28.6327538495249954
 26.7766664126097069 59.3971231525932382 28.6327538495249954
 -26.7767097210161431 64.2791035587447084 28.6327538495249954
 46.5069087845697027 59.3971231525932382 28.6327538495249954
 -31.0045221427579136 61.8380767409990000 28.6327538495249954
 -25.3673825147179137 61.8380767409990000 28.6327538495249954
 42.2789694852820901 61.8380767409990000 28.6327538495249954
 39.4603996712620955 61.8380767409990000 28.6327538495249954
 36.6418298572420866 61.8380767409990000 28.6327538495249954
 -5.6371401427579215 61.8380767409990000 28.6327538495249954
 33.8231754852820927 61.8380767409990000 28.6327538495249954
 28.1860358572420893 61.8380767409990000 28.6327538495249954
 35.2325026509438644 64.2791035587447084 28.6327538495249954
 -21.1394854537644470 54.5151427464417537 28.6327538495249954
 38.0510724649638732 64.2791035587447084 28.6327538495249954
 -25.3673402763837679 66.7200571471504844 28.6327538495249954
  4.2278964243286037 69.1610107355562462 28.6327538495249954
 -15.5022612677844460 54.5151427464417537 28.6327538495249954
 -1.4092430818044526 54.5151427464417537 28.6327538495249954
  1.4093267322155492 54.5151427464417537 28.6327538495249954
  4.2278965462355513 54.5151427464417537 28.6327538495249954
 -18.3208312037113821 69.1610107355562462 28.6327538495249954
 -35.2324192037113804 69.1610107355562462 28.6327538495249954
 45.0975815376362448 66.7200571471504844 28.6327538495249954
 23.9581389181955480 54.5151427464417537 28.6327538495249954
 39.4603573516562420 66.7200571471504844 28.6327538495249954
 36.6417875376362474 66.7200571471504844 28.6327538495249954
 25.3674237236162377 66.7200571471504844 28.6327538495249954
 46.5068665462355568 54.5151427464417537 28.6327538495249954
 -28.1859522881026763 56.9561695641874692 28.6327538495249954
 16.9116297236162261 66.7200571471504844 28.6327538495249954
 -19.7301582881026789 56.9561695641874692 28.6327538495249954
 14.0929753516562410 66.7200571471504844 28.6327538495249954
  2.8185693399373224 56.9561695641874692 28.6327538495249954
 16.9115875259173158 56.9561695641874692 28.6327538495249954
 25.3673815259173274 56.9561695641874692 28.6327538495249954
 28.1859513399373292 56.9561695641874692 28.6327538495249954
 -28.1859946483437653 66.7200571471504844 28.6327538495249954
 -19.7301583287379145 61.8380767409990000 28.6327538495249954
  1.4092849002374601  0.8136511961352557 28.6327538495249954
 21.1394845868707826 49.6332355696302230 28.6327538495249954
 46.5069091502905181 15.4595191852497500 28.6327538495249954
 32.4138909643105251 15.4595191852497500 28.6327538495249954
 29.5953211502905269 15.4595191852497500 28.6327538495249954
  4.2279391502905188 15.4595191852497500 28.6327538495249954
 -1.4092850356894804 15.4595191852497500 28.6327538495249954
 73.2835760776181360 13.0185655968439828 28.6327538495249954
 70.4649217056581421 13.0185655968439828 28.6327538495249954
 47.9161940776181368 13.0185655968439828 28.6327538495249954
 36.6417457056581313 13.0185655968439828 28.6327538495249954
 33.8231758916381438 13.0185655968439828 28.6327538495249954
 28.1859517056581375 13.0185655968439828 28.6327538495249954
 25.3673818916381357 13.0185655968439828 28.6327538495249954
 14.0930180776181420 13.0185655968439828 28.6327538495249954
  2.8185697056581414 13.0185655968439828 28.6327538495249954
 71.8742489119563714 10.5775387790982709 28.6327538495249954
 -5.6371397770370981 17.9004727736555189 28.6327538495249954
 60.5998850979363723 10.5775387790982709 28.6327538495249954
 16.9115878510028992 17.9004727736555189 28.6327538495249954
 47.9161940369829011 17.9004727736555189 28.6327538495249954
 47.9161517173770548 22.7824531798069998 28.6327538495249954
 19.7301999033570468 22.7824531798069998 28.6327538495249954
 14.0929757173770476 22.7824531798069998 28.6327538495249954
  8.4558360893370512 22.7824531798069998 28.6327538495249954
  2.8186119033570516 22.7824531798069998 28.6327538495249954
 -5.6371820966429516 22.7824531798069998 28.6327538495249954
 -11.2744062826229499 22.7824531798069998 28.6327538495249954
 46.5068668306846718 20.3414995914012344 28.6327538495249954
 43.6882970166646629 20.3414995914012344 28.6327538495249954
 32.4138486447046574 20.3414995914012344 28.6327538495249954
 26.7767090166646753 20.3414995914012344 28.6327538495249954
  4.2278968306846716 20.3414995914012344 28.6327538495249954
 64.8277820369829101 17.9004727736555189 28.6327538495249954
 62.0092122229629013 17.9004727736555189 28.6327538495249954
 59.1905578510029073 17.9004727736555189 28.6327538495249954
 31.0046060369829029 17.9004727736555189 28.6327538495249954
 56.3719457173770593 22.7824531798069998 28.6327538495249954
 49.3255212839163661 10.5775387790982709 28.6327538495249954
 40.8697272839163759 10.5775387790982709 28.6327538495249954
 81.7393701588898551  3.2546047845410229 28.6327538495249954
 76.1021459729098524  3.2546047845410229 28.6327538495249954
 62.0092123448698445  3.2546047845410229 28.6327538495249954
 56.3719881588898417  3.2546047845410229 28.6327538495249954
 45.0976243448698426  3.2546047845410229 28.6327538495249954
 36.6418303448698452  3.2546047845410229 28.6327538495249954
 33.8231759729098371  3.2546047845410229 28.6327538495249954
 31.0046061588898354  3.2546047845410229 28.6327538495249954
 19.7302423448698399  3.2546047845410229 28.6327538495249954
 16.9115879729098388  3.2546047845410229 28.6327538495249954
 14.0930181588898407  3.2546047845410229 28.6327538495249954
 11.2744483448698372  3.2546047845410229 28.6327538495249954
 49.3254790862174488  0.8136511961352557 28.6327538495249954
 38.0511152721974639  0.8136511961352557 28.6327538495249954
 23.9580970862174638  0.8136511961352557 28.6327538495249954
 12.6836909525916113  5.6956316022867357 28.6327538495249954
 43.6882970979363634 10.5775387790982709 28.6327538495249954
 15.5022607666116095  5.6956316022867357 28.6327538495249954
 35.2325031385716159  5.6956316022867357 28.6327538495249954
 23.9581392839163634 10.5775387790982709 28.6327538495249954
  4.2278969119563712 10.5775387790982709 28.6327538495249954
 76.1021882112439840  8.1365851906925037 28.6327538495249954
 73.2835338392839901  8.1365851906925037 28.6327538495249954
 70.4649640252639955  8.1365851906925037 28.6327538495249954
 67.6463942112439867  8.1365851906925037 28.6327538495249954
 59.1906002112439964  8.1365851906925037 28.6327538495249954
 56.3719458392839954  8.1365851906925037 28.6327538495249954
 16.9116302112439918  8.1365851906925037 28.6327538495249954
 14.0929758392839890  8.1365851906925037 28.6327538495249954
 11.2744060252639908  8.1365851906925037 28.6327538495249954
 -2.8186121607160102  8.1365851906925037 28.6327538495249954
 63.4184549525916097  5.6956316022867357 28.6327538495249954
 60.5998851385716151  5.6956316022867357 28.6327538495249954
 57.7812307666116141  5.6956316022867357 28.6327538495249954
 26.7767091385716043  5.6956316022867357 28.6327538495249954
 70.4649639033570594 22.7824531798069998 28.6327538495249954
 -12.6836912099505668 25.2234067682127652 28.6327538495249954
 -9.8650368379905675 25.2234067682127652 28.6327538495249954
 53.5533334618442680 42.3103015750729767 28.6327538495249954
 39.4603998338042672 42.3103015750729767 28.6327538495249954
 28.1859514618442688 42.3103015750729767 28.6327538495249954
 14.0930178338042680 42.3103015750729767 28.6327538495249954
 11.2743634618442599 42.3103015750729767 28.6327538495249954
  8.4557936478242581 42.3103015750729767 28.6327538495249954
 -5.6372245381557384 42.3103015750729767 28.6327538495249954
 -11.2743641661957401 42.3103015750729767 28.6327538495249954
 60.5998848541225001 39.8692747573272612 28.6327538495249954
 46.5068666681425000 39.8692747573272612 28.6327538495249954
 18.3209148541224920 39.8692747573272612 28.6327538495249954
 -7.0464671458775081 39.8692747573272612 28.6327538495249954
 -9.8650369598975125 39.8692747573272612 28.6327538495249954
 56.3719455954701161 37.4283211689214923 28.6327538495249954
 50.7348059674301126 37.4283211689214923 28.6327538495249954
 56.3719878338042619 42.3103015750729767 28.6327538495249954
 47.9161515954701187 37.4283211689214923 28.6327538495249954
 59.1905576478242708 42.3103015750729767 28.6327538495249954
 21.1395269064766467 44.7512551634787386 28.6327538495249954
 18.3209147728507951 49.6332355696302230 28.6327538495249954
  1.4093267728507877 49.6332355696302230 28.6327538495249954
 -4.2278974131292042 49.6332355696302230 28.6327538495249954
 -7.0464672271492059 49.6332355696302230 28.6327538495249954
 -12.6836914131292051 49.6332355696302230 28.6327538495249954
 -18.3209155991092061 49.6332355696302230 28.6327538495249954
 -23.9580552271492060 49.6332355696302230 28.6327538495249954
 56.3719877931690334 47.1922087518845075 28.6327538495249954
 39.4603997931690245 47.1922087518845075 28.6327538495249954
 33.8231756071890288 47.1922087518845075 28.6327538495249954
 11.2744479791490271 47.1922087518845075 28.6327538495249954
 -8.4557943928109793 47.1922087518845075 28.6327538495249954
 38.0511149064766485 44.7512551634787386 28.6327538495249954
 32.4138907204966458 44.7512551634787386 28.6327538495249954
 26.7766665345166501 44.7512551634787386 28.6327538495249954
  4.2279389064766386 44.7512551634787386 28.6327538495249954
 36.6417877814501125 37.4283211689214923 28.6327538495249954
 31.0045635954701204 37.4283211689214923 28.6327538495249954
 28.1859937814501045 37.4283211689214923 28.6327538495249954
 26.7766666564235685 30.1053871743642461 28.6327538495249954
 15.5023028424035783 30.1053871743642461 28.6327538495249954
 -1.4092851575964171 30.1053871743642461 28.6327538495249954
 62.0091275837512086 27.6644335859584807 28.6327538495249954
 42.2789697697312050 27.6644335859584807 28.6327538495249954
 31.0046059557112059 27.6644335859584807 28.6327538495249954
 19.7301575837512004 27.6644335859584807 28.6327538495249954
 11.2743635837511977 27.6644335859584807 28.6327538495249954
 -2.8185700442888009 27.6644335859584807 28.6327538495249954
 -8.4557942302688005 27.6644335859584807 28.6327538495249954
 -14.0930184162487979 27.6644335859584807 28.6327538495249954
 52.1440909760294318 25.2234067682127652 28.6327538495249954
 46.5068667900494361 25.2234067682127652 28.6327538495249954
 29.5952787900494201 25.2234067682127652 28.6327538495249954
 -1.4092428379905699 25.2234067682127652 28.6327538495249954
 29.5953210283835837 30.1053871743642461 28.6327538495249954
 11.2744481010559561 32.5463407627700150 28.6327538495249954
 16.9115877290959595 32.5463407627700150 28.6327538495249954
 25.3673817290959498 32.5463407627700150 28.6327538495249954
 14.0929755954701115 37.4283211689214923 28.6327538495249954
  2.8186117814501150 37.4283211689214923 28.6327538495249954
 -2.8186124045298877 37.4283211689214923 28.6327538495249954
 -5.6371822185498859 37.4283211689214923 28.6327538495249954
 -8.4557520325698885 37.4283211689214923 28.6327538495249954
 -11.2744064045298860 37.4283211689214923 28.6327538495249954
 -14.0929762185498877 37.4283211689214923 28.6327538495249954
 35.2325027728508005 49.6332355696302230 28.6327538495249954
 49.3254365227977445 34.9873675805157234 28.6327538495249954
 32.4138485227977426 34.9873675805157234 28.6327538495249954
 26.7767088947577392 34.9873675805157234 28.6327538495249954
 15.5022605227977337 34.9873675805157234 28.6327538495249954
 -7.0464671052422672 34.9873675805157234 28.6327538495249954
 -12.6836912912222672 34.9873675805157234 28.6327538495249954
 62.0092121010559580 32.5463407627700150 28.6327538495249954
 39.4603999150759606 32.5463407627700150 28.6327538495249954
 46.5068667087777357 34.9873675805157234 28.6327538495249954
 36.6417452180303869 71.6020375533019688 28.6327538495249954
