 H  O 
 1.0000000000000000
    84.5579400000000021    0.0000000000000000    0.0000000000000000
   -42.2789706095346958   73.2293399455724767    0.0000000000000000
     0.0000000000000000    0.0000000000000000   46.9039550000000034
 H   O  
 200 343
Cartesian
 26.7767089895745123 23.5961043759422537 28.1128704123049964
 46.5068668442297550 18.7141971991307194 28.1128704123049964
 19.7301573128471581 60.2107743487284921 28.1128704123049964
 60.5998004722697488 18.7141971991307194 28.1128704123049964
 69.0555944722697461 18.7141971991307194 28.1128704123049964
 11.2743633128471661 60.2107743487284921 28.1128704123049964
 -8.4558364550578684 21.1551507875364884 28.1128704123049964
  8.4557934988271644 60.2107743487284921 28.1128704123049964
  9.8651208676675761 38.2419723650567462 28.1128704123049964
  8.4557515449421317 21.1551507875364884 28.1128704123049964
  4.2278966816875769 38.2419723650567462 28.1128704123049964
 -5.6372246871528393 60.2107743487284921 28.1128704123049964
  5.6371814871082586 50.4468867657654769 28.1128704123049964
 50.7347215449421185 21.1551507875364884 28.1128704123049964
 -9.8651215042924267 38.2419723650567462 28.1128704123049964
 -16.9115885011728366 60.2107743487284921 28.1128704123049964
 -19.7301583151928384 60.2107743487284921 28.1128704123049964
 62.0091697949951950 35.8010187766509844 28.1128704123049964
 11.2744056730882534 50.4468867657654769 28.1128704123049964
  4.2278968035945095 23.5961043759422537 28.1128704123049964
 49.3254786121347877 57.7698207603227232 28.1128704123049964
 16.9115453011282568 50.4468867657654769 28.1128704123049964
 32.4138906121347787 57.7698207603227232 28.1128704123049964
 35.2325029895745132 23.5961043759422537 28.1128704123049964
 22.5488116848071662 60.2107743487284921 28.1128704123049964
 39.4603576090151904 35.8010187766509844 28.1128704123049964
 40.8696426582497523 18.7141971991307194 28.1128704123049964
 31.0046056848071565 60.2107743487284921 28.1128704123049964
 43.6882122284558676 48.0059331773597151 28.1128704123049964
 26.7766241065489261 62.6518011664742076 28.1128704123049964
 49.3254364957075708 38.2419723650567462 28.1128704123049964
 15.5022602925289341 62.6518011664742076 28.1128704123049964
 53.5533335566610376 30.9190383704995000 28.1128704123049964
 11.2743636785679815 16.2731703813850075 28.1128704123049964
  7.0464662925289359 62.6518011664742076 28.1128704123049964
  4.2278964785089341 62.6518011664742076 28.1128704123049964
 43.6882968676675674 38.2419723650567462 28.1128704123049964
 -12.6836915214910633 62.6518011664742076 28.1128704123049964
 -18.3209157074710660 62.6518011664742076 28.1128704123049964
 -21.1394855214910677 62.6518011664742076 28.1128704123049964
 -23.9581398934510652 62.6518011664742076 28.1128704123049964
 53.5533336785679737 16.2731703813850075 28.1128704123049964
 56.3719880505279747 16.2731703813850075 28.1128704123049964
 -16.9116306988717469 50.4468867657654769 28.1128704123049964
 26.7767088676675797 38.2419723650567462 28.1128704123049964
 -14.0929763269117494 50.4468867657654769 28.1128704123049964
 47.9161936848071619 60.2107743487284921 28.1128704123049964
 -8.4558366988717459 50.4468867657654769 28.1128704123049964
 33.8231754988271618 60.2107743487284921 28.1128704123049964
 26.7766244722697486 18.7141971991307194 28.1128704123049964
 32.4138486582497549 18.7141971991307194 28.1128704123049964
 38.0510728442297577 18.7141971991307194 28.1128704123049964
 40.8696424144358730 48.0059331773597151 28.1128704123049964
 26.7766664261547831 57.7698207603227232 28.1128704123049964
 33.8231334230351877 35.8010187766509844 28.1128704123049964
 -23.9580552542393690 52.8878403541712458 28.1128704123049964
 49.3254365363428136 33.3600651882452155 28.1128704123049964
 43.6882123503628037 33.3600651882452155 28.1128704123049964
 -21.1394854402193673 52.8878403541712458 28.1128704123049964
 38.0510304839886544 28.4780847820937346 28.1128704123049964
 -16.9115884605376010 55.3288671719169614 28.1128704123049964
 23.9580545363428143 33.3600651882452155 28.1128704123049964
 -25.3673824605375984 55.3288671719169614 28.1128704123049964
 60.5998426699686590 28.4780847820937346 28.1128704123049964
 -28.1860368324975958 55.3288671719169614 28.1128704123049964
 -31.0046066465175976 55.3288671719169614 28.1128704123049964
 -1.4093276261993704 52.8878403541712458 28.1128704123049964
 -11.2743640713789581 30.9190383704995000 28.1128704123049964
  1.4093267457606342 52.8878403541712458 28.1128704123049964
 -2.8185700713789608 30.9190383704995000 28.1128704123049964
  9.8650363503628089 33.3600651882452155 28.1128704123049964
  4.2278967223228134 33.3600651882452155 28.1128704123049964
 -15.5023456496371885 33.3600651882452155 28.1128704123049964
 29.5952785597806276 52.8878403541712458 28.1128704123049964
 23.9580543738006249 52.8878403541712458 28.1128704123049964
 39.4603999286210438 30.9190383704995000 28.1128704123049964
 45.0975395566610331 30.9190383704995000 28.1128704123049964
 62.0091275566610349 30.9190383704995000 28.1128704123049964
 12.6836484839886605 28.4780847820937346 28.1128704123049964
 43.6882969895745106 23.5961043759422537 28.1128704123049964
  4.2278544839886631 28.4780847820937346 28.1128704123049964
 -0.0000004605375943 55.3288671719169614 28.1128704123049964
  9.8650784261547866 57.7698207603227232 28.1128704123049964
 57.7812306176145043 23.5961043759422537 28.1128704123049964
  7.0465086121347857 57.7698207603227232 28.1128704123049964
 33.8231333011282445 50.4468867657654769 28.1128704123049964
 14.0929756090151947 35.8010187766509844 28.1128704123049964
 42.2789273011282489 50.4468867657654769 28.1128704123049964
 -12.6837337598252144 57.7698207603227232 28.1128704123049964
 -0.0000425769648080 35.8010187766509844 28.1128704123049964
 -21.1395277598252136 57.7698207603227232 28.1128704123049964
  8.4557937832762846 26.0371311936879657 28.1128704123049964
 -26.7766673878652135 57.7698207603227232 28.1128704123049964
 -5.6371822050048115 35.8010187766509844 28.1128704123049964
 22.5487274113162819 26.0371311936879657 28.1128704123049964
 50.7347213011282463 50.4468867657654769 28.1128704123049964
 31.0045214113162864 26.0371311936879657 28.1128704123049964
 -14.0929762050048097 35.8010187766509844 28.1128704123049964
 36.6417453534824062 55.3288671719169614 28.1128704123049964
 -16.9116305769648072 35.8010187766509844 28.1128704123049964
 47.9161094113162704 26.0371311936879657 28.1128704123049964
 -19.7302003909848089 35.8010187766509844 28.1128704123049964
 63.4184547223228137 33.3600651882452155 28.1128704123049964
 -26.7767096261993700 52.8878403541712458 28.1128704123049964
  8.4557935394624035 55.3288671719169614 28.1128704123049964
 -1.4092851440513405 28.4780847820937346 28.1128704123049964
 40.8696422925289298 62.6518011664742076 28.1128704123049964
  9.8650361065489385 62.6518011664742076 28.1128704123049964
 -33.8232188207786848 65.0927547548799765 28.1128704123049964
 23.9580967340417281 43.1239527712082307 28.1128704123049964
 63.4184549661366859  4.0683292100162243 28.1128704123049964
 -18.3209155855641299 48.0059331773597151 28.1128704123049964
 71.8742489661366903  4.0683292100162243 28.1128704123049964
 15.5023027340417219 43.1239527712082307 28.1128704123049964
 -2.8186121471709296  6.5092827984219914 28.1128704123049964
 -1.4092852659582757 43.1239527712082307 28.1128704123049964
  2.8186120388090696  6.5092827984219914 28.1128704123049964
 -14.0930187684245301 69.9747351610314468 28.1128704123049964
 -4.2279396379182765 43.1239527712082307 28.1128704123049964
 -28.1860369544045355 69.9747351610314468 28.1128704123049964
 -33.8231765824445318 69.9747351610314468 28.1128704123049964
 26.7767086238536862 67.5337083432857384 28.1128704123049964
 45.0975820388090725  6.5092827984219914 28.1128704123049964
 59.1905576613693398 40.6829991828024689 28.1128704123049964
  1.4092422284558699 48.0059331773597151 28.1128704123049964
 46.5068664785089325 62.6518011664742076 28.1128704123049964
 62.0091700388090601  6.5092827984219914 28.1128704123049964
 64.8277398528290689  6.5092827984219914 28.1128704123049964
 70.4649640388090717  6.5092827984219914 28.1128704123049964
 78.9207580388090690  6.5092827984219914 28.1128704123049964
 16.9115874175554666 69.9747351610314468 28.1128704123049964
 -26.7767095855641273 48.0059331773597151 28.1128704123049964
 35.2324605480617166 43.1239527712082307 28.1128704123049964
 56.3719878067141025 45.5649063596139996 28.1128704123049964
 32.4138904902278497 72.4156887494372228 28.1128704123049964
 -2.8185701932858982 45.5649063596139996 28.1128704123049964
 -8.4557943792659014 45.5649063596139996 28.1128704123049964
 28.1859514347540951 45.5649063596139996 28.1128704123049964
 18.3208723042478390 72.4156887494372228 28.1128704123049964
  9.8650783042478416 72.4156887494372228 28.1128704123049964
 31.0046061724349222  1.6273023922705114 28.1128704123049964
 31.0046058067141033 45.5649063596139996 28.1128704123049964
 47.9161941724349276  1.6273023922705114 28.1128704123049964
 62.0091278004749142  1.6273023922705114 28.1128704123049964
  7.0464667395214500  8.9502363868277595 28.1128704123049964
 -19.7301581932858987 45.5649063596139996 28.1128704123049964
 70.4649218004749116  1.6273023922705114 28.1128704123049964
 -25.3673823792659014 45.5649063596139996 28.1128704123049964
  4.2278969661366892  4.0683292100162243 28.1128704123049964
 57.7812727340417212 43.1239527712082307 28.1128704123049964
 47.9161938067141051 45.5649063596139996 28.1128704123049964
 42.2789694175554729 69.9747351610314468 28.1128704123049964
 18.3208305941766909  4.0683292100162243 28.1128704123049964
 23.9580547801566937  4.0683292100162243 28.1128704123049964
 26.7766245941766883  4.0683292100162243 28.1128704123049964
 32.4138487801566981  4.0683292100162243 28.1128704123049964
 -9.8650795097721549 72.4156887494372228 28.1128704123049964
  9.8651206238536986 67.5337083432857384 28.1128704123049964
 59.1905156668490591  6.5092827984219914 28.1128704123049964
 56.3719879286210457 30.9190383704995000 28.1128704123049964
  5.6371395332232206 11.3912632045734714 28.1128704123049964
  8.4557939051832172 11.3912632045734714 28.1128704123049964
 11.2743634753893449 40.6829991828024689 28.1128704123049964
 16.9115879051832216 11.3912632045734714 28.1128704123049964
 36.6417875511813165 65.0927547548799765 28.1128704123049964
  8.4557936613693432 40.6829991828024689 28.1128704123049964
 -19.7302006347986882 65.0927547548799765 28.1128704123049964
  5.6371392894093386 40.6829991828024689 28.1128704123049964
  2.8185694753893440 40.6829991828024689 28.1128704123049964
 -16.9116308207786865 65.0927547548799765 28.1128704123049964
 42.2789699051832244 11.3912632045734714 28.1128704123049964
 -2.8186547105906588 40.6829991828024689 28.1128704123049964
 -14.0929764488186855 65.0927547548799765 28.1128704123049964
 18.3208302284558755 48.0059331773597151 28.1128704123049964
 23.9580544144358711 48.0059331773597151 28.1128704123049964
 29.5952786004158739 48.0059331773597151 28.1128704123049964
  2.8186115511813119 65.0927547548799765 28.1128704123049964
 -19.7302427105906588 40.6829991828024689 28.1128704123049964
 -5.6371824488186855 65.0927547548799765 28.1128704123049964
 73.2834915332232129 11.3912632045734714 28.1128704123049964
 -2.8186544667767790 11.3912632045734714 28.1128704123049964
 -0.0000000948167802 11.3912632045734714 28.1128704123049964
 -22.5487704488186900 65.0927547548799765 28.1128704123049964
 26.7767091114814519  8.9502363868277595 28.1128704123049964
  1.4093266238536943 67.5337083432857384 28.1128704123049964
 49.3254789778556031 13.8322167929792403 28.1128704123049964
 28.1859514753893379 40.6829991828024689 28.1128704123049964
 43.6882971114814538  8.9502363868277595 28.1128704123049964
 49.3254367395214430  8.9502363868277595 28.1128704123049964
 14.0929332894093395 40.6829991828024689 28.1128704123049964
 52.1440911114814512  8.9502363868277595 28.1128704123049964
 43.6882547918756003 13.8322167929792403 28.1128704123049964
 60.5998848676675763 38.2419723650567462 28.1128704123049964
 -9.8651217481063078 67.5337083432857384 28.1128704123049964
 57.7812307395214404  8.9502363868277595 28.1128704123049964
 38.0510306058956047 13.8322167929792403 28.1128704123049964
 -25.3674248207786874 65.0927547548799765 28.1128704123049964
 32.4138909778556012 13.8322167929792403 28.1128704123049964
 22.5487272894093422 40.6829991828024689 28.1128704123049964
 76.1021459051832210 11.3912632045734714 28.1128704123049964
 11.2744056595431719 52.0741891580359919 28.6327538495249954
 39.4603997931690245 47.1922087518845075 28.6327538495249954
  2.8186116595431669 52.0741891580359919 28.6327538495249954
 40.8696847204966431 44.7512551634787386 28.6327538495249954
 -23.9580552271492060 49.6332355696302230 28.6327538495249954
 26.7766665345166501 44.7512551634787386 28.6327538495249954
 43.6882545345166520 44.7512551634787386 28.6327538495249954
 12.6836905868707941 49.6332355696302230 28.6327538495249954
 -21.1394854131292078 49.6332355696302230 28.6327538495249954
  8.4557936071890190 47.1922087518845075 28.6327538495249954
 29.5952785868707942 49.6332355696302230 28.6327538495249954
  7.0464664008907913 49.6332355696302230 28.6327538495249954
  2.8186539791490159 47.1922087518845075 28.6327538495249954
 32.4138484008907994 49.6332355696302230 28.6327538495249954
 -0.0000003928109814 47.1922087518845075 28.6327538495249954
 -8.4557943928109793 47.1922087518845075 28.6327538495249954
 -11.2743642068309775 47.1922087518845075 28.6327538495249954
 46.5068665868708067 49.6332355696302230 28.6327538495249954
 11.2744479791490271 47.1922087518845075 28.6327538495249954
 14.0930177931690217 47.1922087518845075 28.6327538495249954
 -14.0929340208509810 47.1922087518845075 28.6327538495249954
 -22.5487280208509766 47.1922087518845075 28.6327538495249954
  9.8651207728507995 49.6332355696302230 28.6327538495249954
  4.2278965868707896 49.6332355696302230 28.6327538495249954
 52.1440485345166493 44.7512551634787386 28.6327538495249954
 33.8231756071890288 47.1922087518845075 28.6327538495249954
 -2.8186125264368322 52.0741891580359919 28.6327538495249954
 52.1440907728507952 49.6332355696302230 28.6327538495249954
  1.4092849002374601  0.8136511961352557 28.6327538495249954
 22.5487694735631763 52.0741891580359919 28.6327538495249954
 25.3674237236162377 66.7200571471504844 28.6327538495249954
 19.7301995376362349 66.7200571471504844 28.6327538495249954
 16.9116297236162261 66.7200571471504844 28.6327538495249954
 11.2744055376362251 66.7200571471504844 28.6327538495249954
 -5.6371824623637705 66.7200571471504844 28.6327538495249954
 -8.4557522763837714 66.7200571471504844 28.6327538495249954
 -11.2744066483437688 66.7200571471504844 28.6327538495249954
 -28.1859946483437653 66.7200571471504844 28.6327538495249954
 -31.0045644623637671 66.7200571471504844 28.6327538495249954
 -36.6417886483437698 66.7200571471504844 28.6327538495249954
 35.2325026509438644 64.2791035587447084 28.6327538495249954
 32.4138482789838704 64.2791035587447084 28.6327538495249954
 29.5952784649638616 64.2791035587447084 28.6327538495249954
 26.7767086509438528 64.2791035587447084 28.6327538495249954
 18.3209146509438554 64.2791035587447084 28.6327538495249954
 15.5022602789838597 64.2791035587447084 28.6327538495249954
 12.6836904649638509 64.2791035587447084 28.6327538495249954
 -1.4093277210161486 64.2791035587447084 28.6327538495249954
 -7.0464673490561447 64.2791035587447084 28.6327538495249954
 -26.7767097210161431 64.2791035587447084 28.6327538495249954
 -29.5952795350361448 64.2791035587447084 28.6327538495249954
 31.0045633516562411 66.7200571471504844 28.6327538495249954
 36.6418298572420866 61.8380767409990000 28.6327538495249954
 42.2790117236162359 66.7200571471504844 28.6327538495249954
 -18.3208312037113821 69.1610107355562462 28.6327538495249954
 36.6417452180303869 71.6020375533019688 28.6327538495249954
 31.0046055899903834 71.6020375533019688 28.6327538495249954
 28.1859512180303895 71.6020375533019688 28.6327538495249954
 22.5488115899903860 71.6020375533019688 28.6327538495249954
  5.6372235899903860 71.6020375533019688 28.6327538495249954
  2.8185692180303707 71.6020375533019688 28.6327538495249954
 -0.0000005959896168 71.6020375533019688 28.6327538495249954
 -19.7301584100096186 71.6020375533019688 28.6327538495249954
 -22.5488127819696196 71.6020375533019688 28.6327538495249954
 -39.4604007819696179 71.6020375533019688 28.6327538495249954
 43.6882966103086261 69.1610107355562462 28.6327538495249954
 40.8697267962886173 69.1610107355562462 28.6327538495249954
 38.0510724243286234 69.1610107355562462 28.6327538495249954
 32.4139327962886199 69.1610107355562462 28.6327538495249954
 21.1394844243286215 69.1610107355562462 28.6327538495249954
 15.5023447962886092 69.1610107355562462 28.6327538495249954
  4.2278964243286037 69.1610107355562462 28.6327538495249954
 -1.4092432037113782 69.1610107355562462 28.6327538495249954
 -4.2278975756713866 69.1610107355562462 28.6327538495249954
 -7.0464673896913883 69.1610107355562462 28.6327538495249954
 -12.6836915756713875 69.1610107355562462 28.6327538495249954
 45.0975815376362448 66.7200571471504844 28.6327538495249954
 16.9116298455231728 52.0741891580359919 28.6327538495249954
 28.1860358572420893 61.8380767409990000 28.6327538495249954
 -0.0000005147179177 61.8380767409990000 28.6327538495249954
 -14.0930186600626755 56.9561695641874692 28.6327538495249954
 46.5068665462355568 54.5151427464417537 28.6327538495249954
 43.6882967322155622 54.5151427464417537 28.6327538495249954
 40.8697269181955534 54.5151427464417537 28.6327538495249954
 35.2325027322155506 54.5151427464417537 28.6327538495249954
 32.4139329181955560 54.5151427464417537 28.6327538495249954
 21.1394845462355612 54.5151427464417537 28.6327538495249954
 18.3209147322155452 54.5151427464417537 28.6327538495249954
 12.6836905462355407 54.5151427464417537 28.6327538495249954
 -4.2278974537644496 54.5151427464417537 28.6327538495249954
 -7.0464672677844442 54.5151427464417537 28.6327538495249954
 -9.8650370818044468 54.5151427464417537 28.6327538495249954
 -12.6836914537644478 54.5151427464417537 28.6327538495249954
 -15.5022612677844460 54.5151427464417537 28.6327538495249954
 -18.3208310818044460 54.5151427464417537 28.6327538495249954
 50.7348058455231694 52.0741891580359919 28.6327538495249954
 47.9161514735631755 52.0741891580359919 28.6327538495249954
 45.0975816595431809 52.0741891580359919 28.6327538495249954
 42.2790118455231720 52.0741891580359919 28.6327538495249954
 39.4603574735631781 52.0741891580359919 28.6327538495249954
 36.6417876595431693 52.0741891580359919 28.6327538495249954
 -11.2743642881026744 56.9561695641874692 28.6327538495249954
 25.3673814852820882 61.8380767409990000 28.6327538495249954
 -8.4557944740826727 56.9561695641874692 28.6327538495249954
  5.6372237118973310 56.9561695641874692 28.6327538495249954
 -19.7301583287379145 61.8380767409990000 28.6327538495249954
 -25.3673825147179137 61.8380767409990000 28.6327538495249954
 -28.1859523287379155 61.8380767409990000 28.6327538495249954
 -31.0045221427579136 61.8380767409990000 28.6327538495249954
 -33.8231765147179146 61.8380767409990000 28.6327538495249954
 43.6882544126097088 59.3971231525932382 28.6327538495249954
 35.2324604126097114 59.3971231525932382 28.6327538495249954
  4.2279387845697078 59.3971231525932382 28.6327538495249954
  1.4092844126096999 59.3971231525932382 28.6327538495249954
 -7.0465095873903012 59.3971231525932382 28.6327538495249954
 -9.8650794014102949 59.3971231525932382 28.6327538495249954
 -15.5023035873902977 59.3971231525932382 28.6327538495249954
 -23.9580975873902986 59.3971231525932382 28.6327538495249954
 -26.7766674014102968 59.3971231525932382 28.6327538495249954
 -29.5952372154302985 59.3971231525932382 28.6327538495249954
 -32.4138915873902960 59.3971231525932382 28.6327538495249954
 42.2789695259173328 56.9561695641874692 28.6327538495249954
 21.1395269064766467 44.7512551634787386 28.6327538495249954
 31.0046057118973302 56.9561695641874692 28.6327538495249954
 22.5488117118973186 56.9561695641874692 28.6327538495249954
 16.9115875259173158 56.9561695641874692 28.6327538495249954
 -5.6372246600626781 56.9561695641874692 28.6327538495249954
 12.6837329064766493 44.7512551634787386 28.6327538495249954
 22.5487695954701017 37.4283211689214923 28.6327538495249954
  4.2279389064766386 44.7512551634787386 28.6327538495249954
  4.2279391502905188 15.4595191852497500 28.6327538495249954
  1.4092847783305213 15.4595191852497500 28.6327538495249954
 -1.4092850356894804 15.4595191852497500 28.6327538495249954
 -4.2278548497094786 15.4595191852497500 28.6327538495249954
 -7.0465092216694787 15.4595191852497500 28.6327538495249954
 70.4649217056581421 13.0185655968439828 28.6327538495249954
 67.6463518916381474 13.0185655968439828 28.6327538495249954
 62.0091277056581518 13.0185655968439828 28.6327538495249954
 53.5533337056581473 13.0185655968439828 28.6327538495249954
 47.9161940776181368 13.0185655968439828 28.6327538495249954
 15.5023029643105232 15.4595191852497500 28.6327538495249954
 36.6417457056581313 13.0185655968439828 28.6327538495249954
 25.3673818916381357 13.0185655968439828 28.6327538495249954
 22.5488120776181340 13.0185655968439828 28.6327538495249954
 14.0930180776181420 13.0185655968439828 28.6327538495249954
 11.2743637056581409 13.0185655968439828 28.6327538495249954
  8.4557938916381428 13.0185655968439828 28.6327538495249954
  2.8185697056581414 13.0185655968439828 28.6327538495249954
 69.0556790979363768 10.5775387790982709 28.6327538495249954
 66.2371092839163680 10.5775387790982709 28.6327538495249954
 63.4184549119563812 10.5775387790982709 28.6327538495249954
 54.9626609119563767 10.5775387790982709 28.6327538495249954
 33.8231758916381438 13.0185655968439828 28.6327538495249954
 18.3208727783305179 15.4595191852497500 28.6327538495249954
 21.1395271502905153 15.4595191852497500 28.6327538495249954
 23.9580969643105171 15.4595191852497500 28.6327538495249954
 52.1440910166646745 20.3414995914012344 28.6327538495249954
 49.3254366447046735 20.3414995914012344 28.6327538495249954
 26.7767090166646753 20.3414995914012344 28.6327538495249954
 15.5022606447046662 20.3414995914012344 28.6327538495249954
 12.6836908306846716 20.3414995914012344 28.6327538495249954
  1.4093270166646681 20.3414995914012344 28.6327538495249954
 -4.2278971693153311 20.3414995914012344 28.6327538495249954
 -9.8651213552953294 20.3414995914012344 28.6327538495249954
 50.7347638510029029 17.9004727736555189 28.6327538495249954
 42.2789698510029055 17.9004727736555189 28.6327538495249954
 33.8231758510028868 17.9004727736555189 28.6327538495249954
 25.3673818510029001 17.9004727736555189 28.6327538495249954
 22.5488120369828984 17.9004727736555189 28.6327538495249954
  5.6372240369829028 17.9004727736555189 28.6327538495249954
  2.8186542229628988 17.9004727736555189 28.6327538495249954
 -8.4557941489970982 17.9004727736555189 28.6327538495249954
 71.8742911502905173 15.4595191852497500 28.6327538495249954
 66.2370669643105288 15.4595191852497500 28.6327538495249954
 63.4184971502905270 15.4595191852497500 28.6327538495249954
 38.0511151502905278 15.4595191852497500 28.6327538495249954
 35.2324607783305126 15.4595191852497500 28.6327538495249954
 29.5953211502905269 15.4595191852497500 28.6327538495249954
 26.7766667783305188 15.4595191852497500 28.6327538495249954
 52.1440910979363750 10.5775387790982709 28.6327538495249954
 46.5068669119563793 10.5775387790982709 28.6327538495249954
 40.8697272839163759 10.5775387790982709 28.6327538495249954
 38.0510729119563607 10.5775387790982709 28.6327538495249954
 59.1905579729098434  3.2546047845410229 28.6327538495249954
 56.3719881588898417  3.2546047845410229 28.6327538495249954
 53.5534183448698329  3.2546047845410229 28.6327538495249954
 50.7347639729098461  3.2546047845410229 28.6327538495249954
 42.2789699729098274  3.2546047845410229 28.6327538495249954
 36.6418303448698452  3.2546047845410229 28.6327538495249954
 22.5488121588898416  3.2546047845410229 28.6327538495249954
 14.0930181588898407  3.2546047845410229 28.6327538495249954
 11.2744483448698372  3.2546047845410229 28.6327538495249954
  8.4557939729098397  3.2546047845410229 28.6327538495249954
 83.1486550862174738  0.8136511961352557 28.6327538495249954
 80.3300852721974650  0.8136511961352557 28.6327538495249954
 69.0556369002374737  0.8136511961352557 28.6327538495249954
 66.2370670862174649  0.8136511961352557 28.6327538495249954
 43.6882549002374461  0.8136511961352557 28.6327538495249954
 38.0511152721974639  0.8136511961352557 28.6327538495249954
 29.5953212721974559  0.8136511961352557 28.6327538495249954
 26.7766669002374584  0.8136511961352557 28.6327538495249954
 23.9580970862174638  0.8136511961352557 28.6327538495249954
 21.1395272721974621  0.8136511961352557 28.6327538495249954
 15.5023030862174611  0.8136511961352557 28.6327538495249954
 12.6837332721974576  0.8136511961352557 28.6327538495249954
  9.8650789002374601  0.8136511961352557 28.6327538495249954
 67.6463519729098550  3.2546047845410229 28.6327538495249954
 54.9626608306846691 20.3414995914012344 28.6327538495249954
 73.2835761588898578  3.2546047845410229 28.6327538495249954
 -1.4093272333883895  5.6956316022867357 28.6327538495249954
 35.2325030979363731 10.5775387790982709 28.6327538495249954
 32.4139332839163785 10.5775387790982709 28.6327538495249954
 12.6836909119563703 10.5775387790982709 28.6327538495249954
 78.9207580252639929  8.1365851906925037 28.6327538495249954
 73.2835338392839901  8.1365851906925037 28.6327538495249954
 67.6463942112439867  8.1365851906925037 28.6327538495249954
 56.3719458392839954  8.1365851906925037 28.6327538495249954
 53.5533760252639937  8.1365851906925037 28.6327538495249954
 39.4603578392839793  8.1365851906925037 28.6327538495249954
 36.6417880252639918  8.1365851906925037 28.6327538495249954
 11.2744060252639908  8.1365851906925037 28.6327538495249954
 74.6928187666116230  5.6956316022867357 28.6327538495249954
 57.7812307666116141  5.6956316022867357 28.6327538495249954
 54.9626609525916123  5.6956316022867357 28.6327538495249954
 49.3254367666116167  5.6956316022867357 28.6327538495249954
 40.8696427666115980  5.6956316022867357 28.6327538495249954
 35.2325031385716159  5.6956316022867357 28.6327538495249954
 29.5952789525916060  5.6956316022867357 28.6327538495249954
 23.9580547666116068  5.6956316022867357 28.6327538495249954
 21.1394849525916122  5.6956316022867357 28.6327538495249954
 15.5022607666116095  5.6956316022867357 28.6327538495249954
 12.6836909525916113  5.6956316022867357 28.6327538495249954
  9.8651211385716078  5.6956316022867357 28.6327538495249954
 81.7393701588898551  3.2546047845410229 28.6327538495249954
 57.7812306447046780 20.3414995914012344 28.6327538495249954
 -11.2744062826229499 22.7824531798069998 28.6327538495249954
 -8.4557519106629488 22.7824531798069998 28.6327538495249954
 42.2790119674301152 37.4283211689214923 28.6327538495249954
 33.8232179674301037 37.4283211689214923 28.6327538495249954
 31.0045635954701204 37.4283211689214923 28.6327538495249954
 39.4603995899903808 71.6020375533019688 28.6327538495249954
 19.7301997814501142 37.4283211689214923 28.6327538495249954
 16.9116299674301196 37.4283211689214923 28.6327538495249954
 -5.6371822185498859 37.4283211689214923 28.6327538495249954
 -8.4557520325698885 37.4283211689214923 28.6327538495249954
 57.7812305227977419 34.9873675805157234 28.6327538495249954
 54.9626607087777472 34.9873675805157234 28.6327538495249954
 52.1440908947577384 34.9873675805157234 28.6327538495249954
 46.5068667087777357 34.9873675805157234 28.6327538495249954
 40.8696425227977400 34.9873675805157234 28.6327538495249954
 32.4138485227977426 34.9873675805157234 28.6327538495249954
 29.5952787087777267 34.9873675805157234 28.6327538495249954
  9.8651208947577302 34.9873675805157234 28.6327538495249954
  1.4093268947577322 34.9873675805157234 28.6327538495249954
 -9.8651214772022673 34.9873675805157234 28.6327538495249954
 59.1905577290959641 32.5463407627700150 28.6327538495249954
 53.5534181010559607 32.5463407627700150 28.6327538495249954
 50.7347637290959668 32.5463407627700150 28.6327538495249954
 33.8231757290959649 32.5463407627700150 28.6327538495249954
 28.1860361010559650 32.5463407627700150 28.6327538495249954
 50.7348059674301126 37.4283211689214923 28.6327538495249954
 19.7302421010559677 32.5463407627700150 28.6327538495249954
 53.5533757814501215 37.4283211689214923 28.6327538495249954
 -18.3208309598975099 39.8692747573272612 28.6327538495249954
  1.4092845345166412 44.7512551634787386 28.6327538495249954
 -9.8650792795033553 44.7512551634787386 28.6327538495249954
 -12.6836490935233588 44.7512551634787386 28.6327538495249954
 -15.5023034654833562 44.7512551634787386 28.6327538495249954
 -23.9580974654833554 44.7512551634787386 28.6327538495249954
 53.5533334618442680 42.3103015750729767 28.6327538495249954
 42.2789696478242618 42.3103015750729767 28.6327538495249954
 39.4603998338042672 42.3103015750729767 28.6327538495249954
 31.0046058338042556 42.3103015750729767 28.6327538495249954
 19.7301574618442501 42.3103015750729767 28.6327538495249954
 16.9115876478242626 42.3103015750729767 28.6327538495249954
 -0.0000003521757358 42.3103015750729767 28.6327538495249954
 -5.6372245381557384 42.3103015750729767 28.6327538495249954
 -8.4557943521757366 42.3103015750729767 28.6327538495249954
 -14.0930185381557376 42.3103015750729767 28.6327538495249954
 54.9626606681424974 39.8692747573272612 28.6327538495249954
 49.3255210401024939 39.8692747573272612 28.6327538495249954
 32.4139330401024850 39.8692747573272612 28.6327538495249954
 21.1394846681424795 39.8692747573272612 28.6327538495249954
 18.3209148541224920 39.8692747573272612 28.6327538495249954
 -7.0464671458775081 39.8692747573272612 28.6327538495249954
 -9.8650369598975125 39.8692747573272612 28.6327538495249954
 -12.6836913318575100 39.8692747573272612 28.6327538495249954
 -21.1394853318575109 39.8692747573272612 28.6327538495249954
  9.8650785345166412 44.7512551634787386 28.6327538495249954
 14.0930179150759578 32.5463407627700150 28.6327538495249954
 66.2370668424035927 30.1053871743642461 28.6327538495249954
 43.6882969760294344 25.2234067682127652 28.6327538495249954
 40.8697271620094256 25.2234067682127652 28.6327538495249954
 23.9581391620094379 25.2234067682127652 28.6327538495249954
 18.3209149760294281 25.2234067682127652 28.6327538495249954
 12.6836907900494289 25.2234067682127652 28.6327538495249954
  7.0465511620094325 25.2234067682127652 28.6327538495249954
  4.2278967900494315 25.2234067682127652 28.6327538495249954
 -4.2278972099505676 25.2234067682127652 28.6327538495249954
 -7.0464670239705693 25.2234067682127652 28.6327538495249954
 -9.8650368379905675 25.2234067682127652 28.6327538495249954
 67.6463940893370506 22.7824531798069998 28.6327538495249954
 64.8277397173770566 22.7824531798069998 28.6327538495249954
 59.1906000893370532 22.7824531798069998 28.6327538495249954
 56.3719457173770593 22.7824531798069998 28.6327538495249954
 53.5533759033570504 22.7824531798069998 28.6327538495249954
 50.7348060893370558 22.7824531798069998 28.6327538495249954
 42.2790120893370442 22.7824531798069998 28.6327538495249954
 39.4603577173770574 22.7824531798069998 28.6327538495249954
 31.0045637173770388 22.7824531798069998 28.6327538495249954
 16.9116300893370450 22.7824531798069998 28.6327538495249954
 14.0929757173770476 22.7824531798069998 28.6327538495249954
  2.8186119033570516 22.7824531798069998 28.6327538495249954
 -5.6371820966429516 22.7824531798069998 28.6327538495249954
 46.5068667900494361 25.2234067682127652 28.6327538495249954
  2.8186541010559618 32.5463407627700150 28.6327538495249954
 52.1440909760294318 25.2234067682127652 28.6327538495249954
 63.4184547900494380 25.2234067682127652 28.6327538495249954
 49.3254788424035837 30.1053871743642461 28.6327538495249954
 43.6882546564235881 30.1053871743642461 28.6327538495249954
 32.4138908424035748 30.1053871743642461 28.6327538495249954
 29.5953210283835837 30.1053871743642461 28.6327538495249954
 18.3208726564235782 30.1053871743642461 28.6327538495249954
 15.5023028424035783 30.1053871743642461 28.6327538495249954
  7.0465088424035836 30.1053871743642461 28.6327538495249954
  1.4092846564235810 30.1053871743642461 28.6327538495249954
 -7.0465093435764183 30.1053871743642461 28.6327538495249954
 -15.5023033435764184 30.1053871743642461 28.6327538495249954
 67.6463517697312113 27.6644335859584807 28.6327538495249954
 64.8277819557112025 27.6644335859584807 28.6327538495249954
 56.3719879557112051 27.6644335859584807 28.6327538495249954
 42.2789697697312050 27.6644335859584807 28.6327538495249954
 39.4603999557111962 27.6644335859584807 28.6327538495249954
 33.8231757697311934 27.6644335859584807 28.6327538495249954
 22.5488119557112086 27.6644335859584807 28.6327538495249954
 19.7301575837512004 27.6644335859584807 28.6327538495249954
 16.9115877697311987 27.6644335859584807 28.6327538495249954
 14.0930179557111952 27.6644335859584807 28.6327538495249954
 -5.6372244162487979 27.6644335859584807 28.6327538495249954
 69.0556789760294407 25.2234067682127652 28.6327538495249954
 66.2371091620094319 25.2234067682127652 28.6327538495249954
 54.9626607900494406 25.2234067682127652 28.6327538495249954
 42.2789694040103896 71.6020375533019688 28.6327538495249954
