 H  O 
 1.0000000000000000
    84.5579400000000021    0.0000000000000000    0.0000000000000000
   -42.2789706095346958   73.2293399455724767    0.0000000000000000
     0.0000000000000000    0.0000000000000000   46.9039550000000034
 H   O  
 194 402
Cartesian
 -4.2278973183124275 38.2419723650567462 28.1128704123049964
 31.0046056848071565 60.2107743487284921 28.1128704123049964
 54.9626608442297453 18.7141971991307194 28.1128704123049964
 60.5998004722697488 18.7141971991307194 28.1128704123049964
 16.9115453011282568 50.4468867657654769 28.1128704123049964
 -5.6372246871528393 60.2107743487284921 28.1128704123049964
  2.8186117949951930 35.8010187766509844 28.1128704123049964
 -8.4557945011728339 60.2107743487284921 28.1128704123049964
 22.5487694871082525 50.4468867657654769 28.1128704123049964
 28.1859936730882552 50.4468867657654769 28.1128704123049964
 22.5487697309221353 21.1551507875364884 28.1128704123049964
 -33.8231765011728385 60.2107743487284921 28.1128704123049964
 33.8231335449421309 21.1551507875364884 28.1128704123049964
 39.4603574871082543 50.4468867657654769 28.1128704123049964
 40.8696846121347903 57.7698207603227232 28.1128704123049964
 -11.2744063909848098 35.8010187766509844 28.1128704123049964
 47.9161517309221239 21.1551507875364884 28.1128704123049964
 32.4138906121347787 57.7698207603227232 28.1128704123049964
 -16.9116305769648072 35.8010187766509844 28.1128704123049964
 64.8277397309221328 21.1551507875364884 28.1128704123049964
 42.2789273011282489 50.4468867657654769 28.1128704123049964
 70.4649639169021356 21.1551507875364884 28.1128704123049964
 -9.8651213823854889 23.5961043759422537 28.1128704123049964
 -1.4093273823854895 23.5961043759422537 28.1128704123049964
 22.5487696090151921 35.8010187766509844 28.1128704123049964
 60.5998003503628055 33.3600651882452155 28.1128704123049964
 29.5952788442297496 18.7141971991307194 28.1128704123049964
 -21.1394855214910677 62.6518011664742076 28.1128704123049964
 66.2370669778556049 13.8322167929792403 28.1128704123049964
 18.3209148676675753 38.2419723650567462 28.1128704123049964
 -31.0045644488186873 65.0927547548799765 28.1128704123049964
  9.8651208676675761 38.2419723650567462 28.1128704123049964
 -36.6417886347986865 65.0927547548799765 28.1128704123049964
  5.6372240505279780 16.2731703813850075 28.1128704123049964
  8.4557938645479798 16.2731703813850075 28.1128704123049964
 38.0510724785089351 62.6518011664742076 28.1128704123049964
 19.7301575566610410 30.9190383704995000 28.1128704123049964
 -19.7302005128917450 50.4468867657654769 28.1128704123049964
 28.1859516785679780 16.2731703813850075 28.1128704123049964
 26.7766241065489261 62.6518011664742076 28.1128704123049964
 39.4604000505279870 16.2731703813850075 28.1128704123049964
 18.3208301065489287 62.6518011664742076 28.1128704123049964
 12.6836904785089395 62.6518011664742076 28.1128704123049964
 50.7347638645479790 16.2731703813850075 28.1128704123049964
  7.0464662925289359 62.6518011664742076 28.1128704123049964
 -11.2744065128917477 50.4468867657654769 28.1128704123049964
 -4.2278975214910632 62.6518011664742076 28.1128704123049964
 73.2835760505279836 16.2731703813850075 28.1128704123049964
 -4.2278971557702505 18.7141971991307194 28.1128704123049964
 -21.1394853183124276 38.2419723650567462 28.1128704123049964
 15.5022606582497549 18.7141971991307194 28.1128704123049964
 56.3719456090151922 35.8010187766509844 28.1128704123049964
  1.4093269895745080 23.5961043759422537 28.1128704123049964
 46.5068243620817157 43.1239527712082307 28.1128704123049964
 12.6836908035945140 23.5961043759422537 28.1128704123049964
 -4.2278974402193654 52.8878403541712458 28.1128704123049964
 56.3719034113162749 26.0371311936879657 28.1128704123049964
 64.8276974113162794 26.0371311936879657 28.1128704123049964
 64.8277819286210502 30.9190383704995000 28.1128704123049964
 67.6463517832762875 26.0371311936879657 28.1128704123049964
 14.0929331675024070 55.3288671719169614 28.1128704123049964
  1.4092846699686612 28.4780847820937346 28.1128704123049964
  7.0464663738006301 52.8878403541712458 28.1128704123049964
 53.5533335566610376 30.9190383704995000 28.1128704123049964
 15.5022603738006346 52.8878403541712458 28.1128704123049964
 33.8231757426410411 30.9190383704995000 28.1128704123049964
 29.5952364839886641 28.4780847820937346 28.1128704123049964
 40.8696848559486625 28.4780847820937346 28.1128704123049964
 52.1440907457606357 52.8878403541712458 28.1128704123049964
 46.5068244839886518 28.4780847820937346 28.1128704123049964
 31.0046059286210465 30.9190383704995000 28.1128704123049964
 18.3209147457606356 52.8878403541712458 28.1128704123049964
 46.5068665597806330 52.8878403541712458 28.1128704123049964
 28.1859515566610455 30.9190383704995000 28.1128704123049964
 66.2370668559486688 28.4780847820937346 28.1128704123049964
 40.8696423738006303 52.8878403541712458 28.1128704123049964
 -11.2743640713789581 30.9190383704995000 28.1128704123049964
 29.5952785597806276 52.8878403541712458 28.1128704123049964
 -9.8651214636571893 33.3600651882452155 28.1128704123049964
  1.4092423503628120 33.3600651882452155 28.1128704123049964
 28.1859513534823982 55.3288671719169614 28.1128704123049964
 33.8231757832762838 26.0371311936879657 28.1128704123049964
 26.7767089895745123 23.5961043759422537 28.1128704123049964
 53.5533756730882544 50.4468867657654769 28.1128704123049964
 -29.5952794402193682 52.8878403541712458 28.1128704123049964
 46.5068667223228047 33.3600651882452155 28.1128704123049964
  4.2278542401747847 57.7698207603227232 28.1128704123049964
 40.8696426176145025 23.5961043759422537 28.1128704123049964
 -23.9580552542393690 52.8878403541712458 28.1128704123049964
 -4.2279397598252162 57.7698207603227232 28.1128704123049964
 54.9626608035945097 23.5961043759422537 28.1128704123049964
 35.2324183503628063 33.3600651882452155 28.1128704123049964
 66.2370246176145088 23.5961043759422537 28.1128704123049964
 40.8696424144358730 48.0059331773597151 28.1128704123049964
 -15.5023035738452162 57.7698207603227232 28.1128704123049964
 -23.9580975738452153 57.7698207603227232 28.1128704123049964
 -11.2744485886837182 26.0371311936879657 28.1128704123049964
 32.4138485363428117 33.3600651882452155 28.1128704123049964
 -2.8186545886837178 26.0371311936879657 28.1128704123049964
 -15.5022612542393716 52.8878403541712458 28.1128704123049964
  8.4557937832762846 26.0371311936879657 28.1128704123049964
  7.0464665363428152 33.3600651882452155 28.1128704123049964
 11.2743635972962863 26.0371311936879657 28.1128704123049964
 31.0045211675023928 55.3288671719169614 28.1128704123049964
 14.0929334113162810 26.0371311936879657 28.1128704123049964
 19.7301575972962873 26.0371311936879657 28.1128704123049964
 69.0556789895745169 23.5961043759422537 28.1128704123049964
 -16.9116308207786865 65.0927547548799765 28.1128704123049964
 19.7301576785679771 16.2731703813850075 28.1128704123049964
 57.7812729778555934 13.8322167929792403 28.1128704123049964
 -2.8186549544045376 69.9747351610314468 28.1128704123049964
 -2.8186121471709296  6.5092827984219914 28.1128704123049964
 28.1859514347540951 45.5649063596139996 28.1128704123049964
 -5.6372247684245327 69.9747351610314468 28.1128704123049964
 -8.4557945824445344 69.9747351610314468 28.1128704123049964
 28.1859940388090742  6.5092827984219914 28.1128704123049964
 33.8231336668490670  6.5092827984219914 28.1128704123049964
 36.6417880388090680  6.5092827984219914 28.1128704123049964
 59.1905576613693398 40.6829991828024689 28.1128704123049964
 53.5533760388090698  6.5092827984219914 28.1128704123049964
 47.9161092894093343 40.6829991828024689 28.1128704123049964
 70.4649640388090717  6.5092827984219914 28.1128704123049964
 45.0975394753893397 40.6829991828024689 28.1128704123049964
 76.1021036668490609  6.5092827984219914 28.1128704123049964
 -36.6418309544045329 69.9747351610314468 28.1128704123049964
  4.2278969255014500  8.9502363868277595 28.1128704123049964
 21.1394846816875770 38.2419723650567462 28.1128704123049964
 35.2325026238536978 67.5337083432857384 28.1128704123049964
 18.3209151114814510  8.9502363868277595 28.1128704123049964
 36.6417454753893352 40.6829991828024689 28.1128704123049964
 35.2325031114814493  8.9502363868277595 28.1128704123049964
 29.5952784378736951 67.5337083432857384 28.1128704123049964
 38.0510729255014510  8.9502363868277595 28.1128704123049964
 11.2743632315754621 69.9747351610314468 28.1128704123049964
 -15.5023034519382783 43.1239527712082307 28.1128704123049964
 46.5068669661366982  4.0683292100162243 28.1128704123049964
 -7.0465094519382783 43.1239527712082307 28.1128704123049964
 -22.5488125652458997 45.5649063596139996 28.1128704123049964
  5.6372241724349186  1.6273023922705114 28.1128704123049964
 26.7766663042478434 72.4156887494372228 28.1128704123049964
 19.7301578004749203  1.6273023922705114 28.1128704123049964
 -11.2743641932859031 45.5649063596139996 28.1128704123049964
 35.2324605480617166 43.1239527712082307 28.1128704123049964
 21.1394421182678336 72.4156887494372228 28.1128704123049964
 45.0975398004749266  1.6273023922705114 28.1128704123049964
 47.9161941724349276  1.6273023922705114 28.1128704123049964
 32.4138907340417219 43.1239527712082307 28.1128704123049964
 50.7347639864549222  1.6273023922705114 28.1128704123049964
 33.8231756613693406 40.6829991828024689 28.1128704123049964
 59.1905579864549196  1.6273023922705114 28.1128704123049964
 -0.0000003792658964 45.5649063596139996 28.1128704123049964
 -15.5023036957521541 72.4156887494372228 28.1128704123049964
 23.9580967340417281 43.1239527712082307 28.1128704123049964
 81.7393701724349171  1.6273023922705114 28.1128704123049964
  2.8185694347540982 45.5649063596139996 28.1128704123049964
 -26.7766675097721567 72.4156887494372228 28.1128704123049964
 39.4603150455954648 69.9747351610314468 28.1128704123049964
 12.6836909661366875  4.0683292100162243 28.1128704123049964
 14.0930178067140996 45.5649063596139996 28.1128704123049964
 36.6417452315754701 69.9747351610314468 28.1128704123049964
 33.8231754175554755 69.9747351610314468 28.1128704123049964
 -4.2279398817321576 72.4156887494372228 28.1128704123049964
 57.7812307395214404  8.9502363868277595 28.1128704123049964
 15.5022607395214518  8.9502363868277595 28.1128704123049964
 56.3719878067141025 45.5649063596139996 28.1128704123049964
 18.3209146238536960 67.5337083432857384 28.1128704123049964
 -19.7302427105906588 40.6829991828024689 28.1128704123049964
 62.0091277192032209 11.3912632045734714 28.1128704123049964
  1.4092422284558699 48.0059331773597151 28.1128704123049964
 70.4649217192032182 11.3912632045734714 28.1128704123049964
 22.5487693652013093 65.0927547548799765 28.1128704123049964
 19.7301995511813146 65.0927547548799765 28.1128704123049964
  7.0465089778555976 13.8322167929792403 28.1128704123049964
 46.5068666816875762 38.2419723650567462 28.1128704123049964
  9.8650787918756002 13.8322167929792403 28.1128704123049964
 16.9115451792213065 65.0927547548799765 28.1128704123049964
 12.6836486058956019 13.8322167929792403 28.1128704123049964
  8.4557511792213162 65.0927547548799765 28.1128704123049964
 18.3208302284558755 48.0059331773597151 28.1128704123049964
  5.6371813652013136 65.0927547548799765 28.1128704123049964
 23.9580544957075787 38.2419723650567462 28.1128704123049964
 46.5068246058955950 13.8322167929792403 28.1128704123049964
 45.0975397192032190 11.3912632045734714 28.1128704123049964
 42.2789699051832244 11.3912632045734714 28.1128704123049964
 26.7767087457606330 52.8878403541712458 28.1128704123049964
  4.2278964378736958 67.5337083432857384 28.1128704123049964
 16.9115879051832216 11.3912632045734714 28.1128704123049964
 -0.0000000948167802 11.3912632045734714 28.1128704123049964
 25.3673819051832226 11.3912632045734714 28.1128704123049964
 -4.2278975621263015 67.5337083432857384 28.1128704123049964
 -12.6836915621263024 67.5337083432857384 28.1128704123049964
 -5.6372242807967794 11.3912632045734714 28.1128704123049964
 19.7301577192032234 11.3912632045734714 28.1128704123049964
 14.0929332894093395 40.6829991828024689 28.1128704123049964
  9.8651207728507995 49.6332355696302230 28.6327538495249954
 -2.8186125264368322 52.0741891580359919 28.6327538495249954
  1.4092845345166412 44.7512551634787386 28.6327538495249954
  5.6371814735631682 52.0741891580359919 28.6327538495249954
 11.2744056595431719 52.0741891580359919 28.6327538495249954
 14.0929754735631594 52.0741891580359919 28.6327538495249954
 52.1440485345166493 44.7512551634787386 28.6327538495249954
 16.9116298455231728 52.0741891580359919 28.6327538495249954
 57.7812727204966521 44.7512551634787386 28.6327538495249954
 -9.8650792795033553 44.7512551634787386 28.6327538495249954
 53.5534179791490246 47.1922087518845075 28.6327538495249954
 38.0510725868707951 49.6332355696302230 28.6327538495249954
 28.1860359791490147 47.1922087518845075 28.6327538495249954
 42.2789696071890333 47.1922087518845075 28.6327538495249954
 40.8696424008908039 49.6332355696302230 28.6327538495249954
 -12.6836490935233588 44.7512551634787386 28.6327538495249954
 54.9627029064766432 44.7512551634787386 28.6327538495249954
 19.7301996595431604 52.0741891580359919 28.6327538495249954
 39.4603997931690245 47.1922087518845075 28.6327538495249954
 -21.1394854131292078 49.6332355696302230 28.6327538495249954
 18.3209147728507951 49.6332355696302230 28.6327538495249954
  5.6372237931690181 47.1922087518845075 28.6327538495249954
 38.0511149064766485 44.7512551634787386 28.6327538495249954
  7.0464664008907913 49.6332355696302230 28.6327538495249954
  1.4093267728507877 49.6332355696302230 28.6327538495249954
 -22.5487703404568300 52.0741891580359919 28.6327538495249954
 35.2324605345166475 44.7512551634787386 28.6327538495249954
 -8.4557943928109793 47.1922087518845075 28.6327538495249954
 -11.2743642068309775 47.1922087518845075 28.6327538495249954
 29.5953209064766369 44.7512551634787386 28.6327538495249954
 -1.4093275991092098 49.6332355696302230 28.6327538495249954
 -19.7302005264368283 52.0741891580359919 28.6327538495249954
 -2.8185702068309761 47.1922087518845075 28.6327538495249954
 -16.9115461544768308 52.0741891580359919 28.6327538495249954
 14.0930177931690217 47.1922087518845075 28.6327538495249954
 -0.0000003928109814 47.1922087518845075 28.6327538495249954
 -14.0929763404568273 52.0741891580359919 28.6327538495249954
 26.7766665345166501 44.7512551634787386 28.6327538495249954
 -7.0464672271492059 49.6332355696302230 28.6327538495249954
 40.8696847204966431 44.7512551634787386 28.6327538495249954
 15.5022604008907816 49.6332355696302230 28.6327538495249954
 -5.6371823404568273 52.0741891580359919 28.6327538495249954
  2.8186539791490159 47.1922087518845075 28.6327538495249954
 -22.5487280208509766 47.1922087518845075 28.6327538495249954
 -15.5022612271492086 49.6332355696302230 28.6327538495249954
 -18.3209155991092061 49.6332355696302230 28.6327538495249954
  7.0465087204966403 44.7512551634787386 28.6327538495249954
 -4.2278974131292042 49.6332355696302230 28.6327538495249954
 23.9580967204966342 44.7512551634787386 28.6327538495249954
 19.7301573399373318 56.9561695641874692 28.6327538495249954
 39.4603574735631781 52.0741891580359919 28.6327538495249954
 16.9116297236162261 66.7200571471504844 28.6327538495249954
  8.4558357236162376 66.7200571471504844 28.6327538495249954
  5.6371813516562215 66.7200571471504844 28.6327538495249954
  2.8186115376362340 66.7200571471504844 28.6327538495249954
 -14.0929764623637634 66.7200571471504844 28.6327538495249954
 -16.9115462763837670 66.7200571471504844 28.6327538495249954
 -25.3673402763837679 66.7200571471504844 28.6327538495249954
 -28.1859946483437653 66.7200571471504844 28.6327538495249954
 -33.8231342763837688 66.7200571471504844 28.6327538495249954
 -36.6417886483437698 66.7200571471504844 28.6327538495249954
 46.5068664649638706 64.2791035587447084 28.6327538495249954
 19.7301995376362349 66.7200571471504844 28.6327538495249954
 26.7767086509438528 64.2791035587447084 28.6327538495249954
 18.3209146509438554 64.2791035587447084 28.6327538495249954
  7.0464662789838490 64.2791035587447084 28.6327538495249954
  4.2278964649638544 64.2791035587447084 28.6327538495249954
 -4.2278975350361501 64.2791035587447084 28.6327538495249954
 -12.6836915350361448 64.2791035587447084 28.6327538495249954
 -15.5022613490561429 64.2791035587447084 28.6327538495249954
 -18.3209157210161457 64.2791035587447084 28.6327538495249954
 -26.7767097210161431 64.2791035587447084 28.6327538495249954
 -32.4138493490561430 64.2791035587447084 28.6327538495249954
 -35.2325037210161440 64.2791035587447084 28.6327538495249954
 47.9161936712620928 61.8380767409990000 28.6327538495249954
 23.9580542789838589 64.2791035587447084 28.6327538495249954
 39.4603996712620955 61.8380767409990000 28.6327538495249954
 22.5487693516562366 66.7200571471504844 28.6327538495249954
 33.8232177236162386 66.7200571471504844 28.6327538495249954
 36.6417452180303869 71.6020375533019688 28.6327538495249954
 28.1859512180303895 71.6020375533019688 28.6327538495249954
 25.3673814040103807 71.6020375533019688 28.6327538495249954
 22.5488115899903860 71.6020375533019688 28.6327538495249954
 16.9115874040103833 71.6020375533019688 28.6327538495249954
 -2.8185704100096114 71.6020375533019688 28.6327538495249954
 -5.6372247819696195 71.6020375533019688 28.6327538495249954
 -8.4557945959896212 71.6020375533019688 28.6327538495249954
 -16.9115885959896168 71.6020375533019688 28.6327538495249954
 -25.3673825959896213 71.6020375533019688 28.6327538495249954
 -36.6417464100096169 71.6020375533019688 28.6327538495249954
 31.0045633516562411 66.7200571471504844 28.6327538495249954
 38.0510724243286234 69.1610107355562462 28.6327538495249954
 18.3209146103086198 69.1610107355562462 28.6327538495249954
 15.5023447962886092 69.1610107355562462 28.6327538495249954
 12.6836904243286224 69.1610107355562462 28.6327538495249954
 -4.2278975756713866 69.1610107355562462 28.6327538495249954
 -7.0464673896913883 69.1610107355562462 28.6327538495249954
 -9.8650372037113900 69.1610107355562462 28.6327538495249954
 -12.6836915756713875 69.1610107355562462 28.6327538495249954
 -23.9580553896913813 69.1610107355562462 28.6327538495249954
 -26.7766252037113830 69.1610107355562462 28.6327538495249954
 -29.5952795756713840 69.1610107355562462 28.6327538495249954
 -35.2324192037113804 69.1610107355562462 28.6327538495249954
 29.5952784243286260 69.1610107355562462 28.6327538495249954
 28.1859936595431719 52.0741891580359919 28.6327538495249954
 36.6418298572420866 61.8380767409990000 28.6327538495249954
  8.4557934852820722 61.8380767409990000 28.6327538495249954
 -14.0930186600626755 56.9561695641874692 28.6327538495249954
 -25.3673824740826745 56.9561695641874692 28.6327538495249954
 -31.0046066600626737 56.9561695641874692 28.6327538495249954
 52.1440907322155596 54.5151427464417537 28.6327538495249954
 49.3255209181955507 54.5151427464417537 28.6327538495249954
 46.5068665462355568 54.5151427464417537 28.6327538495249954
 32.4139329181955560 54.5151427464417537 28.6327538495249954
 29.5952785462355585 54.5151427464417537 28.6327538495249954
 26.7767087322155568 54.5151427464417537 28.6327538495249954
 23.9581389181955480 54.5151427464417537 28.6327538495249954
 18.3209147322155452 54.5151427464417537 28.6327538495249954
 -5.6372246600626781 56.9561695641874692 28.6327538495249954
 15.5023449181955559 54.5151427464417537 28.6327538495249954
  9.8651207322155532 54.5151427464417537 28.6327538495249954
  7.0465509181955595 54.5151427464417537 28.6327538495249954
 -4.2278974537644496 54.5151427464417537 28.6327538495249954
 -7.0464672677844442 54.5151427464417537 28.6327538495249954
 -15.5022612677844460 54.5151427464417537 28.6327538495249954
 -23.9580552677844487 54.5151427464417537 28.6327538495249954
 -26.7766250818044469 54.5151427464417537 28.6327538495249954
 53.5533756595431782 52.0741891580359919 28.6327538495249954
 50.7348058455231694 52.0741891580359919 28.6327538495249954
 47.9161514735631755 52.0741891580359919 28.6327538495249954
 42.2790118455231720 52.0741891580359919 28.6327538495249954
 12.6836905462355407 54.5151427464417537 28.6327538495249954
 11.2744478572420874 61.8380767409990000 28.6327538495249954
 -2.8185702881026811 56.9561695641874692 28.6327538495249954
  8.4557935259173256 56.9561695641874692 28.6327538495249954
 -2.8185703287379194 61.8380767409990000 28.6327538495249954
 -5.6371401427579215 61.8380767409990000 28.6327538495249954
 -16.9115885147179164 61.8380767409990000 28.6327538495249954
 -19.7301583287379145 61.8380767409990000 28.6327538495249954
 -22.5487281427579163 61.8380767409990000 28.6327538495249954
 -33.8231765147179146 61.8380767409990000 28.6327538495249954
 40.8696845985897141 59.3971231525932382 28.6327538495249954
 38.0511147845697053 59.3971231525932382 28.6327538495249954
 35.2324604126097114 59.3971231525932382 28.6327538495249954
 32.4138905985897026 59.3971231525932382 28.6327538495249954
  7.0465085985897025 59.3971231525932382 28.6327538495249954
  5.6372237118973310 56.9561695641874692 28.6327538495249954
  4.2279387845697078 59.3971231525932382 28.6327538495249954
 -7.0465095873903012 59.3971231525932382 28.6327538495249954
 -23.9580975873902986 59.3971231525932382 28.6327538495249954
 -32.4138915873902960 59.3971231525932382 28.6327538495249954
 50.7347635259173302 56.9561695641874692 28.6327538495249954
 47.9161937118973214 56.9561695641874692 28.6327538495249954
 36.6417453399373301 56.9561695641874692 28.6327538495249954
 33.8231755259173212 56.9561695641874692 28.6327538495249954
 31.0046057118973302 56.9561695641874692 28.6327538495249954
 28.1859513399373292 56.9561695641874692 28.6327538495249954
 22.5488117118973186 56.9561695641874692 28.6327538495249954
 16.9115875259173158 56.9561695641874692 28.6327538495249954
 -4.2278552154303037 59.3971231525932382 28.6327538495249954
 56.3719878338042619 42.3103015750729767 28.6327538495249954
  1.4092849002374601  0.8136511961352557 28.6327538495249954
 47.9161938338042646 42.3103015750729767 28.6327538495249954
 52.1440487783305286 15.4595191852497500 28.6327538495249954
 49.3254789643105269 15.4595191852497500 28.6327538495249954
 46.5069091502905181 15.4595191852497500 28.6327538495249954
 29.5953211502905269 15.4595191852497500 28.6327538495249954
 26.7766667783305188 15.4595191852497500 28.6327538495249954
 12.6837331502905215 15.4595191852497500 28.6327538495249954
  9.8650787783305205 15.4595191852497500 28.6327538495249954
  4.2279391502905188 15.4595191852497500 28.6327538495249954
 -1.4092850356894804 15.4595191852497500 28.6327538495249954
 -4.2278548497094786 15.4595191852497500 28.6327538495249954
 -7.0465092216694787 15.4595191852497500 28.6327538495249954
 70.4649217056581421 13.0185655968439828 28.6327538495249954
 54.9627031502905297 15.4595191852497500 28.6327538495249954
 67.6463518916381474 13.0185655968439828 28.6327538495249954
 62.0091277056581518 13.0185655968439828 28.6327538495249954
 59.1905578916381430 13.0185655968439828 28.6327538495249954
 47.9161940776181368 13.0185655968439828 28.6327538495249954
 45.0975397056581500 13.0185655968439828 28.6327538495249954
 42.2789698916381340 13.0185655968439828 28.6327538495249954
 28.1859517056581375 13.0185655968439828 28.6327538495249954
 22.5488120776181340 13.0185655968439828 28.6327538495249954
 19.7301577056581365 13.0185655968439828 28.6327538495249954
 11.2743637056581409 13.0185655968439828 28.6327538495249954
  8.4557938916381428 13.0185655968439828 28.6327538495249954
 -2.8185699223818586 13.0185655968439828 28.6327538495249954
 -5.6372242943418591 13.0185655968439828 28.6327538495249954
 64.8277820776181386 13.0185655968439828 28.6327538495249954
 77.5114730979363742 10.5775387790982709 28.6327538495249954
 63.4184971502905270 15.4595191852497500 28.6327538495249954
 71.8742911502905173 15.4595191852497500 28.6327538495249954
 54.9626608306846691 20.3414995914012344 28.6327538495249954
 43.6882970166646629 20.3414995914012344 28.6327538495249954
 40.8696426447046761 20.3414995914012344 28.6327538495249954
 38.0510728306846602 20.3414995914012344 28.6327538495249954
 35.2325030166646727 20.3414995914012344 28.6327538495249954
 32.4138486447046574 20.3414995914012344 28.6327538495249954
 29.5952788306846699 20.3414995914012344 28.6327538495249954
 21.1394848306846654 20.3414995914012344 28.6327538495249954
 12.6836908306846716 20.3414995914012344 28.6327538495249954
  1.4093270166646681 20.3414995914012344 28.6327538495249954
 -1.4093273552953294 20.3414995914012344 28.6327538495249954
 -4.2278971693153311 20.3414995914012344 28.6327538495249954
 69.0556367783305234 15.4595191852497500 28.6327538495249954
 73.2835760369829075 17.9004727736555189 28.6327538495249954
 56.3719880369828985 17.9004727736555189 28.6327538495249954
 53.5534182229629039 17.9004727736555189 28.6327538495249954
 50.7347638510029029 17.9004727736555189 28.6327538495249954
 39.4604000369828896 17.9004727736555189 28.6327538495249954
 33.8231758510028868 17.9004727736555189 28.6327538495249954
 31.0046060369829029 17.9004727736555189 28.6327538495249954
 28.1860362229629082 17.9004727736555189 28.6327538495249954
 19.7302422229628966 17.9004727736555189 28.6327538495249954
 16.9115878510028992 17.9004727736555189 28.6327538495249954
 14.0930180369829028 17.9004727736555189 28.6327538495249954
 11.2744482229629011 17.9004727736555189 28.6327538495249954
  8.4557938510029000 17.9004727736555189 28.6327538495249954
 64.8277820369829101 17.9004727736555189 28.6327538495249954
 57.7812306447046780 20.3414995914012344 28.6327538495249954
 71.8742489119563714 10.5775387790982709 28.6327538495249954
 63.4184549119563812 10.5775387790982709 28.6327538495249954
 70.4650063448698489  3.2546047845410229 28.6327538495249954
 67.6463519729098550  3.2546047845410229 28.6327538495249954
 59.1905579729098434  3.2546047845410229 28.6327538495249954
 56.3719881588898417  3.2546047845410229 28.6327538495249954
 47.9161941588898301  3.2546047845410229 28.6327538495249954
 45.0976243448698426  3.2546047845410229 28.6327538495249954
 25.3673819729098362  3.2546047845410229 28.6327538495249954
 16.9115879729098388  3.2546047845410229 28.6327538495249954
 14.0930181588898407  3.2546047845410229 28.6327538495249954
 11.2744483448698372  3.2546047845410229 28.6327538495249954
  2.8186543448698407  3.2546047845410229 28.6327538495249954
 -0.0000000270901599  3.2546047845410229 28.6327538495249954
 -1.4093272333883895  5.6956316022867357 28.6327538495249954
 83.1486550862174738  0.8136511961352557 28.6327538495249954
 71.8742912721974676  0.8136511961352557 28.6327538495249954
 69.0556369002374737  0.8136511961352557 28.6327538495249954
 63.4184972721974631  0.8136511961352557 28.6327538495249954
 60.5998429002374621  0.8136511961352557 28.6327538495249954
 49.3254790862174488  0.8136511961352557 28.6327538495249954
 43.6882549002374461  0.8136511961352557 28.6327538495249954
 38.0511152721974639  0.8136511961352557 28.6327538495249954
 26.7766669002374584  0.8136511961352557 28.6327538495249954
 21.1395272721974621  0.8136511961352557 28.6327538495249954
 18.3208729002374611  0.8136511961352557 28.6327538495249954
 15.5023030862174611  0.8136511961352557 28.6327538495249954
  4.2279392721974602  0.8136511961352557 28.6327538495249954
 80.3300852721974650  0.8136511961352557 28.6327538495249954
 66.2371092839163680 10.5775387790982709 28.6327538495249954
  9.8651211385716078  5.6956316022867357 28.6327538495249954
 26.7767091385716043  5.6956316022867357 28.6327538495249954
 57.7813152839163777 10.5775387790982709 28.6327538495249954
 46.5068669119563793 10.5775387790982709 28.6327538495249954
 43.6882970979363634 10.5775387790982709 28.6327538495249954
 40.8697272839163759 10.5775387790982709 28.6327538495249954
 38.0510729119563607 10.5775387790982709 28.6327538495249954
 29.5952789119563668 10.5775387790982709 28.6327538495249954
 26.7767090979363651 10.5775387790982709 28.6327538495249954
 21.1394849119563659 10.5775387790982709 28.6327538495249954
 18.3209150979363713 10.5775387790982709 28.6327538495249954
 -1.4092427160836287 10.5775387790982709 28.6327538495249954
 -4.2278970880436288 10.5775387790982709 28.6327538495249954
 76.1021882112439840  8.1365851906925037 28.6327538495249954
 12.6836909525916113  5.6956316022867357 28.6327538495249954
 70.4649640252639955  8.1365851906925037 28.6327538495249954
 39.4603578392839793  8.1365851906925037 28.6327538495249954
 36.6417880252639918  8.1365851906925037 28.6327538495249954
 33.8232182112439972  8.1365851906925037 28.6327538495249954
 28.1859940252639873  8.1365851906925037 28.6327538495249954
 16.9116302112439918  8.1365851906925037 28.6327538495249954
  2.8186120252639890  8.1365851906925037 28.6327538495249954
 71.8742489525916284  5.6956316022867357 28.6327538495249954
 57.7812307666116141  5.6956316022867357 28.6327538495249954
 54.9626609525916123  5.6956316022867357 28.6327538495249954
 52.1440911385716035  5.6956316022867357 28.6327538495249954
 38.0510729525916105  5.6956316022867357 28.6327538495249954
 32.4138487666116077  5.6956316022867357 28.6327538495249954
 53.5533760252639937  8.1365851906925037 28.6327538495249954
 66.2370246447046753 20.3414995914012344 28.6327538495249954
  0.0000420893370479 22.7824531798069998 28.6327538495249954
  2.8186119033570516 22.7824531798069998 28.6327538495249954
 25.3674239674301170 37.4283211689214923 28.6327538495249954
 22.5487695954701017 37.4283211689214923 28.6327538495249954
 19.7301997814501142 37.4283211689214923 28.6327538495249954
 14.0929755954701115 37.4283211689214923 28.6327538495249954
  8.4558359674301080 37.4283211689214923 28.6327538495249954
  2.8186117814501150 37.4283211689214923 28.6327538495249954
  0.0000419674301133 37.4283211689214923 28.6327538495249954
 -2.8186124045298877 37.4283211689214923 28.6327538495249954
 39.4603995899903808 71.6020375533019688 28.6327538495249954
 -5.6371822185498859 37.4283211689214923 28.6327538495249954
 -8.4557520325698885 37.4283211689214923 28.6327538495249954
 -16.9115460325698876 37.4283211689214923 28.6327538495249954
 45.0975817814501099 37.4283211689214923 28.6327538495249954
 57.7812305227977419 34.9873675805157234 28.6327538495249954
 35.2325028947577295 34.9873675805157234 28.6327538495249954
 23.9580545227977240 34.9873675805157234 28.6327538495249954
 21.1394847087777364 34.9873675805157234 28.6327538495249954
  7.0464665227977319 34.9873675805157234 28.6327538495249954
  4.2278967087777302 34.9873675805157234 28.6327538495249954
  1.4093268947577322 34.9873675805157234 28.6327538495249954
 -1.4093274772022688 34.9873675805157234 28.6327538495249954
 -7.0464671052422672 34.9873675805157234 28.6327538495249954
 -9.8651214772022673 34.9873675805157234 28.6327538495249954
 -12.6836912912222672 34.9873675805157234 28.6327538495249954
 62.0092121010559580 32.5463407627700150 28.6327538495249954
 56.3719879150759695 32.5463407627700150 28.6327538495249954
 46.5068667087777357 34.9873675805157234 28.6327538495249954
 47.9161939150759579 32.5463407627700150 28.6327538495249954
 47.9161515954701187 37.4283211689214923 28.6327538495249954
 62.0091697814501188 37.4283211689214923 28.6327538495249954
 45.0975394618442706 42.3103015750729767 28.6327538495249954
 39.4603998338042672 42.3103015750729767 28.6327538495249954
 36.6417454618442662 42.3103015750729767 28.6327538495249954
 33.8231756478242644 42.3103015750729767 28.6327538495249954
 31.0046058338042556 42.3103015750729767 28.6327538495249954
 28.1859514618442688 42.3103015750729767 28.6327538495249954
 16.9115876478242626 42.3103015750729767 28.6327538495249954
 14.0930178338042680 42.3103015750729767 28.6327538495249954
 11.2743634618442599 42.3103015750729767 28.6327538495249954
 -8.4557943521757366 42.3103015750729767 28.6327538495249954
 -16.9115883521757375 42.3103015750729767 28.6327538495249954
 -19.7301581661957393 42.3103015750729767 28.6327538495249954
 56.3719455954701161 37.4283211689214923 28.6327538495249954
 -22.5488125381557367 42.3103015750729767 28.6327538495249954
 49.3255210401024939 39.8692747573272612 28.6327538495249954
 46.5068666681425000 39.8692747573272612 28.6327538495249954
 35.2325028541224938 39.8692747573272612 28.6327538495249954
 21.1394846681424795 39.8692747573272612 28.6327538495249954
 18.3209148541224920 39.8692747573272612 28.6327538495249954
 15.5023450401024956 39.8692747573272612 28.6327538495249954
 12.6836906681424875 39.8692747573272612 28.6327538495249954
  1.4093268541224926 39.8692747573272612 28.6327538495249954
 -4.2278973318575099 39.8692747573272612 28.6327538495249954
 -9.8650369598975125 39.8692747573272612 28.6327538495249954
 -18.3208309598975099 39.8692747573272612 28.6327538495249954
 -21.1394853318575109 39.8692747573272612 28.6327538495249954
 60.5998848541225001 39.8692747573272612 28.6327538495249954
 45.0976241010559633 32.5463407627700150 28.6327538495249954
 36.6418301010559517 32.5463407627700150 28.6327538495249954
 33.8231757290959649 32.5463407627700150 28.6327538495249954
  8.4557937697312031 27.6644335859584807 28.6327538495249954
 -5.6372244162487979 27.6644335859584807 28.6327538495249954
 -8.4557942302688005 27.6644335859584807 28.6327538495249954
 66.2371091620094319 25.2234067682127652 28.6327538495249954
 54.9626607900494406 25.2234067682127652 28.6327538495249954
 46.5068667900494361 25.2234067682127652 28.6327538495249954
 43.6882969760294344 25.2234067682127652 28.6327538495249954
 40.8697271620094256 25.2234067682127652 28.6327538495249954
 21.1394847900494298 25.2234067682127652 28.6327538495249954
 12.6836907900494289 25.2234067682127652 28.6327538495249954
  9.8651209760294343 25.2234067682127652 28.6327538495249954
  1.4093269760294336 25.2234067682127652 28.6327538495249954
 11.2743635837511977 27.6644335859584807 28.6327538495249954
 -1.4092428379905699 25.2234067682127652 28.6327538495249954
 -9.8650368379905675 25.2234067682127652 28.6327538495249954
 -12.6836912099505668 25.2234067682127652 28.6327538495249954
 70.4649639033570594 22.7824531798069998 28.6327538495249954
 67.6463940893370506 22.7824531798069998 28.6327538495249954
 64.8277397173770566 22.7824531798069998 28.6327538495249954
 56.3719457173770593 22.7824531798069998 28.6327538495249954
 53.5533759033570504 22.7824531798069998 28.6327538495249954
 42.2790120893370442 22.7824531798069998 28.6327538495249954
 39.4603577173770574 22.7824531798069998 28.6327538495249954
 36.6417879033570415 22.7824531798069998 28.6327538495249954
 31.0045637173770388 22.7824531798069998 28.6327538495249954
 28.1859939033570512 22.7824531798069998 28.6327538495249954
 -4.2278972099505676 25.2234067682127652 28.6327538495249954
 14.0930179557111952 27.6644335859584807 28.6327538495249954
 16.9115877697311987 27.6644335859584807 28.6327538495249954
 19.7301575837512004 27.6644335859584807 28.6327538495249954
 31.0046059150759525 32.5463407627700150 28.6327538495249954
 19.7302421010559677 32.5463407627700150 28.6327538495249954
  8.4557937290959586 32.5463407627700150 28.6327538495249954
  2.8186541010559618 32.5463407627700150 28.6327538495249954
 -11.2743640849240396 32.5463407627700150 28.6327538495249954
 63.4184970283835838 30.1053871743642461 28.6327538495249954
 60.5998426564235899 30.1053871743642461 28.6327538495249954
 54.9627030283835865 30.1053871743642461 28.6327538495249954
 49.3254788424035837 30.1053871743642461 28.6327538495249954
 46.5069090283835891 30.1053871743642461 28.6327538495249954
 35.2324606564235907 30.1053871743642461 28.6327538495249954
 32.4138908424035748 30.1053871743642461 28.6327538495249954
 29.5953210283835837 30.1053871743642461 28.6327538495249954
 21.1395270283835863 30.1053871743642461 28.6327538495249954
 18.3208726564235782 30.1053871743642461 28.6327538495249954
 15.5023028424035783 30.1053871743642461 28.6327538495249954
  1.4092846564235810 30.1053871743642461 28.6327538495249954
 -9.8650791575964192 30.1053871743642461 28.6327538495249954
 -12.6836489716164174 30.1053871743642461 28.6327538495249954
 64.8277819557112025 27.6644335859584807 28.6327538495249954
 62.0091275837512086 27.6644335859584807 28.6327538495249954
 56.3719879557112051 27.6644335859584807 28.6327538495249954
 47.9161939557112078 27.6644335859584807 28.6327538495249954
 45.0975395837512067 27.6644335859584807 28.6327538495249954
 39.4603999557111962 27.6644335859584807 28.6327538495249954
 28.1859515837511907 27.6644335859584807 28.6327538495249954
 22.5488119557112086 27.6644335859584807 28.6327538495249954
 53.5533334618442680 42.3103015750729767 28.6327538495249954
 42.2789694040103896 71.6020375533019688 28.6327538495249954
