 H  O 
 1.0000000000000000
    84.5579400000000021    0.0000000000000000    0.0000000000000000
   -42.2789706095346958   73.2293399455724767    0.0000000000000000
     0.0000000000000000    0.0000000000000000   46.9039550000000034
 H   O  
 181 362
Cartesian
 38.0510301182678390 72.4156887494372228 28.1128704123049964
  1.4093269895745080 23.5961043759422537 28.1128704123049964
 23.9580966121347885 57.7698207603227232 28.1128704123049964
 18.3209149895745149 23.5961043759422537 28.1128704123049964
 12.6836482401747883 57.7698207603227232 28.1128704123049964
 -1.4092853878652121 57.7698207603227232 28.1128704123049964
 38.0510728035945078 23.5961043759422537 28.1128704123049964
 -4.2279397598252162 57.7698207603227232 28.1128704123049964
 49.3254366176144998 23.5961043759422537 28.1128704123049964
 -9.8650793878652134 57.7698207603227232 28.1128704123049964
 -14.0930184027037182 26.0371311936879657 28.1128704123049964
 -23.9580975738452153 57.7698207603227232 28.1128704123049964
 -4.2278971964054897 23.5961043759422537 28.1128704123049964
 -29.5953217598252145 57.7698207603227232 28.1128704123049964
 28.1859515972962846 26.0371311936879657 28.1128704123049964
 36.6417453534824062 55.3288671719169614 28.1128704123049964
 45.0975395972962758 26.0371311936879657 28.1128704123049964
 59.1905577832762830 26.0371311936879657 28.1128704123049964
 64.8276974113162794 26.0371311936879657 28.1128704123049964
 49.3254363738006276 52.8878403541712458 28.1128704123049964
 54.9626184839886562 28.4780847820937346 28.1128704123049964
 32.4138483738006258 52.8878403541712458 28.1128704123049964
 18.3209147457606356 52.8878403541712458 28.1128704123049964
  8.4557937426410454 30.9190383704995000 28.1128704123049964
 14.0930179286210446 30.9190383704995000 28.1128704123049964
 45.0975393534824036 55.3288671719169614 28.1128704123049964
 29.5952362401747777 57.7698207603227232 28.1128704123049964
 -12.6836911964054888 23.5961043759422537 28.1128704123049964
 -28.1859523151928357 60.2107743487284921 28.1128704123049964
 42.2789698645479817 16.2731703813850075 28.1128704123049964
 12.6836904785089395 62.6518011664742076 28.1128704123049964
 50.7347638645479790 16.2731703813850075 28.1128704123049964
 67.6463518645479809 16.2731703813850075 28.1128704123049964
 -12.6836915214910633 62.6518011664742076 28.1128704123049964
  9.8650364722697521 18.7141971991307194 28.1128704123049964
 -29.5952795214910651 62.6518011664742076 28.1128704123049964
 23.9580546582497540 18.7141971991307194 28.1128704123049964
 32.4138486582497549 18.7141971991307194 28.1128704123049964
 38.0510728442297577 18.7141971991307194 28.1128704123049964
 49.3254366582497497 18.7141971991307194 28.1128704123049964
 36.6417453128471564 60.2107743487284921 28.1128704123049964
 54.9626608442297453 18.7141971991307194 28.1128704123049964
 63.4184548442297569 18.7141971991307194 28.1128704123049964
 22.5488116848071662 60.2107743487284921 28.1128704123049964
 14.0930176848071671 60.2107743487284921 28.1128704123049964
  8.4557515449421317 21.1551507875364884 28.1128704123049964
 11.2743633128471661 60.2107743487284921 28.1128704123049964
 14.0929757309221344 21.1551507875364884 28.1128704123049964
 -5.6372246871528393 60.2107743487284921 28.1128704123049964
 25.3673395449421299 21.1551507875364884 28.1128704123049964
 28.1859939169021310 21.1551507875364884 28.1128704123049964
 -8.4557945011728339 60.2107743487284921 28.1128704123049964
 36.6417879169021319 21.1551507875364884 28.1128704123049964
 39.4603577309221265 21.1551507875364884 28.1128704123049964
 19.7301575566610410 30.9190383704995000 28.1128704123049964
 23.9580542925289315 62.6518011664742076 28.1128704123049964
 28.1859515566610455 30.9190383704995000 28.1128704123049964
 45.0975395566610331 30.9190383704995000 28.1128704123049964
 23.9580544957075787 38.2419723650567462 28.1128704123049964
 -4.2278973995841262 48.0059331773597151 28.1128704123049964
 38.0510726816875717 38.2419723650567462 28.1128704123049964
 -9.8651215855641290 48.0059331773597151 28.1128704123049964
 -18.3209155855641299 48.0059331773597151 28.1128704123049964
 -14.0930185246106596 40.6829991828024689 28.1128704123049964
 -23.9581397715441291 48.0059331773597151 28.1128704123049964
  8.4557936613693432 40.6829991828024689 28.1128704123049964
 50.7347636207340997 45.5649063596139996 28.1128704123049964
 22.5487272894093422 40.6829991828024689 28.1128704123049964
 25.3673816613693432 40.6829991828024689 28.1128704123049964
  1.4092422284558699 48.0059331773597151 28.1128704123049964
 39.4603998067140935 45.5649063596139996 28.1128704123049964
 59.1905576613693398 40.6829991828024689 28.1128704123049964
 36.6417454347540925 45.5649063596139996 28.1128704123049964
 -21.1395276379182775 43.1239527712082307 28.1128704123049964
 -9.8650792659582809 43.1239527712082307 28.1128704123049964
  1.4092845480617260 43.1239527712082307 28.1128704123049964
 31.0046058067141033 45.5649063596139996 28.1128704123049964
 12.6836483620817209 43.1239527712082307 28.1128704123049964
 16.9115876207341032 45.5649063596139996 28.1128704123049964
 23.9580967340417281 43.1239527712082307 28.1128704123049964
 38.0510303620817112 43.1239527712082307 28.1128704123049964
 43.6882545480617210 43.1239527712082307 28.1128704123049964
 47.9161092894093343 40.6829991828024689 28.1128704123049964
 12.6836906004158720 48.0059331773597151 28.1128704123049964
 -9.8651215042924267 38.2419723650567462 28.1128704123049964
 -12.6836913183124267 38.2419723650567462 28.1128704123049964
 53.5533335566610376 30.9190383704995000 28.1128704123049964
  4.2278965597806355 52.8878403541712458 28.1128704123049964
 62.0091275566610349 30.9190383704995000 28.1128704123049964
 -1.4093274636571897 33.3600651882452155 28.1128704123049964
 -15.5022612542393716 52.8878403541712458 28.1128704123049964
  1.4092423503628120 33.3600651882452155 28.1128704123049964
 -21.1394854402193673 52.8878403541712458 28.1128704123049964
 -29.5952794402193682 52.8878403541712458 28.1128704123049964
 23.9580545363428143 33.3600651882452155 28.1128704123049964
 32.4138485363428117 33.3600651882452155 28.1128704123049964
 35.2324183503628063 33.3600651882452155 28.1128704123049964
 42.2789273011282489 50.4468867657654769 28.1128704123049964
 28.1859936730882552 50.4468867657654769 28.1128704123049964
 -19.7302003909848089 35.8010187766509844 28.1128704123049964
 -11.2744063909848098 35.8010187766509844 28.1128704123049964
 22.5487694871082525 50.4468867657654769 28.1128704123049964
  2.8186117949951930 35.8010187766509844 28.1128704123049964
 -8.4558366988717459 50.4468867657654769 28.1128704123049964
 14.0929756090151947 35.8010187766509844 28.1128704123049964
 -11.2744065128917477 50.4468867657654769 28.1128704123049964
 33.8231334230351877 35.8010187766509844 28.1128704123049964
 54.9626606004158731 48.0059331773597151 28.1128704123049964
 45.0975817949951860 35.8010187766509844 28.1128704123049964
 59.1905154230351869 35.8010187766509844 28.1128704123049964
 -15.5022611323324266 38.2419723650567462 28.1128704123049964
  9.8651207457606311 52.8878403541712458 28.1128704123049964
 36.6417456785679860 16.2731703813850075 28.1128704123049964
 59.1905155449421230 21.1551507875364884 28.1128704123049964
 54.9626183620817130 43.1239527712082307 28.1128704123049964
 -0.0000005824445366 69.9747351610314468 28.1128704123049964
 -5.6372242807967794 11.3912632045734714 28.1128704123049964
 43.6882125941766972  4.0683292100162243 28.1128704123049964
 22.5487270455954629 69.9747351610314468 28.1128704123049964
 45.0975815511813138 65.0927547548799765 28.1128704123049964
  8.4557939051832172 11.3912632045734714 28.1128704123049964
 38.0510729661366938  4.0683292100162243 28.1128704123049964
 14.0929335332232206 11.3912632045734714 28.1128704123049964
 22.5487275332232180 11.3912632045734714 28.1128704123049964
 23.9580547801566937  4.0683292100162243 28.1128704123049964
 33.8231331792213084 65.0927547548799765 28.1128704123049964
 33.8231759051832199 11.3912632045734714 28.1128704123049964
 -38.0511158817321586 72.4156887494372228 28.1128704123049964
 18.3208305941766909  4.0683292100162243 28.1128704123049964
 31.0045633652013137 65.0927547548799765 28.1128704123049964
 56.3719035332232110 11.3912632045734714 28.1128704123049964
  7.0464667801566900  4.0683292100162243 28.1128704123049964
 57.7812307395214404  8.9502363868277595 28.1128704123049964
 63.4184549661366859  4.0683292100162243 28.1128704123049964
 -1.4093277481063067 67.5337083432857384 28.1128704123049964
 49.3254367395214430  8.9502363868277595 28.1128704123049964
 56.3719458528290644  6.5092827984219914 28.1128704123049964
 67.6463096668490635  6.5092827984219914 28.1128704123049964
 31.0045638528290759  6.5092827984219914 28.1128704123049964
 -31.0046067684245337 69.9747351610314468 28.1128704123049964
 29.5952784378736951 67.5337083432857384 28.1128704123049964
 78.9207580388090690  6.5092827984219914 28.1128704123049964
 -28.1860369544045355 69.9747351610314468 28.1128704123049964
 -4.2278970744985491  8.9502363868277595 28.1128704123049964
 59.1905579051832120 11.3912632045734714 28.1128704123049964
 11.2744060388090670  6.5092827984219914 28.1128704123049964
 15.5022602518936878 67.5337083432857384 28.1128704123049964
 14.0930180505279825 16.2731703813850075 28.1128704123049964
 26.7767091114814519  8.9502363868277595 28.1128704123049964
 -0.0000423331509293  6.5092827984219914 28.1128704123049964
 38.0510729255014510  8.9502363868277595 28.1128704123049964
 77.5113885941766796  4.0683292100162243 28.1128704123049964
 -16.9115885824445336 69.9747351610314468 28.1128704123049964
 -14.0930187684245301 69.9747351610314468 28.1128704123049964
 15.5022607395214518  8.9502363868277595 28.1128704123049964
 70.4649217192032182 11.3912632045734714 28.1128704123049964
 -40.8696856957521533 72.4156887494372228 28.1128704123049964
 26.7766663042478434 72.4156887494372228 28.1128704123049964
 -19.7302006347986882 65.0927547548799765 28.1128704123049964
 33.8231759864549275  1.6273023922705114 28.1128704123049964
 -28.1859946347986892 65.0927547548799765 28.1128704123049964
 -1.4092850221444004 13.8322167929792403 28.1128704123049964
 40.8696849778556057 13.8322167929792403 28.1128704123049964
 15.5023024902278443 72.4156887494372228 28.1128704123049964
 57.7812729778555934 13.8322167929792403 28.1128704123049964
  9.8650783042478416 72.4156887494372228 28.1128704123049964
 -16.9116308207786865 65.0927547548799765 28.1128704123049964
 29.5952366058956002 13.8322167929792403 28.1128704123049964
 14.0930181724349168  1.6273023922705114 28.1128704123049964
  7.0465084902278479 72.4156887494372228 28.1128704123049964
 -5.6371824488186855 65.0927547548799765 28.1128704123049964
 18.3208727918756047 13.8322167929792403 28.1128704123049964
 46.5068246058955950 13.8322167929792403 28.1128704123049964
 -8.4557941354520185 16.2731703813850075 28.1128704123049964
  4.2278546058956001 13.8322167929792403 28.1128704123049964
 -4.2279398817321576 72.4156887494372228 28.1128704123049964
 46.5068664785089325 62.6518011664742076 28.1128704123049964
  2.8185698004749202  1.6273023922705114 28.1128704123049964
 43.6882121065489244 62.6518011664742076 28.1128704123049964
  2.8186115511813119 65.0927547548799765 28.1128704123049964
 71.8742066058955942 13.8322167929792403 28.1128704123049964
 -1.4092852795033535 44.7512551634787386 28.6327538495249954
 -15.5022613896913821 69.1610107355562462 28.6327538495249954
  1.4093267728507877 49.6332355696302230 28.6327538495249954
 -9.8651215991092069 49.6332355696302230 28.6327538495249954
 14.0930175899903762 71.6020375533019688 28.6327538495249954
 54.9626605868708040 49.6332355696302230 28.6327538495249954
 -18.3208312037113821 69.1610107355562462 28.6327538495249954
 45.0975815376362448 66.7200571471504844 28.6327538495249954
 12.6836905868707941 49.6332355696302230 28.6327538495249954
 12.6837329064766493 44.7512551634787386 28.6327538495249954
 -26.7766252037113830 69.1610107355562462 28.6327538495249954
 32.4138484008907994 49.6332355696302230 28.6327538495249954
 43.6882967728507978 49.6332355696302230 28.6327538495249954
  1.4092845345166412 44.7512551634787386 28.6327538495249954
 23.9580544008907985 49.6332355696302230 28.6327538495249954
 18.3208725345166314 44.7512551634787386 28.6327538495249954
 -29.5952795756713840 69.1610107355562462 28.6327538495249954
 -12.6836914131292051 49.6332355696302230 28.6327538495249954
 15.5023027204966439 44.7512551634787386 28.6327538495249954
 28.1859512180303895 71.6020375533019688 28.6327538495249954
 29.5952785868707942 49.6332355696302230 28.6327538495249954
 29.5953209064766369 44.7512551634787386 28.6327538495249954
 -8.4557945959896212 71.6020375533019688 28.6327538495249954
 -1.4092432037113782 69.1610107355562462 28.6327538495249954
 11.2743632180303894 71.6020375533019688 28.6327538495249954
 -11.2743644100096230 71.6020375533019688 28.6327538495249954
 43.6882545345166520 44.7512551634787386 28.6327538495249954
 52.1440485345166493 44.7512551634787386 28.6327538495249954
 -5.6372247819696195 71.6020375533019688 28.6327538495249954
 54.9627029064766432 44.7512551634787386 28.6327538495249954
 -25.3673823928109776 47.1922087518845075 28.6327538495249954
 -28.1859524100096195 71.6020375533019688 28.6327538495249954
 40.8696847204966431 44.7512551634787386 28.6327538495249954
 -36.6417464100096169 71.6020375533019688 28.6327538495249954
 38.0511149064766485 44.7512551634787386 28.6327538495249954
  5.6372235899903860 71.6020375533019688 28.6327538495249954
 -8.4557943928109793 47.1922087518845075 28.6327538495249954
 -5.6371400208509774 47.1922087518845075 28.6327538495249954
 -22.5487703404568300 52.0741891580359919 28.6327538495249954
 38.0510724243286234 69.1610107355562462 28.6327538495249954
 -2.8185702068309761 47.1922087518845075 28.6327538495249954
 -0.0000003928109814 47.1922087518845075 28.6327538495249954
 56.3719877931690334 47.1922087518845075 28.6327538495249954
 -4.2278975756713866 69.1610107355562462 28.6327538495249954
 53.5534179791490246 47.1922087518845075 28.6327538495249954
 45.0976239791490272 47.1922087518845075 28.6327538495249954
 36.6418299791490298 47.1922087518845075 28.6327538495249954
 33.8231756071890288 47.1922087518845075 28.6327538495249954
 -15.5022612271492086 49.6332355696302230 28.6327538495249954
 21.1394844243286215 69.1610107355562462 28.6327538495249954
 31.0046057931690235 47.1922087518845075 28.6327538495249954
 35.2324605345166475 44.7512551634787386 28.6327538495249954
 16.9115876071890092 47.1922087518845075 28.6327538495249954
 23.9581387962886225 69.1610107355562462 28.6327538495249954
  2.8186539791490159 47.1922087518845075 28.6327538495249954
  8.4557934040103735 71.6020375533019688 28.6327538495249954
 32.4138907204966458 44.7512551634787386 28.6327538495249954
 36.6417875376362474 66.7200571471504844 28.6327538495249954
 36.6418298572420866 61.8380767409990000 28.6327538495249954
 -16.9115461544768308 52.0741891580359919 28.6327538495249954
  7.0464662789838490 64.2791035587447084 28.6327538495249954
 12.6836904649638509 64.2791035587447084 28.6327538495249954
 -7.0465095873903012 59.3971231525932382 28.6327538495249954
 23.9580542789838589 64.2791035587447084 28.6327538495249954
 -9.8650794014102949 59.3971231525932382 28.6327538495249954
 -26.7766674014102968 59.3971231525932382 28.6327538495249954
 29.5952784649638616 64.2791035587447084 28.6327538495249954
 -21.1394430935233544 44.7512551634787386 28.6327538495249954
 -29.5952372154302985 59.3971231525932382 28.6327538495249954
 45.0975393399373274 56.9561695641874692 28.6327538495249954
 32.4138482789838704 64.2791035587447084 28.6327538495249954
 28.1859513399373292 56.9561695641874692 28.6327538495249954
 25.3673815259173274 56.9561695641874692 28.6327538495249954
 22.5488117118973186 56.9561695641874692 28.6327538495249954
 14.0930177118973283 56.9561695641874692 28.6327538495249954
 35.2325026509438644 64.2791035587447084 28.6327538495249954
 11.2743633399373131 56.9561695641874692 28.6327538495249954
 -4.2278552154303037 59.3971231525932382 28.6327538495249954
  4.2278964649638544 64.2791035587447084 28.6327538495249954
 12.6837327845697061 59.3971231525932382 28.6327538495249954
 23.9580965985897052 59.3971231525932382 28.6327538495249954
 45.0976238572420840 61.8380767409990000 28.6327538495249954
 22.5488116712620865 61.8380767409990000 28.6327538495249954
 14.0930176712620749 61.8380767409990000 28.6327538495249954
 11.2744478572420874 61.8380767409990000 28.6327538495249954
  5.6372236712620847 61.8380767409990000 28.6327538495249954
 -29.5952795350361448 64.2791035587447084 28.6327538495249954
  2.8186538572420905 61.8380767409990000 28.6327538495249954
 -8.4557945147179190 61.8380767409990000 28.6327538495249954
  2.8185693399373224 56.9561695641874692 28.6327538495249954
 -11.2743643287379136 61.8380767409990000 28.6327538495249954
 -16.9115885147179164 61.8380767409990000 28.6327538495249954
 -28.1859523287379155 61.8380767409990000 28.6327538495249954
 -21.1394855350361439 64.2791035587447084 28.6327538495249954
 -31.0045221427579136 61.8380767409990000 28.6327538495249954
 46.5069087845697027 59.3971231525932382 28.6327538495249954
 43.6882544126097088 59.3971231525932382 28.6327538495249954
 -18.3209157210161457 64.2791035587447084 28.6327538495249954
 -15.5022613490561429 64.2791035587447084 28.6327538495249954
 -14.0929341427579153 61.8380767409990000 28.6327538495249954
 -19.7302005264368283 52.0741891580359919 28.6327538495249954
 -0.0000004740826793 56.9561695641874692 28.6327538495249954
 38.0510724649638732 64.2791035587447084 28.6327538495249954
  0.0000417236162395 66.7200571471504844 28.6327538495249954
 47.9161514735631755 52.0741891580359919 28.6327538495249954
 36.6417876595431693 52.0741891580359919 28.6327538495249954
 33.8232178455231747 52.0741891580359919 28.6327538495249954
  2.8186115376362340 66.7200571471504844 28.6327538495249954
 22.5487694735631763 52.0741891580359919 28.6327538495249954
 14.0929753516562410 66.7200571471504844 28.6327538495249954
 11.2744056595431719 52.0741891580359919 28.6327538495249954
 16.9116297236162261 66.7200571471504844 28.6327538495249954
  8.4558358455231772 52.0741891580359919 28.6327538495249954
 28.1859935376362323 66.7200571471504844 28.6327538495249954
  5.6371814735631682 52.0741891580359919 28.6327538495249954
 31.0045633516562411 66.7200571471504844 28.6327538495249954
  2.8186116595431669 52.0741891580359919 28.6327538495249954
 -11.2744065264368292 52.0741891580359919 28.6327538495249954
 -14.0929763404568273 52.0741891580359919 28.6327538495249954
 33.8232177236162386 66.7200571471504844 28.6327538495249954
 53.5533756595431782 52.0741891580359919 28.6327538495249954
 -29.5952794537644479 54.5151427464417537 28.6327538495249954
 -18.3208310818044460 54.5151427464417537 28.6327538495249954
 -15.5022612677844460 54.5151427464417537 28.6327538495249954
 43.6882966509438617 64.2791035587447084 28.6327538495249954
 -5.6372246600626781 56.9561695641874692 28.6327538495249954
 -22.5488126600626764 56.9561695641874692 28.6327538495249954
 46.5068664649638706 64.2791035587447084 28.6327538495249954
 -31.0045644623637671 66.7200571471504844 28.6327538495249954
 -28.1859522881026763 56.9561695641874692 28.6327538495249954
 -31.0046066600626737 56.9561695641874692 28.6327538495249954
 46.5068665462355568 54.5151427464417537 28.6327538495249954
 -2.8185702881026811 56.9561695641874692 28.6327538495249954
 -28.1859946483437653 66.7200571471504844 28.6327538495249954
 38.0510725462355595 54.5151427464417537 28.6327538495249954
 -19.7302006483437680 66.7200571471504844 28.6327538495249954
 -16.9115462763837670 66.7200571471504844 28.6327538495249954
 35.2325027322155506 54.5151427464417537 28.6327538495249954
 23.9581389181955480 54.5151427464417537 28.6327538495249954
 21.1394845462355612 54.5151427464417537 28.6327538495249954
 12.6836905462355407 54.5151427464417537 28.6327538495249954
  4.2278965462355513 54.5151427464417537 28.6327538495249954
 43.6882967322155622 54.5151427464417537 28.6327538495249954
 16.9116298455231728 52.0741891580359919 28.6327538495249954
  1.4092849002374601  0.8136511961352557 28.6327538495249954
 45.0975394618442706 42.3103015750729767 28.6327538495249954
 49.3254789643105269 15.4595191852497500 28.6327538495249954
 46.5069091502905181 15.4595191852497500 28.6327538495249954
 40.8696849643105153 15.4595191852497500 28.6327538495249954
 38.0511151502905278 15.4595191852497500 28.6327538495249954
 15.5023029643105232 15.4595191852497500 28.6327538495249954
  4.2279391502905188 15.4595191852497500 28.6327538495249954
  1.4092847783305213 15.4595191852497500 28.6327538495249954
 73.2835760776181360 13.0185655968439828 28.6327538495249954
 70.4649217056581421 13.0185655968439828 28.6327538495249954
 56.3719880776181483 13.0185655968439828 28.6327538495249954
 45.0975397056581500 13.0185655968439828 28.6327538495249954
 42.2789698916381340 13.0185655968439828 28.6327538495249954
 39.4604000776181465 13.0185655968439828 28.6327538495249954
 31.0046060776181456 13.0185655968439828 28.6327538495249954
 22.5488120776181340 13.0185655968439828 28.6327538495249954
 19.7301577056581365 13.0185655968439828 28.6327538495249954
 16.9115878916381419 13.0185655968439828 28.6327538495249954
 14.0930180776181420 13.0185655968439828 28.6327538495249954
  2.8185697056581414 13.0185655968439828 28.6327538495249954
 -0.0000001083618602 13.0185655968439828 28.6327538495249954
 69.0556790979363768 10.5775387790982709 28.6327538495249954
 57.7813152839163777 10.5775387790982709 28.6327538495249954
 49.3255212839163661 10.5775387790982709 28.6327538495249954
 63.4184971502905270 15.4595191852497500 28.6327538495249954
 38.0510729119563607 10.5775387790982709 28.6327538495249954
 66.2370669643105288 15.4595191852497500 28.6327538495249954
 71.8742911502905173 15.4595191852497500 28.6327538495249954
 60.5998850166646719 20.3414995914012344 28.6327538495249954
 57.7812306447046780 20.3414995914012344 28.6327538495249954
 54.9626608306846691 20.3414995914012344 28.6327538495249954
 38.0510728306846602 20.3414995914012344 28.6327538495249954
 29.5952788306846699 20.3414995914012344 28.6327538495249954
 26.7767090166646753 20.3414995914012344 28.6327538495249954
 23.9580546447046672 20.3414995914012344 28.6327538495249954
 12.6836908306846716 20.3414995914012344 28.6327538495249954
  9.8651210166646699 20.3414995914012344 28.6327538495249954
 -1.4093273552953294 20.3414995914012344 28.6327538495249954
 -7.0464669833353293 20.3414995914012344 28.6327538495249954
 70.4650062229628986 17.9004727736555189 28.6327538495249954
 64.8277820369829101 17.9004727736555189 28.6327538495249954
 50.7347638510029029 17.9004727736555189 28.6327538495249954
 47.9161940369829011 17.9004727736555189 28.6327538495249954
 39.4604000369828896 17.9004727736555189 28.6327538495249954
 36.6418302229629020 17.9004727736555189 28.6327538495249954
 22.5488120369828984 17.9004727736555189 28.6327538495249954
  8.4557938510029000 17.9004727736555189 28.6327538495249954
  5.6372240369829028 17.9004727736555189 28.6327538495249954
 -2.8185699630171004 17.9004727736555189 28.6327538495249954
 -5.6371397770370981 17.9004727736555189 28.6327538495249954
 74.6928609643105261 15.4595191852497500 28.6327538495249954
 69.0556367783305234 15.4595191852497500 28.6327538495249954
 32.4139332839163785 10.5775387790982709 28.6327538495249954
 23.9581392839163634 10.5775387790982709 28.6327538495249954
 12.6836909119563703 10.5775387790982709 28.6327538495249954
 59.1905579729098434  3.2546047845410229 28.6327538495249954
 56.3719881588898417  3.2546047845410229 28.6327538495249954
 47.9161941588898301  3.2546047845410229 28.6327538495249954
 42.2789699729098274  3.2546047845410229 28.6327538495249954
 39.4604001588898399  3.2546047845410229 28.6327538495249954
 36.6418303448698452  3.2546047845410229 28.6327538495249954
 33.8231759729098371  3.2546047845410229 28.6327538495249954
 22.5488121588898416  3.2546047845410229 28.6327538495249954
 19.7302423448698399  3.2546047845410229 28.6327538495249954
 14.0930181588898407  3.2546047845410229 28.6327538495249954
  5.6372241588898389  3.2546047845410229 28.6327538495249954
 80.3300852721974650  0.8136511961352557 28.6327538495249954
 69.0556369002374737  0.8136511961352557 28.6327538495249954
 57.7812730862174604  0.8136511961352557 28.6327538495249954
 49.3254790862174488  0.8136511961352557 28.6327538495249954
 46.5069092721974613  0.8136511961352557 28.6327538495249954
 38.0511152721974639  0.8136511961352557 28.6327538495249954
 35.2324609002374558  0.8136511961352557 28.6327538495249954
 32.4138910862174541  0.8136511961352557 28.6327538495249954
 26.7766669002374584  0.8136511961352557 28.6327538495249954
 15.5023030862174611  0.8136511961352557 28.6327538495249954
 12.6837332721974576  0.8136511961352557 28.6327538495249954
  4.2279392721974602  0.8136511961352557 28.6327538495249954
 62.0092123448698445  3.2546047845410229 28.6327538495249954
 64.8277821588898462  3.2546047845410229 28.6327538495249954
 70.4650063448698489  3.2546047845410229 28.6327538495249954
 73.2835761588898578  3.2546047845410229 28.6327538495249954
  7.0465512839163686 10.5775387790982709 28.6327538495249954
  4.2278969119563712 10.5775387790982709 28.6327538495249954
  1.4093270979363695 10.5775387790982709 28.6327538495249954
 -4.2278970880436288 10.5775387790982709 28.6327538495249954
 78.9207580252639929  8.1365851906925037 28.6327538495249954
 70.4649640252639955  8.1365851906925037 28.6327538495249954
 59.1906002112439964  8.1365851906925037 28.6327538495249954
 56.3719458392839954  8.1365851906925037 28.6327538495249954
 47.9161518392839980  8.1365851906925037 28.6327538495249954
 45.0975820252639821  8.1365851906925037 28.6327538495249954
 28.1859940252639873  8.1365851906925037 28.6327538495249954
 63.4184548306846807 20.3414995914012344 28.6327538495249954
 25.3674242112439856  8.1365851906925037 28.6327538495249954
 80.3300429525916257  5.6956316022867357 28.6327538495249954
 71.8742489525916284  5.6956316022867357 28.6327538495249954
 69.0556791385716195  5.6956316022867357 28.6327538495249954
 57.7812307666116141  5.6956316022867357 28.6327538495249954
 43.6882971385716132  5.6956316022867357 28.6327538495249954
 32.4138487666116077  5.6956316022867357 28.6327538495249954
 23.9580547666116068  5.6956316022867357 28.6327538495249954
 15.5022607666116095  5.6956316022867357 28.6327538495249954
 12.6836909525916113  5.6956316022867357 28.6327538495249954
 78.9208003448698463  3.2546047845410229 28.6327538495249954
 76.1021459729098524  3.2546047845410229 28.6327538495249954
 14.0929758392839890  8.1365851906925037 28.6327538495249954
 53.5533334618442680 42.3103015750729767 28.6327538495249954
 -11.2744062826229499 22.7824531798069998 28.6327538495249954
  0.0000420893370479 22.7824531798069998 28.6327538495249954
 -5.6371822185498859 37.4283211689214923 28.6327538495249954
 -8.4557520325698885 37.4283211689214923 28.6327538495249954
 -11.2744064045298860 37.4283211689214923 28.6327538495249954
 -14.0929762185498877 37.4283211689214923 28.6327538495249954
 63.4184547087777446 34.9873675805157234 28.6327538495249954
 36.6417452180303869 71.6020375533019688 28.6327538495249954
 54.9626607087777472 34.9873675805157234 28.6327538495249954
 46.5068667087777357 34.9873675805157234 28.6327538495249954
 43.6882968947577410 34.9873675805157234 28.6327538495249954
 35.2325028947577295 34.9873675805157234 28.6327538495249954
 32.4138485227977426 34.9873675805157234 28.6327538495249954
 23.9580545227977240 34.9873675805157234 28.6327538495249954
 15.5022605227977337 34.9873675805157234 28.6327538495249954
 12.6836907087777320 34.9873675805157234 28.6327538495249954
  4.2278967087777302 34.9873675805157234 28.6327538495249954
  1.4093268947577322 34.9873675805157234 28.6327538495249954
 -1.4093274772022688 34.9873675805157234 28.6327538495249954
 -7.0464671052422672 34.9873675805157234 28.6327538495249954
 59.1905577290959641 32.5463407627700150 28.6327538495249954
 53.5534181010559607 32.5463407627700150 28.6327538495249954
 47.9161939150759579 32.5463407627700150 28.6327538495249954
 45.0976241010559633 32.5463407627700150 28.6327538495249954
 36.6418301010559517 32.5463407627700150 28.6327538495249954
  2.8186117814501150 37.4283211689214923 28.6327538495249954
 33.8231757290959649 32.5463407627700150 28.6327538495249954
 14.0929755954701115 37.4283211689214923 28.6327538495249954
 25.3674239674301170 37.4283211689214923 28.6327538495249954
 42.2789696478242618 42.3103015750729767 28.6327538495249954
 39.4603998338042672 42.3103015750729767 28.6327538495249954
 25.3673816478242529 42.3103015750729767 28.6327538495249954
 22.5488118338042653 42.3103015750729767 28.6327538495249954
 14.0930178338042680 42.3103015750729767 28.6327538495249954
 11.2743634618442599 42.3103015750729767 28.6327538495249954
  2.8185694618442589 42.3103015750729767 28.6327538495249954
 -16.9115883521757375 42.3103015750729767 28.6327538495249954
 -19.7301581661957393 42.3103015750729767 28.6327538495249954
 60.5998848541225001 39.8692747573272612 28.6327538495249954
 46.5068666681425000 39.8692747573272612 28.6327538495249954
 38.0510726681424956 39.8692747573272612 28.6327538495249954
 26.7767088541224823 39.8692747573272612 28.6327538495249954
 23.9581390401024947 39.8692747573272612 28.6327538495249954
 12.6836906681424875 39.8692747573272612 28.6327538495249954
  9.8651208541224857 39.8692747573272612 28.6327538495249954
  7.0465510401024849 39.8692747573272612 28.6327538495249954
 -9.8650369598975125 39.8692747573272612 28.6327538495249954
 -12.6836913318575100 39.8692747573272612 28.6327538495249954
 -15.5022611458775117 39.8692747573272612 28.6327538495249954
 -18.3208309598975099 39.8692747573272612 28.6327538495249954
 53.5533757814501215 37.4283211689214923 28.6327538495249954
 45.0975817814501099 37.4283211689214923 28.6327538495249954
 22.5487695954701017 37.4283211689214923 28.6327538495249954
 25.3673817290959498 32.5463407627700150 28.6327538495249954
 22.5488119150759623 32.5463407627700150 28.6327538495249954
 16.9115877290959595 32.5463407627700150 28.6327538495249954
 32.4139331620094353 25.2234067682127652 28.6327538495249954
 29.5952787900494201 25.2234067682127652 28.6327538495249954
 21.1394847900494298 25.2234067682127652 28.6327538495249954
 18.3209149760294281 25.2234067682127652 28.6327538495249954
  7.0465511620094325 25.2234067682127652 28.6327538495249954
  4.2278967900494315 25.2234067682127652 28.6327538495249954
  1.4093269760294336 25.2234067682127652 28.6327538495249954
 -1.4092428379905699 25.2234067682127652 28.6327538495249954
 -9.8650368379905675 25.2234067682127652 28.6327538495249954
 -12.6836912099505668 25.2234067682127652 28.6327538495249954
 62.0091699033570620 22.7824531798069998 28.6327538495249954
 59.1906000893370532 22.7824531798069998 28.6327538495249954
 56.3719457173770593 22.7824531798069998 28.6327538495249954
 47.9161517173770548 22.7824531798069998 28.6327538495249954
 36.6417879033570415 22.7824531798069998 28.6327538495249954
 31.0045637173770388 22.7824531798069998 28.6327538495249954
 28.1859939033570512 22.7824531798069998 28.6327538495249954
 25.3674240893370566 22.7824531798069998 28.6327538495249954
 22.5487697173770485 22.7824531798069998 28.6327538495249954
 19.7301999033570468 22.7824531798069998 28.6327538495249954
 16.9116300893370450 22.7824531798069998 28.6327538495249954
 14.0929757173770476 22.7824531798069998 28.6327538495249954
  2.8186119033570516 22.7824531798069998 28.6327538495249954
 43.6882969760294344 25.2234067682127652 28.6327538495249954
 46.5068667900494361 25.2234067682127652 28.6327538495249954
 69.0556789760294407 25.2234067682127652 28.6327538495249954
 -14.0930184162487979 27.6644335859584807 28.6327538495249954
 14.0930179150759578 32.5463407627700150 28.6327538495249954
 11.2744481010559561 32.5463407627700150 28.6327538495249954
  2.8186541010559618 32.5463407627700150 28.6327538495249954
 -0.0000002709040391 32.5463407627700150 28.6327538495249954
 -2.8185700849240374 32.5463407627700150 28.6327538495249954
 66.2370668424035927 30.1053871743642461 28.6327538495249954
 63.4184970283835838 30.1053871743642461 28.6327538495249954
 60.5998426564235899 30.1053871743642461 28.6327538495249954
 54.9627030283835865 30.1053871743642461 28.6327538495249954
 43.6882546564235881 30.1053871743642461 28.6327538495249954
 38.0511150283835775 30.1053871743642461 28.6327538495249954
 -2.8186122826229494 22.7824531798069998 28.6327538495249954
 23.9580968424035810 30.1053871743642461 28.6327538495249954
 -9.8650791575964192 30.1053871743642461 28.6327538495249954
 67.6463517697312113 27.6644335859584807 28.6327538495249954
 64.8277819557112025 27.6644335859584807 28.6327538495249954
 53.5533335837512112 27.6644335859584807 28.6327538495249954
 45.0975395837512067 27.6644335859584807 28.6327538495249954
 42.2789697697312050 27.6644335859584807 28.6327538495249954
 33.8231757697311934 27.6644335859584807 28.6327538495249954
  8.4557937697312031 27.6644335859584807 28.6327538495249954
  2.8185695837512008 27.6644335859584807 28.6327538495249954
 -8.4557942302688005 27.6644335859584807 28.6327538495249954
 -11.2743640442888005 27.6644335859584807 28.6327538495249954
 12.6837330283835765 30.1053871743642461 28.6327538495249954
 60.5998848947577358 34.9873675805157234 28.6327538495249954
