 H  O 
 1.0000000000000000
    84.5579400000000021    0.0000000000000000    0.0000000000000000
   -42.2789706095346958   73.2293399455724767    0.0000000000000000
     0.0000000000000000    0.0000000000000000   46.9039550000000034
 H   O  
 230 379
Cartesian
 42.2789698645479817 16.2731703813850075 28.1128704123049964
 71.8742488442297542 18.7141971991307194 28.1128704123049964
 -8.4558364550578684 21.1551507875364884 28.1128704123049964
 -8.4558366988717459 50.4468867657654769 28.1128704123049964
 22.5488116848071662 60.2107743487284921 28.1128704123049964
  2.8186119169021282 21.1551507875364884 28.1128704123049964
  8.4557515449421317 21.1551507875364884 28.1128704123049964
 -4.2278973183124275 38.2419723650567462 28.1128704123049964
  2.8185693128471621 60.2107743487284921 28.1128704123049964
 28.1859939169021310 21.1551507875364884 28.1128704123049964
 33.8231335449421309 21.1551507875364884 28.1128704123049964
 -9.8651215042924267 38.2419723650567462 28.1128704123049964
 -12.6836913183124267 38.2419723650567462 28.1128704123049964
 -11.2743643151928357 60.2107743487284921 28.1128704123049964
 38.0510301182678390 72.4156887494372228 28.1128704123049964
 67.6463095449421274 21.1551507875364884 28.1128704123049964
 -18.3209155042924259 38.2419723650567462 28.1128704123049964
 -7.0464670104254905 23.5961043759422537 28.1128704123049964
 62.0091697949951950 35.8010187766509844 28.1128704123049964
  5.6371814871082586 50.4468867657654769 28.1128704123049964
 49.3254786121347877 57.7698207603227232 28.1128704123049964
 23.9580546176145113 23.5961043759422537 28.1128704123049964
 38.0510302401747822 57.7698207603227232 28.1128704123049964
 26.7767089895745123 23.5961043759422537 28.1128704123049964
 56.3719456090151922 35.8010187766509844 28.1128704123049964
 47.9161516090151949 35.8010187766509844 28.1128704123049964
 40.8696426176145025 23.5961043759422537 28.1128704123049964
 43.6882969895745106 23.5961043759422537 28.1128704123049964
  4.2278966816875769 38.2419723650567462 28.1128704123049964
 26.7766664261547831 57.7698207603227232 28.1128704123049964
 57.7812306582497541 18.7141971991307194 28.1128704123049964
 54.9626608442297453 18.7141971991307194 28.1128704123049964
 46.5068664785089325 62.6518011664742076 28.1128704123049964
 25.3673818645479834 16.2731703813850075 28.1128704123049964
 43.6882122284558676 48.0059331773597151 28.1128704123049964
 31.0046060505279790 16.2731703813850075 28.1128704123049964
 32.4138482925289324 62.6518011664742076 28.1128704123049964
 32.4138483738006258 52.8878403541712458 28.1128704123049964
 26.7766241065489261 62.6518011664742076 28.1128704123049964
 54.9626606004158731 48.0059331773597151 28.1128704123049964
 59.1905578645479835 16.2731703813850075 28.1128704123049964
 32.4138484957075690 38.2419723650567462 28.1128704123049964
 62.0091276785679781 16.2731703813850075 28.1128704123049964
 70.4649216785679755 16.2731703813850075 28.1128704123049964
 73.2835760505279836 16.2731703813850075 28.1128704123049964
 15.5022602925289341 62.6518011664742076 28.1128704123049964
 26.7767088676675797 38.2419723650567462 28.1128704123049964
 -4.2278971557702505 18.7141971991307194 28.1128704123049964
 -1.4093277074710613 62.6518011664742076 28.1128704123049964
 -22.5487703269117468 50.4468867657654769 28.1128704123049964
 12.6836908442297531 18.7141971991307194 28.1128704123049964
 23.9580544957075787 38.2419723650567462 28.1128704123049964
 -7.0465518934510678 62.6518011664742076 28.1128704123049964
 18.3208304722697477 18.7141971991307194 28.1128704123049964
 18.3209148676675753 38.2419723650567462 28.1128704123049964
 43.6882124722697469 18.7141971991307194 28.1128704123049964
 49.3254366582497497 18.7141971991307194 28.1128704123049964
 -26.7767097074710669 62.6518011664742076 28.1128704123049964
  9.8651208676675761 38.2419723650567462 28.1128704123049964
 -32.4139338934510661 62.6518011664742076 28.1128704123049964
 -0.0000001354520196 16.2731703813850075 28.1128704123049964
 54.9626608035945097 23.5961043759422537 28.1128704123049964
 -8.4557942167237172 26.0371311936879657 28.1128704123049964
 36.6417453534824062 55.3288671719169614 28.1128704123049964
 33.8231755394623974 55.3288671719169614 28.1128704123049964
  9.8651207457606311 52.8878403541712458 28.1128704123049964
 26.7766243503628161 33.3600651882452155 28.1128704123049964
 49.3254788559486528 28.4780847820937346 28.1128704123049964
 15.5022603738006346 52.8878403541712458 28.1128704123049964
 52.1440486699686616 28.4780847820937346 28.1128704123049964
 14.0929331675024070 55.3288671719169614 28.1128704123049964
 63.4184124839886536 28.4780847820937346 28.1128704123049964
 21.1394847223228126 33.3600651882452155 28.1128704123049964
 66.2370668559486688 28.4780847820937346 28.1128704123049964
 11.2743633534824053 55.3288671719169614 28.1128704123049964
 18.3209147457606356 52.8878403541712458 28.1128704123049964
 -5.6372246465175939 55.3288671719169614 28.1128704123049964
 -16.9115884605376010 55.3288671719169614 28.1128704123049964
  4.2278967223228134 33.3600651882452155 28.1128704123049964
 11.2743635566610401 30.9190383704995000 28.1128704123049964
 -19.7302428324975985 55.3288671719169614 28.1128704123049964
 14.0930179286210446 30.9190383704995000 28.1128704123049964
 52.1440907457606357 52.8878403541712458 28.1128704123049964
 36.6417455566610357 30.9190383704995000 28.1128704123049964
 -9.8651214636571893 33.3600651882452155 28.1128704123049964
 42.2789697426410385 30.9190383704995000 28.1128704123049964
 46.5068665597806330 52.8878403541712458 28.1128704123049964
 47.9161939286210341 30.9190383704995000 28.1128704123049964
 29.5952785597806276 52.8878403541712458 28.1128704123049964
 50.7347637426410429 30.9190383704995000 28.1128704123049964
 26.7766666699686624 28.4780847820937346 28.1128704123049964
 60.5998849895745124 23.5961043759422537 28.1128704123049964
  4.2278965597806355 52.8878403541712458 28.1128704123049964
 12.6836484839886605 28.4780847820937346 28.1128704123049964
 -2.8186545886837178 26.0371311936879657 28.1128704123049964
 21.1394422401747804 57.7698207603227232 28.1128704123049964
 31.0045634871082498 50.4468867657654769 28.1128704123049964
  5.6371394113162827 26.0371311936879657 28.1128704123049964
 11.2743635972962863 26.0371311936879657 28.1128704123049964
 15.5023026121347893 57.7698207603227232 28.1128704123049964
 14.0929334113162810 26.0371311936879657 28.1128704123049964
 25.3673817832762829 26.0371311936879657 28.1128704123049964
 36.6417877949951958 35.8010187766509844 28.1128704123049964
 28.1859515972962846 26.0371311936879657 28.1128704123049964
  4.2278542401747847 57.7698207603227232 28.1128704123049964
 31.0045214113162864 26.0371311936879657 28.1128704123049964
 36.6417455972962784 26.0371311936879657 28.1128704123049964
 39.4603154113162731 26.0371311936879657 28.1128704123049964
 -1.4092853878652121 57.7698207603227232 28.1128704123049964
 42.2789697832762812 26.0371311936879657 28.1128704123049964
 -12.6837337598252144 57.7698207603227232 28.1128704123049964
 64.8276974113162794 26.0371311936879657 28.1128704123049964
 -15.5023035738452162 57.7698207603227232 28.1128704123049964
 -15.5023033300313369 28.4780847820937346 28.1128704123049964
 -11.2744063909848098 35.8010187766509844 28.1128704123049964
 -18.3208733878652161 57.7698207603227232 28.1128704123049964
 -4.2279395160113378 28.4780847820937346 28.1128704123049964
 -23.9580975738452153 57.7698207603227232 28.1128704123049964
  1.4092846699686612 28.4780847820937346 28.1128704123049964
 -29.5953217598252145 57.7698207603227232 28.1128704123049964
 60.5998003503628055 33.3600651882452155 28.1128704123049964
 23.9580968559486607 28.4780847820937346 28.1128704123049964
 -0.0000003386306579 40.6829991828024689 28.1128704123049964
 -12.6836912776771893 33.3600651882452155 28.1128704123049964
 66.2370669778556049 13.8322167929792403 28.1128704123049964
 36.6417452315754701 69.9747351610314468 28.1128704123049964
 16.9115456668490722  6.5092827984219914 28.1128704123049964
 25.3673814175554639 69.9747351610314468 28.1128704123049964
 18.3208725480617254 43.1239527712082307 28.1128704123049964
 25.3673396668490696  6.5092827984219914 28.1128704123049964
 16.9115874175554666 69.9747351610314468 28.1128704123049964
  9.8650785480617262 43.1239527712082307 28.1128704123049964
  8.4557934175554603 69.9747351610314468 28.1128704123049964
 -0.0000005824445366 69.9747351610314468 28.1128704123049964
 56.3719458528290644  6.5092827984219914 28.1128704123049964
 -12.6836913995841307 48.0059331773597151 28.1128704123049964
 64.8277398528290689  6.5092827984219914 28.1128704123049964
 -5.6372247684245327 69.9747351610314468 28.1128704123049964
 -1.4093272604785494  8.9502363868277595 28.1128704123049964
  1.4093271114814494  8.9502363868277595 28.1128704123049964
 -14.0930187684245301 69.9747351610314468 28.1128704123049964
  4.2278969255014500  8.9502363868277595 28.1128704123049964
 -9.8651215855641290 48.0059331773597151 28.1128704123049964
  9.8651211114814483  8.9502363868277595 28.1128704123049964
 12.6836909255014501  8.9502363868277595 28.1128704123049964
 -9.8650792659582809 43.1239527712082307 28.1128704123049964
 -19.7302429544045346 69.9747351610314468 28.1128704123049964
 -7.0465517715441273 48.0059331773597151 28.1128704123049964
 32.4138487395214483  8.9502363868277595 28.1128704123049964
 -31.0046067684245337 69.9747351610314468 28.1128704123049964
 35.2325031114814493  8.9502363868277595 28.1128704123049964
 43.6882971114814538  8.9502363868277595 28.1128704123049964
 14.0929758528290687  6.5092827984219914 28.1128704123049964
 -33.8231765824445318 69.9747351610314468 28.1128704123049964
  2.8186120388090696  6.5092827984219914 28.1128704123049964
 71.8742489661366903  4.0683292100162243 28.1128704123049964
 35.2324603042478444 72.4156887494372228 28.1128704123049964
 29.5952361182678381 72.4156887494372228 28.1128704123049964
 -0.0000003792658964 45.5649063596139996 28.1128704123049964
 22.5488121724349213  1.6273023922705114 28.1128704123049964
 -11.2743641932859031 45.5649063596139996 28.1128704123049964
 -14.0930185652459006 45.5649063596139996 28.1128704123049964
 33.8231759864549275  1.6273023922705114 28.1128704123049964
 21.1394421182678336 72.4156887494372228 28.1128704123049964
 39.4604001724349231  1.6273023922705114 28.1128704123049964
 45.0975398004749266  1.6273023922705114 28.1128704123049964
 -16.9115883792659005 45.5649063596139996 28.1128704123049964
 -19.7301581932858987 45.5649063596139996 28.1128704123049964
 59.1905579864549196  1.6273023922705114 28.1128704123049964
 -25.3673823792659014 45.5649063596139996 28.1128704123049964
 42.2789696207341024 45.5649063596139996 28.1128704123049964
 -9.8650795097721549 72.4156887494372228 28.1128704123049964
 38.0510303620817112 43.1239527712082307 28.1128704123049964
 -26.7766675097721567 72.4156887494372228 28.1128704123049964
 32.4138907340417219 43.1239527712082307 28.1128704123049964
 18.3208305941766909  4.0683292100162243 28.1128704123049964
 -32.4138916957521559 72.4156887494372228 28.1128704123049964
 32.4138487801566981  4.0683292100162243 28.1128704123049964
 53.5533334347540944 45.5649063596139996 28.1128704123049964
 43.6882125941766972  4.0683292100162243 28.1128704123049964
 -35.2324615097721576 72.4156887494372228 28.1128704123049964
 46.5068669661366982  4.0683292100162243 28.1128704123049964
 -38.0511158817321586 72.4156887494372228 28.1128704123049964
 39.4603150455954648 69.9747351610314468 28.1128704123049964
 52.1440911114814512  8.9502363868277595 28.1128704123049964
 -16.9115885824445336 69.9747351610314468 28.1128704123049964
 -36.6418309544045329 69.9747351610314468 28.1128704123049964
 25.3673816613693432 40.6829991828024689 28.1128704123049964
 19.7301995511813146 65.0927547548799765 28.1128704123049964
 21.1394846004158765 48.0059331773597151 28.1128704123049964
  9.8651206238536986 67.5337083432857384 28.1128704123049964
 25.3673819051832226 11.3912632045734714 28.1128704123049964
 33.8231759051832199 11.3912632045734714 28.1128704123049964
 14.0929332894093395 40.6829991828024689 28.1128704123049964
 42.2789696613693309 40.6829991828024689 28.1128704123049964
 39.4603155332232234 11.3912632045734714 28.1128704123049964
 -1.4093277481063067 67.5337083432857384 28.1128704123049964
 22.5487275332232180 11.3912632045734714 28.1128704123049964
 -4.2278975621263015 67.5337083432857384 28.1128704123049964
 -15.5023034519382783 43.1239527712082307 28.1128704123049964
 23.9580969778556039 13.8322167929792403 28.1128704123049964
  9.8650362284558710 48.0059331773597151 28.1128704123049964
 -18.3209157481063052 67.5337083432857384 28.1128704123049964
 36.6417875511813165 65.0927547548799765 28.1128704123049964
 70.4649217192032182 11.3912632045734714 28.1128704123049964
 21.1394426058955993 13.8322167929792403 28.1128704123049964
 73.2834915332232129 11.3912632045734714 28.1128704123049964
 28.1859514753893379 40.6829991828024689 28.1128704123049964
 -23.9580553761463051 67.5337083432857384 28.1128704123049964
 -15.5022613761463042 67.5337083432857384 28.1128704123049964
 16.9115879051832216 11.3912632045734714 28.1128704123049964
  9.8650787918756002 13.8322167929792403 28.1128704123049964
 26.7766242284558658 48.0059331773597151 28.1128704123049964
 71.8742489255014476  8.9502363868277595 28.1128704123049964
 53.5533334753893371 40.6829991828024689 28.1128704123049964
 60.5998851114814414  8.9502363868277595 28.1128704123049964
 74.6928187395214422  8.9502363868277595 28.1128704123049964
 35.2324607918756030 13.8322167929792403 28.1128704123049964
  8.4557511792213162 65.0927547548799765 28.1128704123049964
 -5.6372242807967794 11.3912632045734714 28.1128704123049964
 60.5998427918756022 13.8322167929792403 28.1128704123049964
 38.0510724378736924 67.5337083432857384 28.1128704123049964
 -1.4093275855641247 48.0059331773597151 28.1128704123049964
 43.6882547918756003 13.8322167929792403 28.1128704123049964
 -0.0000000948167802 11.3912632045734714 28.1128704123049964
  5.6371395332232206 11.3912632045734714 28.1128704123049964
 12.6836904378736932 67.5337083432857384 28.1128704123049964
 47.9161092894093343 40.6829991828024689 28.1128704123049964
 11.2744055511813173 65.0927547548799765 28.1128704123049964
 69.0556791114814530  8.9502363868277595 28.1128704123049964
 32.4138907204966458 44.7512551634787386 28.6327538495249954
 19.7302419791490244 47.1922087518845075 28.6327538495249954
 46.5069089064766459 44.7512551634787386 28.6327538495249954
 43.6882545345166520 44.7512551634787386 28.6327538495249954
 39.4603997931690245 47.1922087518845075 28.6327538495249954
 38.0511149064766485 44.7512551634787386 28.6327538495249954
 40.8696847204966431 44.7512551634787386 28.6327538495249954
 -23.9580552271492060 49.6332355696302230 28.6327538495249954
 16.9116298455231728 52.0741891580359919 28.6327538495249954
 28.1859936595431719 52.0741891580359919 28.6327538495249954
 45.0976239791490272 47.1922087518845075 28.6327538495249954
 19.7301996595431604 52.0741891580359919 28.6327538495249954
 42.2789696071890333 47.1922087518845075 28.6327538495249954
 53.5534179791490246 47.1922087518845075 28.6327538495249954
 -21.1394854131292078 49.6332355696302230 28.6327538495249954
  5.6371814735631682 52.0741891580359919 28.6327538495249954
  4.2278965868707896 49.6332355696302230 28.6327538495249954
 -5.6371400208509774 47.1922087518845075 28.6327538495249954
 21.1394845868707826 49.6332355696302230 28.6327538495249954
  1.4093267728507877 49.6332355696302230 28.6327538495249954
 33.8231756071890288 47.1922087518845075 28.6327538495249954
 -4.2278974131292042 49.6332355696302230 28.6327538495249954
 26.7767087728507853 49.6332355696302230 28.6327538495249954
 -7.0464672271492059 49.6332355696302230 28.6327538495249954
 -0.0000003928109814 47.1922087518845075 28.6327538495249954
 -11.2743642068309775 47.1922087518845075 28.6327538495249954
 43.6882967728507978 49.6332355696302230 28.6327538495249954
 16.9115876071890092 47.1922087518845075 28.6327538495249954
 -15.5022612271492086 49.6332355696302230 28.6327538495249954
 -18.3209155991092061 49.6332355696302230 28.6327538495249954
 -16.9115883928109767 47.1922087518845075 28.6327538495249954
 46.5068665868708067 49.6332355696302230 28.6327538495249954
 49.3254364008908013 49.6332355696302230 28.6327538495249954
 54.9626605868708040 49.6332355696302230 28.6327538495249954
 -19.7301582068309784 47.1922087518845075 28.6327538495249954
 -25.3673823928109776 47.1922087518845075 28.6327538495249954
 -8.4557521544768282 52.0741891580359919 28.6327538495249954
 54.9627029064766432 44.7512551634787386 28.6327538495249954
 -5.6371823404568273 52.0741891580359919 28.6327538495249954
 11.2744479791490271 47.1922087518845075 28.6327538495249954
 -14.0929340208509810 47.1922087518845075 28.6327538495249954
  1.4092849002374601  0.8136511961352557 28.6327538495249954
 -29.5952372154302985 59.3971231525932382 28.6327538495249954
 33.8232178455231747 52.0741891580359919 28.6327538495249954
 -29.5952795756713840 69.1610107355562462 28.6327538495249954
 -35.2324192037113804 69.1610107355562462 28.6327538495249954
 39.4603573516562420 66.7200571471504844 28.6327538495249954
 36.6417875376362474 66.7200571471504844 28.6327538495249954
 28.1859935376362323 66.7200571471504844 28.6327538495249954
 14.0929753516562410 66.7200571471504844 28.6327538495249954
 11.2744055376362251 66.7200571471504844 28.6327538495249954
  8.4558357236162376 66.7200571471504844 28.6327538495249954
 -16.9115462763837670 66.7200571471504844 28.6327538495249954
 -19.7302006483437680 66.7200571471504844 28.6327538495249954
 -18.3208312037113821 69.1610107355562462 28.6327538495249954
 -22.5487704623637697 66.7200571471504844 28.6327538495249954
 46.5068664649638706 64.2791035587447084 28.6327538495249954
 38.0510724649638732 64.2791035587447084 28.6327538495249954
 26.7767086509438528 64.2791035587447084 28.6327538495249954
 23.9580542789838589 64.2791035587447084 28.6327538495249954
  9.8651206509438563 64.2791035587447084 28.6327538495249954
 -4.2278975350361501 64.2791035587447084 28.6327538495249954
 -7.0464673490561447 64.2791035587447084 28.6327538495249954
 -26.7767097210161431 64.2791035587447084 28.6327538495249954
 47.9161936712620928 61.8380767409990000 28.6327538495249954
 45.0976238572420840 61.8380767409990000 28.6327538495249954
 -25.3673402763837679 66.7200571471504844 28.6327538495249954
 42.2789694852820901 61.8380767409990000 28.6327538495249954
 -15.5022613896913821 69.1610107355562462 28.6327538495249954
 -1.4092432037113782 69.1610107355562462 28.6327538495249954
 36.6417452180303869 71.6020375533019688 28.6327538495249954
 28.1859512180303895 71.6020375533019688 28.6327538495249954
 25.3673814040103807 71.6020375533019688 28.6327538495249954
 22.5488115899903860 71.6020375533019688 28.6327538495249954
 19.7301572180303850 71.6020375533019688 28.6327538495249954
 16.9115874040103833 71.6020375533019688 28.6327538495249954
  5.6372235899903860 71.6020375533019688 28.6327538495249954
  2.8185692180303707 71.6020375533019688 28.6327538495249954
 -5.6372247819696195 71.6020375533019688 28.6327538495249954
 -8.4557945959896212 71.6020375533019688 28.6327538495249954
 -4.2278975756713866 69.1610107355562462 28.6327538495249954
 -11.2743644100096230 71.6020375533019688 28.6327538495249954
 -28.1859524100096195 71.6020375533019688 28.6327538495249954
 -31.0046067819696169 71.6020375533019688 28.6327538495249954
 -33.8231765959896151 71.6020375533019688 28.6327538495249954
 -36.6417464100096169 71.6020375533019688 28.6327538495249954
 -39.4604007819696179 71.6020375533019688 28.6327538495249954
 38.0510724243286234 69.1610107355562462 28.6327538495249954
 18.3209146103086198 69.1610107355562462 28.6327538495249954
 15.5023447962886092 69.1610107355562462 28.6327538495249954
  9.8651206103086064 69.1610107355562462 28.6327538495249954
  4.2278964243286037 69.1610107355562462 28.6327538495249954
 -25.3673825959896213 71.6020375533019688 28.6327538495249954
 31.0045634735631737 52.0741891580359919 28.6327538495249954
 28.1860358572420893 61.8380767409990000 28.6327538495249954
 22.5488116712620865 61.8380767409990000 28.6327538495249954
 16.9115875259173158 56.9561695641874692 28.6327538495249954
 14.0930177118973283 56.9561695641874692 28.6327538495249954
  5.6372237118973310 56.9561695641874692 28.6327538495249954
 -0.0000004740826793 56.9561695641874692 28.6327538495249954
 -11.2743642881026744 56.9561695641874692 28.6327538495249954
 -14.0930186600626755 56.9561695641874692 28.6327538495249954
 -16.9115884740826736 56.9561695641874692 28.6327538495249954
 -25.3673824740826745 56.9561695641874692 28.6327538495249954
 -31.0046066600626737 56.9561695641874692 28.6327538495249954
 52.1440907322155596 54.5151427464417537 28.6327538495249954
 25.3673815259173274 56.9561695641874692 28.6327538495249954
 38.0510725462355595 54.5151427464417537 28.6327538495249954
 32.4139329181955560 54.5151427464417537 28.6327538495249954
 29.5952785462355585 54.5151427464417537 28.6327538495249954
 15.5023449181955559 54.5151427464417537 28.6327538495249954
 12.6836905462355407 54.5151427464417537 28.6327538495249954
  9.8651207322155532 54.5151427464417537 28.6327538495249954
  4.2278965462355513 54.5151427464417537 28.6327538495249954
 -18.3208310818044460 54.5151427464417537 28.6327538495249954
 53.5533756595431782 52.0741891580359919 28.6327538495249954
 50.7348058455231694 52.0741891580359919 28.6327538495249954
 47.9161514735631755 52.0741891580359919 28.6327538495249954
 35.2325027322155506 54.5151427464417537 28.6327538495249954
 25.3673814852820882 61.8380767409990000 28.6327538495249954
 33.8231755259173212 56.9561695641874692 28.6327538495249954
 39.4603997118973240 56.9561695641874692 28.6327538495249954
 16.9115874852820909 61.8380767409990000 28.6327538495249954
 -0.0000005147179177 61.8380767409990000 28.6327538495249954
 -2.8185703287379194 61.8380767409990000 28.6327538495249954
 -5.6371401427579215 61.8380767409990000 28.6327538495249954
 -16.9115885147179164 61.8380767409990000 28.6327538495249954
 -25.3673825147179137 61.8380767409990000 28.6327538495249954
 -31.0045221427579136 61.8380767409990000 28.6327538495249954
 -33.8231765147179146 61.8380767409990000 28.6327538495249954
 43.6882544126097088 59.3971231525932382 28.6327538495249954
 38.0511147845697053 59.3971231525932382 28.6327538495249954
 36.6417453399373301 56.9561695641874692 28.6327538495249954
 23.9580965985897052 59.3971231525932382 28.6327538495249954
 18.3208724126097096 59.3971231525932382 28.6327538495249954
  4.2279387845697078 59.3971231525932382 28.6327538495249954
  1.4092844126096999 59.3971231525932382 28.6327538495249954
 -1.4092854014103018 59.3971231525932382 28.6327538495249954
 -4.2278552154303037 59.3971231525932382 28.6327538495249954
 -12.6836492154302967 59.3971231525932382 28.6327538495249954
 -15.5023035873902977 59.3971231525932382 28.6327538495249954
 -23.9580975873902986 59.3971231525932382 28.6327538495249954
 -26.7766674014102968 59.3971231525932382 28.6327538495249954
 21.1395269064766467 44.7512551634787386 28.6327538495249954
 21.1395267845696964 59.3971231525932382 28.6327538495249954
 18.3208725345166314 44.7512551634787386 28.6327538495249954
 -14.0929762185498877 37.4283211689214923 28.6327538495249954
  9.8650785345166412 44.7512551634787386 28.6327538495249954
 29.5953211502905269 15.4595191852497500 28.6327538495249954
 26.7766667783305188 15.4595191852497500 28.6327538495249954
 23.9580969643105171 15.4595191852497500 28.6327538495249954
  9.8650787783305205 15.4595191852497500 28.6327538495249954
 -1.4092850356894804 15.4595191852497500 28.6327538495249954
 -4.2278548497094786 15.4595191852497500 28.6327538495249954
 70.4649217056581421 13.0185655968439828 28.6327538495249954
 64.8277820776181386 13.0185655968439828 28.6327538495249954
 62.0091277056581518 13.0185655968439828 28.6327538495249954
 42.2789698916381340 13.0185655968439828 28.6327538495249954
 33.8231758916381438 13.0185655968439828 28.6327538495249954
 28.1859517056581375 13.0185655968439828 28.6327538495249954
 25.3673818916381357 13.0185655968439828 28.6327538495249954
 22.5488120776181340 13.0185655968439828 28.6327538495249954
 11.2743637056581409 13.0185655968439828 28.6327538495249954
  8.4557938916381428 13.0185655968439828 28.6327538495249954
  2.8185697056581414 13.0185655968439828 28.6327538495249954
 -2.8185699223818586 13.0185655968439828 28.6327538495249954
 -5.6372242943418591 13.0185655968439828 28.6327538495249954
 71.8742489119563714 10.5775387790982709 28.6327538495249954
 69.0556790979363768 10.5775387790982709 28.6327538495249954
 60.5998850979363723 10.5775387790982709 28.6327538495249954
 52.1440910979363750 10.5775387790982709 28.6327538495249954
 43.6882970979363634 10.5775387790982709 28.6327538495249954
 40.8697272839163759 10.5775387790982709 28.6327538495249954
 32.4138909643105251 15.4595191852497500 28.6327538495249954
 38.0510729119563607 10.5775387790982709 28.6327538495249954
 40.8696849643105153 15.4595191852497500 28.6327538495249954
 46.5069091502905181 15.4595191852497500 28.6327538495249954
 52.1440910166646745 20.3414995914012344 28.6327538495249954
 49.3254366447046735 20.3414995914012344 28.6327538495249954
 38.0510728306846602 20.3414995914012344 28.6327538495249954
 23.9580546447046672 20.3414995914012344 28.6327538495249954
 15.5022606447046662 20.3414995914012344 28.6327538495249954
 12.6836908306846716 20.3414995914012344 28.6327538495249954
  4.2278968306846716 20.3414995914012344 28.6327538495249954
  1.4093270166646681 20.3414995914012344 28.6327538495249954
 -7.0464669833353293 20.3414995914012344 28.6327538495249954
 -9.8651213552953294 20.3414995914012344 28.6327538495249954
 70.4650062229628986 17.9004727736555189 28.6327538495249954
 59.1905578510029073 17.9004727736555189 28.6327538495249954
 56.3719880369828985 17.9004727736555189 28.6327538495249954
 53.5534182229629039 17.9004727736555189 28.6327538495249954
 50.7347638510029029 17.9004727736555189 28.6327538495249954
 42.2789698510029055 17.9004727736555189 28.6327538495249954
 31.0046060369829029 17.9004727736555189 28.6327538495249954
 16.9115878510028992 17.9004727736555189 28.6327538495249954
 14.0930180369829028 17.9004727736555189 28.6327538495249954
 11.2744482229629011 17.9004727736555189 28.6327538495249954
 -0.0000001489970986 17.9004727736555189 28.6327538495249954
 -5.6371397770370981 17.9004727736555189 28.6327538495249954
 -8.4557941489970982 17.9004727736555189 28.6327538495249954
 60.5998427783305331 15.4595191852497500 28.6327538495249954
 57.7812729643105243 15.4595191852497500 28.6327538495249954
 43.6882547783305313 15.4595191852497500 28.6327538495249954
 54.9626608306846691 20.3414995914012344 28.6327538495249954
 23.9581392839163634 10.5775387790982709 28.6327538495249954
  7.0465512839163686 10.5775387790982709 28.6327538495249954
 73.2835761588898578  3.2546047845410229 28.6327538495249954
 70.4650063448698489  3.2546047845410229 28.6327538495249954
 59.1905579729098434  3.2546047845410229 28.6327538495249954
 45.0976243448698426  3.2546047845410229 28.6327538495249954
 33.8231759729098371  3.2546047845410229 28.6327538495249954
 22.5488121588898416  3.2546047845410229 28.6327538495249954
 16.9115879729098388  3.2546047845410229 28.6327538495249954
  2.8186543448698407  3.2546047845410229 28.6327538495249954
 -0.0000000270901599  3.2546047845410229 28.6327538495249954
 83.1486550862174738  0.8136511961352557 28.6327538495249954
 74.6928610862174764  0.8136511961352557 28.6327538495249954
 71.8742912721974676  0.8136511961352557 28.6327538495249954
 69.0556369002374737  0.8136511961352557 28.6327538495249954
 63.4184972721974631  0.8136511961352557 28.6327538495249954
 60.5998429002374621  0.8136511961352557 28.6327538495249954
 49.3254790862174488  0.8136511961352557 28.6327538495249954
 46.5069092721974613  0.8136511961352557 28.6327538495249954
 43.6882549002374461  0.8136511961352557 28.6327538495249954
 35.2324609002374558  0.8136511961352557 28.6327538495249954
 32.4138910862174541  0.8136511961352557 28.6327538495249954
 29.5953212721974559  0.8136511961352557 28.6327538495249954
 18.3208729002374611  0.8136511961352557 28.6327538495249954
 12.6837332721974576  0.8136511961352557 28.6327538495249954
  9.8650789002374601  0.8136511961352557 28.6327538495249954
  4.2279392721974602  0.8136511961352557 28.6327538495249954
 81.7393701588898551  3.2546047845410229 28.6327538495249954
  9.8651210979363722 10.5775387790982709 28.6327538495249954
 12.6836909525916113  5.6956316022867357 28.6327538495249954
 18.3209151385716105  5.6956316022867357 28.6327538495249954
  1.4093270979363695 10.5775387790982709 28.6327538495249954
 -1.4092427160836287 10.5775387790982709 28.6327538495249954
 73.2835338392839901  8.1365851906925037 28.6327538495249954
 70.4649640252639955  8.1365851906925037 28.6327538495249954
 59.1906002112439964  8.1365851906925037 28.6327538495249954
 56.3719458392839954  8.1365851906925037 28.6327538495249954
 53.5533760252639937  8.1365851906925037 28.6327538495249954
 50.7348062112439848  8.1365851906925037 28.6327538495249954
 33.8232182112439972  8.1365851906925037 28.6327538495249954
 25.3674242112439856  8.1365851906925037 28.6327538495249954
 22.5487698392839881  8.1365851906925037 28.6327538495249954
 14.0929758392839890  8.1365851906925037 28.6327538495249954
 11.2744060252639908  8.1365851906925037 28.6327538495249954
  8.4558362112439873  8.1365851906925037 28.6327538495249954
  2.8186120252639890  8.1365851906925037 28.6327538495249954
 71.8742489525916284  5.6956316022867357 28.6327538495249954
 60.5998851385716151  5.6956316022867357 28.6327538495249954
 57.7812307666116141  5.6956316022867357 28.6327538495249954
 54.9626609525916123  5.6956316022867357 28.6327538495249954
 52.1440911385716035  5.6956316022867357 28.6327538495249954
 43.6882971385716132  5.6956316022867357 28.6327538495249954
 40.8696427666115980  5.6956316022867357 28.6327538495249954
 35.2325031385716159  5.6956316022867357 28.6327538495249954
 26.7767091385716043  5.6956316022867357 28.6327538495249954
 23.9580547666116068  5.6956316022867357 28.6327538495249954
 15.5022607666116095  5.6956316022867357 28.6327538495249954
 66.2370246447046753 20.3414995914012344 28.6327538495249954
 69.0556790166646692 20.3414995914012344 28.6327538495249954
 -8.4557519106629488 22.7824531798069998 28.6327538495249954
 62.0091697814501188 37.4283211689214923 28.6327538495249954
 56.3719455954701161 37.4283211689214923 28.6327538495249954
 53.5533757814501215 37.4283211689214923 28.6327538495249954
 36.6417877814501125 37.4283211689214923 28.6327538495249954
 25.3674239674301170 37.4283211689214923 28.6327538495249954
 19.7301997814501142 37.4283211689214923 28.6327538495249954
  8.4558359674301080 37.4283211689214923 28.6327538495249954
  2.8186117814501150 37.4283211689214923 28.6327538495249954
  0.0000419674301133 37.4283211689214923 28.6327538495249954
 -2.8186124045298877 37.4283211689214923 28.6327538495249954
 -8.4557520325698885 37.4283211689214923 28.6327538495249954
 -11.2744064045298860 37.4283211689214923 28.6327538495249954
 -16.9115460325698876 37.4283211689214923 28.6327538495249954
 60.5998848947577358 34.9873675805157234 28.6327538495249954
 57.7812305227977419 34.9873675805157234 28.6327538495249954
 46.5068667087777357 34.9873675805157234 28.6327538495249954
 40.8696425227977400 34.9873675805157234 28.6327538495249954
 38.0510727087777383 34.9873675805157234 28.6327538495249954
 18.3209148947577418 34.9873675805157234 28.6327538495249954
  4.2278967087777302 34.9873675805157234 28.6327538495249954
 -9.8651214772022673 34.9873675805157234 28.6327538495249954
 -12.6836912912222672 34.9873675805157234 28.6327538495249954
 59.1905577290959641 32.5463407627700150 28.6327538495249954
 56.3719879150759695 32.5463407627700150 28.6327538495249954
 47.9161939150759579 32.5463407627700150 28.6327538495249954
 -18.3208309598975099 39.8692747573272612 28.6327538495249954
 42.2789697290959623 32.5463407627700150 28.6327538495249954
 -4.2278973318575099 39.8692747573272612 28.6327538495249954
  1.4093268541224926 39.8692747573272612 28.6327538495249954
  1.4092845345166412 44.7512551634787386 28.6327538495249954
 -15.5023034654833562 44.7512551634787386 28.6327538495249954
 56.3719878338042619 42.3103015750729767 28.6327538495249954
 53.5533334618442680 42.3103015750729767 28.6327538495249954
 42.2789696478242618 42.3103015750729767 28.6327538495249954
 33.8231756478242644 42.3103015750729767 28.6327538495249954
 31.0046058338042556 42.3103015750729767 28.6327538495249954
 28.1859514618442688 42.3103015750729767 28.6327538495249954
 25.3673816478242529 42.3103015750729767 28.6327538495249954
 19.7301574618442501 42.3103015750729767 28.6327538495249954
 11.2743634618442599 42.3103015750729767 28.6327538495249954
  8.4557936478242581 42.3103015750729767 28.6327538495249954
  2.8185694618442589 42.3103015750729767 28.6327538495249954
 -0.0000003521757358 42.3103015750729767 28.6327538495249954
 -2.8185701661957374 42.3103015750729767 28.6327538495249954
 -11.2743641661957401 42.3103015750729767 28.6327538495249954
 54.9626606681424974 39.8692747573272612 28.6327538495249954
 52.1440908541225028 39.8692747573272612 28.6327538495249954
 49.3255210401024939 39.8692747573272612 28.6327538495249954
 32.4139330401024850 39.8692747573272612 28.6327538495249954
 29.5952786681424982 39.8692747573272612 28.6327538495249954
 26.7767088541224823 39.8692747573272612 28.6327538495249954
 23.9581390401024947 39.8692747573272612 28.6327538495249954
 12.6836906681424875 39.8692747573272612 28.6327538495249954
  9.8651208541224857 39.8692747573272612 28.6327538495249954
 -1.4092429598975091 39.8692747573272612 28.6327538495249954
 25.3673817290959498 32.5463407627700150 28.6327538495249954
 19.7302421010559677 32.5463407627700150 28.6327538495249954
 16.9115877290959595 32.5463407627700150 28.6327538495249954
 -0.0000002302687971 27.6644335859584807 28.6327538495249954
 -2.8185700442888009 27.6644335859584807 28.6327538495249954
 -5.6372244162487979 27.6644335859584807 28.6327538495249954
 -14.0930184162487979 27.6644335859584807 28.6327538495249954
 66.2371091620094319 25.2234067682127652 28.6327538495249954
 63.4184547900494380 25.2234067682127652 28.6327538495249954
 60.5998849760294434 25.2234067682127652 28.6327538495249954
 43.6882969760294344 25.2234067682127652 28.6327538495249954
 40.8697271620094256 25.2234067682127652 28.6327538495249954
 38.0510727900494388 25.2234067682127652 28.6327538495249954
 29.5952787900494201 25.2234067682127652 28.6327538495249954
 26.7767089760294326 25.2234067682127652 28.6327538495249954
 23.9581391620094379 25.2234067682127652 28.6327538495249954
 12.6836907900494289 25.2234067682127652 28.6327538495249954
  4.2278967900494315 25.2234067682127652 28.6327538495249954
  1.4093269760294336 25.2234067682127652 28.6327538495249954
 -7.0464670239705693 25.2234067682127652 28.6327538495249954
 50.7348060893370558 22.7824531798069998 28.6327538495249954
 39.4603577173770574 22.7824531798069998 28.6327538495249954
 28.1859939033570512 22.7824531798069998 28.6327538495249954
 25.3674240893370566 22.7824531798069998 28.6327538495249954
 16.9116300893370450 22.7824531798069998 28.6327538495249954
 14.0929757173770476 22.7824531798069998 28.6327538495249954
 11.2744059033570529 22.7824531798069998 28.6327538495249954
 -5.6371820966429516 22.7824531798069998 28.6327538495249954
  2.8185695837512008 27.6644335859584807 28.6327538495249954
 11.2743635837511977 27.6644335859584807 28.6327538495249954
 14.0930179557111952 27.6644335859584807 28.6327538495249954
 25.3673817697312032 27.6644335859584807 28.6327538495249954
  2.8186541010559618 32.5463407627700150 28.6327538495249954
 -8.4557942709040379 32.5463407627700150 28.6327538495249954
 -11.2743640849240396 32.5463407627700150 28.6327538495249954
 -14.0929338989440378 32.5463407627700150 28.6327538495249954
 66.2370668424035927 30.1053871743642461 28.6327538495249954
 49.3254788424035837 30.1053871743642461 28.6327538495249954
 46.5069090283835891 30.1053871743642461 28.6327538495249954
 38.0511150283835775 30.1053871743642461 28.6327538495249954
 35.2324606564235907 30.1053871743642461 28.6327538495249954
 32.4138908424035748 30.1053871743642461 28.6327538495249954
 18.3208726564235782 30.1053871743642461 28.6327538495249954
 12.6837330283835765 30.1053871743642461 28.6327538495249954
 15.5023027204966439 44.7512551634787386 28.6327538495249954
  4.2279390283835818 30.1053871743642461 28.6327538495249954
 -1.4092851575964171 30.1053871743642461 28.6327538495249954
 -12.6836489716164174 30.1053871743642461 28.6327538495249954
 -15.5023033435764184 30.1053871743642461 28.6327538495249954
 67.6463517697312113 27.6644335859584807 28.6327538495249954
 64.8277819557112025 27.6644335859584807 28.6327538495249954
 53.5533335837512112 27.6644335859584807 28.6327538495249954
 50.7347637697312024 27.6644335859584807 28.6327538495249954
 47.9161939557112078 27.6644335859584807 28.6327538495249954
 39.4603999557111962 27.6644335859584807 28.6327538495249954
 36.6417455837512094 27.6644335859584807 28.6327538495249954
 33.8231757697311934 27.6644335859584807 28.6327538495249954
 28.1859515837511907 27.6644335859584807 28.6327538495249954
  1.4092846564235810 30.1053871743642461 28.6327538495249954
 39.4603995899903808 71.6020375533019688 28.6327538495249954
