 H  O 
 1.0000000000000000
    84.5579400000000021    0.0000000000000000    0.0000000000000000
   -42.2789706095346958   73.2293399455724767    0.0000000000000000
     0.0000000000000000    0.0000000000000000   46.9039550000000034
 H   O  
 262 357
Cartesian
 -0.0000000135450799  1.6273023922705114 28.1128704123049964
 -21.1395276379182775 43.1239527712082307 28.1128704123049964
 59.1905576613693398 40.6829991828024689 28.1128704123049964
 53.5533334753893371 40.6829991828024689 28.1128704123049964
 50.7347636613693425 40.6829991828024689 28.1128704123049964
 28.1859514753893379 40.6829991828024689 28.1128704123049964
 11.2743634753893449 40.6829991828024689 28.1128704123049964
  5.6371392894093386 40.6829991828024689 28.1128704123049964
 -2.8186547105906588 40.6829991828024689 28.1128704123049964
 -11.2744487105906597 40.6829991828024689 28.1128704123049964
 -16.9115883386306614 40.6829991828024689 28.1128704123049964
 54.9626606816875736 38.2419723650567462 28.1128704123049964
 52.1440908676675789 38.2419723650567462 28.1128704123049964
 49.3254364957075708 38.2419723650567462 28.1128704123049964
 40.8696424957075664 38.2419723650567462 28.1128704123049964
 38.0510726816875717 38.2419723650567462 28.1128704123049964
 26.7767088676675797 38.2419723650567462 28.1128704123049964
 23.9580544957075787 38.2419723650567462 28.1128704123049964
 15.5022604957075725 38.2419723650567462 28.1128704123049964
  4.2278966816875769 38.2419723650567462 28.1128704123049964
 15.5023027340417219 43.1239527712082307 28.1128704123049964
 -15.5022611323324266 38.2419723650567462 28.1128704123049964
 32.4138907340417219 43.1239527712082307 28.1128704123049964
 -25.3673823792659014 45.5649063596139996 28.1128704123049964
 -25.3674246988717442 50.4468867657654769 28.1128704123049964
 46.5068666004158757 48.0059331773597151 28.1128704123049964
 43.6882122284558676 48.0059331773597151 28.1128704123049964
 35.2324182284558631 48.0059331773597151 28.1128704123049964
 32.4138484144358685 48.0059331773597151 28.1128704123049964
 21.1394846004158765 48.0059331773597151 28.1128704123049964
 18.3208302284558755 48.0059331773597151 28.1128704123049964
 -26.7767095855641273 48.0059331773597151 28.1128704123049964
 53.5533334347540944 45.5649063596139996 28.1128704123049964
 33.8231756207340979 45.5649063596139996 28.1128704123049964
 19.7301574347541049 45.5649063596139996 28.1128704123049964
 16.9115876207341032 45.5649063596139996 28.1128704123049964
 14.0930178067140996 45.5649063596139996 28.1128704123049964
  8.4557936207341040 45.5649063596139996 28.1128704123049964
  2.8185694347540982 45.5649063596139996 28.1128704123049964
 -2.8185701932858982 45.5649063596139996 28.1128704123049964
 -8.4557943792659014 45.5649063596139996 28.1128704123049964
 -14.0930185652459006 45.5649063596139996 28.1128704123049964
 -22.5488125652458997 45.5649063596139996 28.1128704123049964
 43.6882545480617210 43.1239527712082307 28.1128704123049964
 -18.3209155042924259 38.2419723650567462 28.1128704123049964
 53.5533757949951976 35.8010187766509844 28.1128704123049964
 50.7347214230351895 35.8010187766509844 28.1128704123049964
 57.7812728559486644 28.4780847820937346 28.1128704123049964
 52.1440486699686616 28.4780847820937346 28.1128704123049964
 40.8696848559486625 28.4780847820937346 28.1128704123049964
 32.4138908559486651 28.4780847820937346 28.1128704123049964
 -1.4092851440513405 28.4780847820937346 28.1128704123049964
 -7.0465093300313377 28.4780847820937346 28.1128704123049964
 67.6463517832762875 26.0371311936879657 28.1128704123049964
 59.1905577832762830 26.0371311936879657 28.1128704123049964
 45.0975395972962758 26.0371311936879657 28.1128704123049964
 36.6417455972962784 26.0371311936879657 28.1128704123049964
 25.3673817832762829 26.0371311936879657 28.1128704123049964
 22.5487274113162819 26.0371311936879657 28.1128704123049964
 11.2743635972962863 26.0371311936879657 28.1128704123049964
  8.4557937832762846 26.0371311936879657 28.1128704123049964
  5.6371394113162827 26.0371311936879657 28.1128704123049964
 -8.4557942167237172 26.0371311936879657 28.1128704123049964
 -11.2744485886837182 26.0371311936879657 28.1128704123049964
 52.1440909895745008 23.5961043759422537 28.1128704123049964
 29.5952788035945140 23.5961043759422537 28.1128704123049964
 60.5998426699686590 28.4780847820937346 28.1128704123049964
 -8.4557942573589582 30.9190383704995000 28.1128704123049964
 -5.6372244433389582 30.9190383704995000 28.1128704123049964
  5.6372239286210437 30.9190383704995000 28.1128704123049964
 39.4603576090151904 35.8010187766509844 28.1128704123049964
 36.6417877949951958 35.8010187766509844 28.1128704123049964
 28.1859937949951949 35.8010187766509844 28.1128704123049964
 19.7301997949951904 35.8010187766509844 28.1128704123049964
 16.9115454230351894 35.8010187766509844 28.1128704123049964
 14.0929756090151947 35.8010187766509844 28.1128704123049964
  5.6371816090151947 35.8010187766509844 28.1128704123049964
  2.8186117949951930 35.8010187766509844 28.1128704123049964
 -2.8186123909848098 35.8010187766509844 28.1128704123049964
 -19.7302005128917450 50.4468867657654769 28.1128704123049964
 -16.9116305769648072 35.8010187766509844 28.1128704123049964
 26.7766243503628161 33.3600651882452155 28.1128704123049964
 18.3208303503628116 33.3600651882452155 28.1128704123049964
 15.5022605363428152 33.3600651882452155 28.1128704123049964
 -7.0465516496371885 33.3600651882452155 28.1128704123049964
 -18.3209154636571903 33.3600651882452155 28.1128704123049964
 62.0091275566610349 30.9190383704995000 28.1128704123049964
 59.1905577426410403 30.9190383704995000 28.1128704123049964
 42.2789697426410385 30.9190383704995000 28.1128704123049964
 16.9115877426410464 30.9190383704995000 28.1128704123049964
 40.8696425363428091 33.3600651882452155 28.1128704123049964
 -11.2744065128917477 50.4468867657654769 28.1128704123049964
  8.4557513011282524 50.4468867657654769 28.1128704123049964
 14.0929754871082551 50.4468867657654769 28.1128704123049964
 -36.6418309544045329 69.9747351610314468 28.1128704123049964
 26.7767086238536862 67.5337083432857384 28.1128704123049964
 15.5022602518936878 67.5337083432857384 28.1128704123049964
  9.8651206238536986 67.5337083432857384 28.1128704123049964
  1.4093266238536943 67.5337083432857384 28.1128704123049964
 -38.0510735621263052 67.5337083432857384 28.1128704123049964
 42.2789271792213057 65.0927547548799765 28.1128704123049964
 31.0045633652013137 65.0927547548799765 28.1128704123049964
 16.9115451792213065 65.0927547548799765 28.1128704123049964
 -14.0929764488186855 65.0927547548799765 28.1128704123049964
 -22.5487704488186900 65.0927547548799765 28.1128704123049964
 -25.3674248207786874 65.0927547548799765 28.1128704123049964
 -31.0045644488186873 65.0927547548799765 28.1128704123049964
 43.6882121065489244 62.6518011664742076 28.1128704123049964
 40.8696422925289298 62.6518011664742076 28.1128704123049964
 23.9580542925289315 62.6518011664742076 28.1128704123049964
 15.5022602925289341 62.6518011664742076 28.1128704123049964
  9.8650361065489385 62.6518011664742076 28.1128704123049964
 -9.8651217074710615 62.6518011664742076 28.1128704123049964
 -33.8231765824445318 69.9747351610314468 28.1128704123049964
 -25.3673825824445345 69.9747351610314468 28.1128704123049964
 -14.0930187684245301 69.9747351610314468 28.1128704123049964
 -8.4557945824445344 69.9747351610314468 28.1128704123049964
 35.2324603042478444 72.4156887494372228 28.1128704123049964
 26.7766663042478434 72.4156887494372228 28.1128704123049964
 23.9580964902278346 72.4156887494372228 28.1128704123049964
 18.3208723042478390 72.4156887494372228 28.1128704123049964
  7.0465084902278479 72.4156887494372228 28.1128704123049964
  4.2278541182678469 72.4156887494372228 28.1128704123049964
 -4.2279398817321576 72.4156887494372228 28.1128704123049964
 -7.0465096957521522 72.4156887494372228 28.1128704123049964
 -9.8650795097721549 72.4156887494372228 28.1128704123049964
 -21.1394855214910677 62.6518011664742076 28.1128704123049964
 -15.5023036957521541 72.4156887494372228 28.1128704123049964
 -35.2324615097721576 72.4156887494372228 28.1128704123049964
 -38.0511158817321586 72.4156887494372228 28.1128704123049964
 36.6417452315754701 69.9747351610314468 28.1128704123049964
 33.8231754175554755 69.9747351610314468 28.1128704123049964
 25.3673814175554639 69.9747351610314468 28.1128704123049964
 22.5487270455954629 69.9747351610314468 28.1128704123049964
  5.6371390455954664 69.9747351610314468 28.1128704123049964
  2.8185692315754580 69.9747351610314468 28.1128704123049964
 -0.0000005824445366 69.9747351610314468 28.1128704123049964
 -21.1395278817321568 72.4156887494372228 28.1128704123049964
 23.9580546176145113 23.5961043759422537 28.1128704123049964
 42.2789694988271592 60.2107743487284921 28.1128704123049964
 33.8231754988271618 60.2107743487284921 28.1128704123049964
 25.3673815394624036 55.3288671719169614 28.1128704123049964
 14.0929331675024070 55.3288671719169614 28.1128704123049964
  8.4557935394624035 55.3288671719169614 28.1128704123049964
 -2.8186548324975988 55.3288671719169614 28.1128704123049964
 -8.4557944605375948 55.3288671719169614 28.1128704123049964
 -14.0930186465175975 55.3288671719169614 28.1128704123049964
 -16.9115884605376010 55.3288671719169614 28.1128704123049964
 -19.7302428324975985 55.3288671719169614 28.1128704123049964
 -31.0046066465175976 55.3288671719169614 28.1128704123049964
 21.1394845597806302 52.8878403541712458 28.1128704123049964
 -1.4093276261993704 52.8878403541712458 28.1128704123049964
 -4.2278974402193654 52.8878403541712458 28.1128704123049964
 -15.5022612542393716 52.8878403541712458 28.1128704123049964
 -29.5952794402193682 52.8878403541712458 28.1128704123049964
 53.5533756730882544 50.4468867657654769 28.1128704123049964
 45.0975816730882570 50.4468867657654769 28.1128704123049964
 42.2789273011282489 50.4468867657654769 28.1128704123049964
 33.8231333011282445 50.4468867657654769 28.1128704123049964
 28.1859936730882552 50.4468867657654769 28.1128704123049964
 28.1859513534823982 55.3288671719169614 28.1128704123049964
 39.4603151675024009 55.3288671719169614 28.1128704123049964
 42.2789695394624090 55.3288671719169614 28.1128704123049964
 -32.4138915738452127 57.7698207603227232 28.1128704123049964
 28.1859513128471555 60.2107743487284921 28.1128704123049964
 25.3673814988271609 60.2107743487284921 28.1128704123049964
  8.4557934988271644 60.2107743487284921 28.1128704123049964
  5.6372236848071626 60.2107743487284921 28.1128704123049964
 -2.8185703151928343 60.2107743487284921 28.1128704123049964
 -8.4557945011728339 60.2107743487284921 28.1128704123049964
 -16.9115885011728366 60.2107743487284921 28.1128704123049964
 -31.0046066871528367 60.2107743487284921 28.1128704123049964
 -33.8231765011728385 60.2107743487284921 28.1128704123049964
 39.4603996848071645 60.2107743487284921 28.1128704123049964
 40.8696846121347903 57.7698207603227232 28.1128704123049964
 23.9580966121347885 57.7698207603227232 28.1128704123049964
 21.1394422401747804 57.7698207603227232 28.1128704123049964
  9.8650784261547866 57.7698207603227232 28.1128704123049964
  7.0465086121347857 57.7698207603227232 28.1128704123049964
 -1.4092853878652121 57.7698207603227232 28.1128704123049964
 -4.2279397598252162 57.7698207603227232 28.1128704123049964
 -18.3208733878652161 57.7698207603227232 28.1128704123049964
 -23.9580975738452153 57.7698207603227232 28.1128704123049964
 -29.5953217598252145 57.7698207603227232 28.1128704123049964
 26.7766664261547831 57.7698207603227232 28.1128704123049964
  9.8651209895745122 23.5961043759422537 28.1128704123049964
 38.0510301182678390 72.4156887494372228 28.1128704123049964
 42.2789699051832244 11.3912632045734714 28.1128704123049964
 35.2324184722697566 18.7141971991307194 28.1128704123049964
 54.9626608442297453 18.7141971991307194 28.1128704123049964
 35.2324185941766927  4.0683292100162243 28.1128704123049964
 43.6882971114814538  8.9502363868277595 28.1128704123049964
 60.5998004722697488 18.7141971991307194 28.1128704123049964
 54.9626186058955923 13.8322167929792403 28.1128704123049964
 66.2370246582497515 18.7141971991307194 28.1128704123049964
 69.0555944722697461 18.7141971991307194 28.1128704123049964
 32.4138487801566981  4.0683292100162243 28.1128704123049964
 57.7812307395214404  8.9502363868277595 28.1128704123049964
 31.0046060505279790 16.2731703813850075 28.1128704123049964
 63.4184549255014502  8.9502363868277595 28.1128704123049964
 43.6882547918756003 13.8322167929792403 28.1128704123049964
 69.0556791114814530  8.9502363868277595 28.1128704123049964
 29.5952789661366928  4.0683292100162243 28.1128704123049964
 -2.8186122690778692 21.1551507875364884 28.1128704123049964
 23.9580547801566937  4.0683292100162243 28.1128704123049964
 16.9115455449421290 21.1551507875364884 28.1128704123049964
 29.5952366058956002 13.8322167929792403 28.1128704123049964
 -5.6372242807967794 11.3912632045734714 28.1128704123049964
 26.7766667918756056 13.8322167929792403 28.1128704123049964
 66.2370669778556049 13.8322167929792403 28.1128704123049964
 19.7301999169021336 21.1551507875364884 28.1128704123049964
 57.7812307801566902  4.0683292100162243 28.1128704123049964
 74.6928609778556023 13.8322167929792403 28.1128704123049964
 42.2789698645479817 16.2731703813850075 28.1128704123049964
 33.8231336668490670  6.5092827984219914 28.1128704123049964
 25.3673818645479834 16.2731703813850075 28.1128704123049964
 45.0975396785679763 16.2731703813850075 28.1128704123049964
 19.7302000388090732  6.5092827984219914 28.1128704123049964
 16.9115878645479825 16.2731703813850075 28.1128704123049964
 14.0930180505279825 16.2731703813850075 28.1128704123049964
 16.9115456668490722  6.5092827984219914 28.1128704123049964
 70.4649216785679755 16.2731703813850075 28.1128704123049964
  8.4557516668490695  6.5092827984219914 28.1128704123049964
 73.2835338528290663  6.5092827984219914 28.1128704123049964
 -9.8651213417502497 18.7141971991307194 28.1128704123049964
 -0.0000423331509293  6.5092827984219914 28.1128704123049964
 77.5113885941766796  4.0683292100162243 28.1128704123049964
  1.4092424722697507 18.7141971991307194 28.1128704123049964
 12.6836908442297531 18.7141971991307194 28.1128704123049964
 69.0555945941766822  4.0683292100162243 28.1128704123049964
 15.5022606582497549 18.7141971991307194 28.1128704123049964
 12.6836909255014501  8.9502363868277595 28.1128704123049964
 18.3208304722697477 18.7141971991307194 28.1128704123049964
 66.2370247801566876  4.0683292100162243 28.1128704123049964
 32.4138486582497549 18.7141971991307194 28.1128704123049964
 18.3208305941766909  4.0683292100162243 28.1128704123049964
 45.0975820388090725  6.5092827984219914 28.1128704123049964
 64.8276975332232155 11.3912632045734714 28.1128704123049964
 67.6463095449421274 21.1551507875364884 28.1128704123049964
  9.8650787918756002 13.8322167929792403 28.1128704123049964
 25.3673819051832226 11.3912632045734714 28.1128704123049964
 67.6463519051832236 11.3912632045734714 28.1128704123049964
 33.8231759864549275  1.6273023922705114 28.1128704123049964
 -7.0464670104254905 23.5961043759422537 28.1128704123049964
 31.0045215332232189 11.3912632045734714 28.1128704123049964
 -1.4092850221444004 13.8322167929792403 28.1128704123049964
 47.9161517309221239 21.1551507875364884 28.1128704123049964
 53.5533338004749169  1.6273023922705114 28.1128704123049964
 50.7347639051832218 11.3912632045734714 28.1128704123049964
 42.2789275449421211 21.1551507875364884 28.1128704123049964
  1.4092847918756004 13.8322167929792403 28.1128704123049964
 78.9207158004749090  1.6273023922705114 28.1128704123049964
 36.6417879169021319 21.1551507875364884 28.1128704123049964
 67.6463519864549170  1.6273023922705114 28.1128704123049964
 62.0091277192032209 11.3912632045734714 28.1128704123049964
  4.2278969661366892  4.0683292100162243 28.1128704123049964
 16.9115879864549186  1.6273023922705114 28.1128704123049964
 11.2743638004749194  1.6273023922705114 28.1128704123049964
 -0.0000000948167802 11.3912632045734714 28.1128704123049964
 45.0975397192032190 11.3912632045734714 28.1128704123049964
  7.0464666176145112 23.5961043759422537 28.1128704123049964
  1.4093269895745080 23.5961043759422537 28.1128704123049964
 40.8697272839163759 10.5775387790982709 28.6327538495249954
  0.0000422112439907  8.1365851906925037 28.6327538495249954
  7.0465085985897025 59.3971231525932382 28.6327538495249954
 25.3673815259173274 56.9561695641874692 28.6327538495249954
 -2.8186125264368322 52.0741891580359919 28.6327538495249954
 11.2744060252639908  8.1365851906925037 28.6327538495249954
  8.4558358455231772 52.0741891580359919 28.6327538495249954
 22.5488117118973186 56.9561695641874692 28.6327538495249954
  8.4558362112439873  8.1365851906925037 28.6327538495249954
 42.2789695259173328 56.9561695641874692 28.6327538495249954
 -7.0465095873903012 59.3971231525932382 28.6327538495249954
 46.5068669525916008  5.6956316022867357 28.6327538495249954
 -32.4138915873902960 59.3971231525932382 28.6327538495249954
 74.6928187666116230  5.6956316022867357 28.6327538495249954
 -29.5952372154302985 59.3971231525932382 28.6327538495249954
 54.9626605868708040 49.6332355696302230 28.6327538495249954
 -21.1394432154303011 59.3971231525932382 28.6327538495249954
  4.2279387845697078 59.3971231525932382 28.6327538495249954
 38.0510729119563607 10.5775387790982709 28.6327538495249954
 57.7812307666116141  5.6956316022867357 28.6327538495249954
 54.9626609525916123  5.6956316022867357 28.6327538495249954
 -16.9115461544768308 52.0741891580359919 28.6327538495249954
 -19.7302005264368283 52.0741891580359919 28.6327538495249954
 -4.2278552154303037 59.3971231525932382 28.6327538495249954
 26.7767090979363651 10.5775387790982709 28.6327538495249954
 77.5114731385716169  5.6956316022867357 28.6327538495249954
 -1.4092427160836287 10.5775387790982709 28.6327538495249954
 14.0929758392839890  8.1365851906925037 28.6327538495249954
 40.8697269181955534 54.5151427464417537 28.6327538495249954
 26.7767087322155568 54.5151427464417537 28.6327538495249954
 53.5533756595431782 52.0741891580359919 28.6327538495249954
 15.5023452839163713 10.5775387790982709 28.6327538495249954
 15.5023449181955559 54.5151427464417537 28.6327538495249954
 73.2835338392839901  8.1365851906925037 28.6327538495249954
 -29.5952794537644479 54.5151427464417537 28.6327538495249954
 -21.1394854537644470 54.5151427464417537 28.6327538495249954
 12.6836909119563703 10.5775387790982709 28.6327538495249954
 -18.3208310818044460 54.5151427464417537 28.6327538495249954
 -1.4092430818044526 54.5151427464417537 28.6327538495249954
 -4.2278970880436288 10.5775387790982709 28.6327538495249954
  9.8651210979363722 10.5775387790982709 28.6327538495249954
 -15.5022612677844460 54.5151427464417537 28.6327538495249954
 -4.2278974537644496 54.5151427464417537 28.6327538495249954
 50.7348058455231694 52.0741891580359919 28.6327538495249954
 45.0975816595431809 52.0741891580359919 28.6327538495249954
 52.1440907322155596 54.5151427464417537 28.6327538495249954
 42.2790118455231720 52.0741891580359919 28.6327538495249954
  8.4557935259173256 56.9561695641874692 28.6327538495249954
 25.3674238455231631 52.0741891580359919 28.6327538495249954
 16.9116302112439918  8.1365851906925037 28.6327538495249954
 25.3674242112439856  8.1365851906925037 28.6327538495249954
 -2.8185702881026811 56.9561695641874692 28.6327538495249954
 28.1859940252639873  8.1365851906925037 28.6327538495249954
 28.1859936595431719 52.0741891580359919 28.6327538495249954
 23.9581392839163634 10.5775387790982709 28.6327538495249954
 -8.4557944740826727 56.9561695641874692 28.6327538495249954
 -19.7301582881026789 56.9561695641874692 28.6327538495249954
 -22.5488126600626764 56.9561695641874692 28.6327538495249954
 33.8232178455231747 52.0741891580359919 28.6327538495249954
 42.2790122112439946  8.1365851906925037 28.6327538495249954
 39.4603574735631781 52.0741891580359919 28.6327538495249954
 -31.0046066600626737 56.9561695641874692 28.6327538495249954
 45.0975820252639821  8.1365851906925037 28.6327538495249954
 31.0045638392839891  8.1365851906925037 28.6327538495249954
 59.1906002112439964  8.1365851906925037 28.6327538495249954
 19.7301999033570468 22.7824531798069998 28.6327538495249954
 23.9580965985897052 59.3971231525932382 28.6327538495249954
 23.9581387962886225 69.1610107355562462 28.6327538495249954
 15.5023447962886092 69.1610107355562462 28.6327538495249954
 80.3300852721974650  0.8136511961352557 28.6327538495249954
  4.2278964243286037 69.1610107355562462 28.6327538495249954
 83.1486550862174738  0.8136511961352557 28.6327538495249954
  1.4093266103086164 69.1610107355562462 28.6327538495249954
 -0.0000000270901599  3.2546047845410229 28.6327538495249954
 -9.8650372037113900 69.1610107355562462 28.6327538495249954
  5.6372241588898389  3.2546047845410229 28.6327538495249954
 69.0556369002374737  0.8136511961352557 28.6327538495249954
 -15.5022613896913821 69.1610107355562462 28.6327538495249954
 -32.4138493896913857 69.1610107355562462 28.6327538495249954
 -35.2324192037113804 69.1610107355562462 28.6327538495249954
 19.7302423448698399  3.2546047845410229 28.6327538495249954
 -38.0510735756713814 69.1610107355562462 28.6327538495249954
 33.8232177236162386 66.7200571471504844 28.6327538495249954
 22.5488121588898416  3.2546047845410229 28.6327538495249954
 16.9116297236162261 66.7200571471504844 28.6327538495249954
 14.0929753516562410 66.7200571471504844 28.6327538495249954
 25.3673819729098362  3.2546047845410229 28.6327538495249954
 16.9115879729098388  3.2546047845410229 28.6327538495249954
  0.0000417236162395 66.7200571471504844 28.6327538495249954
 26.7767086103086172 69.1610107355562462 28.6327538495249954
 66.2370670862174649  0.8136511961352557 28.6327538495249954
  9.8650789002374601  0.8136511961352557 28.6327538495249954
 33.8231754040103922 71.6020375533019688 28.6327538495249954
 25.3673814040103807 71.6020375533019688 28.6327538495249954
 15.5023030862174611  0.8136511961352557 28.6327538495249954
 16.9115874040103833 71.6020375533019688 28.6327538495249954
 26.7766669002374584  0.8136511961352557 28.6327538495249954
  5.6372235899903860 71.6020375533019688 28.6327538495249954
 32.4138910862174541  0.8136511961352557 28.6327538495249954
  2.8185692180303707 71.6020375533019688 28.6327538495249954
 35.2325026103086287 69.1610107355562462 28.6327538495249954
 -5.6372247819696195 71.6020375533019688 28.6327538495249954
 -8.4557945959896212 71.6020375533019688 28.6327538495249954
 43.6882549002374461  0.8136511961352557 28.6327538495249954
 46.5069092721974613  0.8136511961352557 28.6327538495249954
 -25.3673825959896213 71.6020375533019688 28.6327538495249954
 -33.8231765959896151 71.6020375533019688 28.6327538495249954
 54.9627032721974516  0.8136511961352557 28.6327538495249954
 -36.6417464100096169 71.6020375533019688 28.6327538495249954
 57.7812730862174604  0.8136511961352557 28.6327538495249954
 38.0510724243286234 69.1610107355562462 28.6327538495249954
 35.2324609002374558  0.8136511961352557 28.6327538495249954
  9.8650784126096909 59.3971231525932382 28.6327538495249954
 -14.0929764623637634 66.7200571471504844 28.6327538495249954
 -22.5487704623637697 66.7200571471504844 28.6327538495249954
 39.4603996712620955 61.8380767409990000 28.6327538495249954
 33.8231754852820927 61.8380767409990000 28.6327538495249954
 25.3673814852820882 61.8380767409990000 28.6327538495249954
 16.9115874852820909 61.8380767409990000 28.6327538495249954
 14.0930176712620749 61.8380767409990000 28.6327538495249954
  7.0464667666116103  5.6956316022867357 28.6327538495249954
 52.1440907728507952 49.6332355696302230 28.6327538495249954
  5.6372236712620847 61.8380767409990000 28.6327538495249954
  2.8186538572420905 61.8380767409990000 28.6327538495249954
 42.2789694852820901 61.8380767409990000 28.6327538495249954
 -0.0000005147179177 61.8380767409990000 28.6327538495249954
 -11.2743643287379136 61.8380767409990000 28.6327538495249954
 -22.5487281427579163 61.8380767409990000 28.6327538495249954
 -25.3673825147179137 61.8380767409990000 28.6327538495249954
 43.6882544126097088 59.3971231525932382 28.6327538495249954
 18.3209151385716105  5.6956316022867357 28.6327538495249954
 40.8696845985897141 59.3971231525932382 28.6327538495249954
 23.9580547666116068  5.6956316022867357 28.6327538495249954
 32.4138487666116077  5.6956316022867357 28.6327538495249954
 26.7766664126097069 59.3971231525932382 28.6327538495249954
 -8.4557945147179190 61.8380767409990000 28.6327538495249954
 -16.9115462763837670 66.7200571471504844 28.6327538495249954
 67.6463519729098550  3.2546047845410229 28.6327538495249954
 -26.7767097210161431 64.2791035587447084 28.6327538495249954
 -25.3673402763837679 66.7200571471504844 28.6327538495249954
 -33.8231342763837688 66.7200571471504844 28.6327538495249954
 -36.6417886483437698 66.7200571471504844 28.6327538495249954
 46.5068664649638706 64.2791035587447084 28.6327538495249954
 43.6882966509438617 64.2791035587447084 28.6327538495249954
 33.8231759729098371  3.2546047845410229 28.6327538495249954
 35.2325026509438644 64.2791035587447084 28.6327538495249954
 32.4138482789838704 64.2791035587447084 28.6327538495249954
 18.3209146509438554 64.2791035587447084 28.6327538495249954
 47.9161936712620928 61.8380767409990000 28.6327538495249954
 53.5534183448698329  3.2546047845410229 28.6327538495249954
  4.2278964649638544 64.2791035587447084 28.6327538495249954
  1.4093266509438596 64.2791035587447084 28.6327538495249954
 -1.4093277210161486 64.2791035587447084 28.6327538495249954
 -9.8651217210161430 64.2791035587447084 28.6327538495249954
 -12.6836915350361448 64.2791035587447084 28.6327538495249954
 56.3719881588898417  3.2546047845410229 28.6327538495249954
 -15.5022613490561429 64.2791035587447084 28.6327538495249954
 -23.9580553490561456 64.2791035587447084 28.6327538495249954
 59.1905579729098434  3.2546047845410229 28.6327538495249954
 15.5022602789838597 64.2791035587447084 28.6327538495249954
  8.4557934852820722 61.8380767409990000 28.6327538495249954
 69.0556790979363768 10.5775387790982709 28.6327538495249954
 43.6882970979363634 10.5775387790982709 28.6327538495249954
  5.6372239150759640 32.5463407627700150 28.6327538495249954
 -5.6371398989440404 32.5463407627700150 28.6327538495249954
 56.3719880369828985 17.9004727736555189 28.6327538495249954
 -8.4557942709040379 32.5463407627700150 28.6327538495249954
 -16.9115882709040370 32.5463407627700150 28.6327538495249954
 66.2370668424035927 30.1053871743642461 28.6327538495249954
 60.5998426564235899 30.1053871743642461 28.6327538495249954
 52.1440486564235925 30.1053871743642461 28.6327538495249954
 43.6882546564235881 30.1053871743642461 28.6327538495249954
 16.9115877290959595 32.5463407627700150 28.6327538495249954
 70.4650062229628986 17.9004727736555189 28.6327538495249954
 29.5953210283835837 30.1053871743642461 28.6327538495249954
 26.7766666564235685 30.1053871743642461 28.6327538495249954
 23.9580968424035810 30.1053871743642461 28.6327538495249954
 18.3208726564235782 30.1053871743642461 28.6327538495249954
 -9.8651213552953294 20.3414995914012344 28.6327538495249954
 15.5023028424035783 30.1053871743642461 28.6327538495249954
 -7.0464669833353293 20.3414995914012344 28.6327538495249954
 -7.0465093435764183 30.1053871743642461 28.6327538495249954
 -9.8650791575964192 30.1053871743642461 28.6327538495249954
 40.8696848424035863 30.1053871743642461 28.6327538495249954
 53.5534182229629039 17.9004727736555189 28.6327538495249954
 36.6418302229629020 17.9004727736555189 28.6327538495249954
 39.4603999150759606 32.5463407627700150 28.6327538495249954
 -8.4557941489970982 17.9004727736555189 28.6327538495249954
 52.1440908947577384 34.9873675805157234 28.6327538495249954
 -0.0000001489970986 17.9004727736555189 28.6327538495249954
 40.8696425227977400 34.9873675805157234 28.6327538495249954
 38.0510727087777383 34.9873675805157234 28.6327538495249954
  2.8186542229628988 17.9004727736555189 28.6327538495249954
 26.7767088947577392 34.9873675805157234 28.6327538495249954
 14.0930180369829028 17.9004727736555189 28.6327538495249954
 18.3209148947577418 34.9873675805157234 28.6327538495249954
 15.5022605227977337 34.9873675805157234 28.6327538495249954
 16.9115878510028992 17.9004727736555189 28.6327538495249954
  4.2278967087777302 34.9873675805157234 28.6327538495249954
 31.0046060369829029 17.9004727736555189 28.6327538495249954
  1.4093268947577322 34.9873675805157234 28.6327538495249954
 -1.4093274772022688 34.9873675805157234 28.6327538495249954
 -15.5022611052422672 34.9873675805157234 28.6327538495249954
 33.8231758510028868 17.9004727736555189 28.6327538495249954
 -18.3209154772022664 34.9873675805157234 28.6327538495249954
 64.8277819150759740 32.5463407627700150 28.6327538495249954
 53.5534181010559607 32.5463407627700150 28.6327538495249954
 50.7347637290959668 32.5463407627700150 28.6327538495249954
 -15.5023033435764184 30.1053871743642461 28.6327538495249954
 -16.9115460325698876 37.4283211689214923 28.6327538495249954
 67.6463517697312113 27.6644335859584807 28.6327538495249954
 59.1905577697312140 27.6644335859584807 28.6327538495249954
 23.9581391620094379 25.2234067682127652 28.6327538495249954
 66.2370246447046753 20.3414995914012344 28.6327538495249954
  9.8651209760294343 25.2234067682127652 28.6327538495249954
 69.0556790166646692 20.3414995914012344 28.6327538495249954
  7.0465511620094325 25.2234067682127652 28.6327538495249954
 -8.4557519106629488 22.7824531798069998 28.6327538495249954
  4.2278967900494315 25.2234067682127652 28.6327538495249954
  1.4093269760294336 25.2234067682127652 28.6327538495249954
 -7.0464670239705693 25.2234067682127652 28.6327538495249954
 60.5998850166646719 20.3414995914012344 28.6327538495249954
 -9.8650368379905675 25.2234067682127652 28.6327538495249954
 62.0091699033570620 22.7824531798069998 28.6327538495249954
 59.1906000893370532 22.7824531798069998 28.6327538495249954
 53.5533759033570504 22.7824531798069998 28.6327538495249954
 50.7348060893370558 22.7824531798069998 28.6327538495249954
 42.2790120893370442 22.7824531798069998 28.6327538495249954
 31.0045637173770388 22.7824531798069998 28.6327538495249954
  5.6371817173770493 22.7824531798069998 28.6327538495249954
 25.3674240893370566 22.7824531798069998 28.6327538495249954
 22.5487697173770485 22.7824531798069998 28.6327538495249954
 -5.6371820966429516 22.7824531798069998 28.6327538495249954
 26.7767089760294326 25.2234067682127652 28.6327538495249954
 49.3254366447046735 20.3414995914012344 28.6327538495249954
 40.8697271620094256 25.2234067682127652 28.6327538495249954
 53.5533335837512112 27.6644335859584807 28.6327538495249954
 21.1394848306846654 20.3414995914012344 28.6327538495249954
 50.7347637697312024 27.6644335859584807 28.6327538495249954
 42.2789697697312050 27.6644335859584807 28.6327538495249954
 32.4138486447046574 20.3414995914012344 28.6327538495249954
 39.4603999557111962 27.6644335859584807 28.6327538495249954
 33.8231757697311934 27.6644335859584807 28.6327538495249954
 35.2325030166646727 20.3414995914012344 28.6327538495249954
 31.0046059557112059 27.6644335859584807 28.6327538495249954
 28.1859515837511907 27.6644335859584807 28.6327538495249954
 25.3673817697312032 27.6644335859584807 28.6327538495249954
 16.9115877697311987 27.6644335859584807 28.6327538495249954
  8.4557937697312031 27.6644335859584807 28.6327538495249954
  5.6372239557112023 27.6644335859584807 28.6327538495249954
 -5.6372244162487979 27.6644335859584807 28.6327538495249954
 38.0510728306846602 20.3414995914012344 28.6327538495249954
 -8.4557942302688005 27.6644335859584807 28.6327538495249954
 60.5998849760294434 25.2234067682127652 28.6327538495249954
 43.6882970166646629 20.3414995914012344 28.6327538495249954
 54.9626607900494406 25.2234067682127652 28.6327538495249954
 43.6882969760294344 25.2234067682127652 28.6327538495249954
 18.3209150166646637 20.3414995914012344 28.6327538495249954
 43.6882967728507978 49.6332355696302230 28.6327538495249954
 74.6928609643105261 15.4595191852497500 28.6327538495249954
  0.0000419674301133 37.4283211689214923 28.6327538495249954
 -8.4557943928109793 47.1922087518845075 28.6327538495249954
 -22.5487280208509766 47.1922087518845075 28.6327538495249954
 -25.3673823928109776 47.1922087518845075 28.6327538495249954
 25.3673818916381357 13.0185655968439828 28.6327538495249954
 43.6882545345166520 44.7512551634787386 28.6327538495249954
 32.4138907204966458 44.7512551634787386 28.6327538495249954
 28.1859517056581375 13.0185655968439828 28.6327538495249954
 18.3208725345166314 44.7512551634787386 28.6327538495249954
 15.5023027204966439 44.7512551634787386 28.6327538495249954
 -2.8185702068309761 47.1922087518845075 28.6327538495249954
 31.0046060776181456 13.0185655968439828 28.6327538495249954
  1.4092845345166412 44.7512551634787386 28.6327538495249954
 -1.4092852795033535 44.7512551634787386 28.6327538495249954
 45.0975397056581500 13.0185655968439828 28.6327538495249954
 -4.2278550935233552 44.7512551634787386 28.6327538495249954
 53.5533337056581473 13.0185655968439828 28.6327538495249954
 -9.8650792795033553 44.7512551634787386 28.6327538495249954
 -18.3208732795033562 44.7512551634787386 28.6327538495249954
 -21.1394430935233544 44.7512551634787386 28.6327538495249954
 56.3719880776181483 13.0185655968439828 28.6327538495249954
 42.2789698916381340 13.0185655968439828 28.6327538495249954
  5.6372237931690181 47.1922087518845075 28.6327538495249954
  8.4557936071890190 47.1922087518845075 28.6327538495249954
 16.9115876071890092 47.1922087518845075 28.6327538495249954
 40.8696424008908039 49.6332355696302230 28.6327538495249954
 32.4138484008907994 49.6332355696302230 28.6327538495249954
 46.5068669119563793 10.5775387790982709 28.6327538495249954
 26.7767087728507853 49.6332355696302230 28.6327538495249954
 23.9580544008907985 49.6332355696302230 28.6327538495249954
 18.3209147728507951 49.6332355696302230 28.6327538495249954
  9.8651207728507995 49.6332355696302230 28.6327538495249954
 52.1440910979363750 10.5775387790982709 28.6327538495249954
  7.0464664008907913 49.6332355696302230 28.6327538495249954
 -1.4093275991092098 49.6332355696302230 28.6327538495249954
 -4.2278974131292042 49.6332355696302230 28.6327538495249954
 -9.8651215991092069 49.6332355696302230 28.6327538495249954
 63.4184549119563812 10.5775387790982709 28.6327538495249954
 45.0976239791490272 47.1922087518845075 28.6327538495249954
  8.4558360893370512 22.7824531798069998 28.6327538495249954
 33.8231756071890288 47.1922087518845075 28.6327538495249954
 -0.0000001083618602 13.0185655968439828 28.6327538495249954
 25.3673816071890279 47.1922087518845075 28.6327538495249954
 22.5488117931690120 47.1922087518845075 28.6327538495249954
 19.7302419791490244 47.1922087518845075 28.6327538495249954
  2.8185697056581414 13.0185655968439828 28.6327538495249954
 -23.9580974654833554 44.7512551634787386 28.6327538495249954
 -2.8186124045298877 37.4283211689214923 28.6327538495249954
 64.8277820776181386 13.0185655968439828 28.6327538495249954
 47.9161938338042646 42.3103015750729767 28.6327538495249954
  7.0465510401024849 39.8692747573272612 28.6327538495249954
 26.7766667783305188 15.4595191852497500 28.6327538495249954
 29.5953211502905269 15.4595191852497500 28.6327538495249954
 -12.6836913318575100 39.8692747573272612 28.6327538495249954
 -15.5022611458775117 39.8692747573272612 28.6327538495249954
 53.5533757814501215 37.4283211689214923 28.6327538495249954
 43.6882547783305313 15.4595191852497500 28.6327538495249954
 50.7348059674301126 37.4283211689214923 28.6327538495249954
 52.1440487783305286 15.4595191852497500 28.6327538495249954
  9.8651208541224857 39.8692747573272612 28.6327538495249954
 39.4603575954701142 37.4283211689214923 28.6327538495249954
 33.8232179674301037 37.4283211689214923 28.6327538495249954
 57.7812729643105243 15.4595191852497500 28.6327538495249954
 25.3674239674301170 37.4283211689214923 28.6327538495249954
 69.0556367783305234 15.4595191852497500 28.6327538495249954
 22.5487695954701017 37.4283211689214923 28.6327538495249954
 16.9116299674301196 37.4283211689214923 28.6327538495249954
 36.6417452180303869 71.6020375533019688 28.6327538495249954
  5.6371815954701097 37.4283211689214923 28.6327538495249954
 71.8742911502905173 15.4595191852497500 28.6327538495249954
 54.9627031502905297 15.4595191852497500 28.6327538495249954
 26.7767088541224823 39.8692747573272612 28.6327538495249954
 32.4139330401024850 39.8692747573272612 28.6327538495249954
 35.2325028541224938 39.8692747573272612 28.6327538495249954
 45.0975394618442706 42.3103015750729767 28.6327538495249954
 42.2789696478242618 42.3103015750729767 28.6327538495249954
 33.8231756478242644 42.3103015750729767 28.6327538495249954
 67.6463518916381474 13.0185655968439828 28.6327538495249954
 31.0046058338042556 42.3103015750729767 28.6327538495249954
 11.2743634618442599 42.3103015750729767 28.6327538495249954
  8.4557936478242581 42.3103015750729767 28.6327538495249954
 -2.8185701661957374 42.3103015750729767 28.6327538495249954
 -8.4557943521757366 42.3103015750729767 28.6327538495249954
 -11.2743641661957401 42.3103015750729767 28.6327538495249954
 -19.7301581661957393 42.3103015750729767 28.6327538495249954
 -7.0465092216694787 15.4595191852497500 28.6327538495249954
 -22.5488125381557367 42.3103015750729767 28.6327538495249954
 60.5998848541225001 39.8692747573272612 28.6327538495249954
  1.4092847783305213 15.4595191852497500 28.6327538495249954
  4.2279391502905188 15.4595191852497500 28.6327538495249954
 52.1440908541225028 39.8692747573272612 28.6327538495249954
  7.0465089643105223 15.4595191852497500 28.6327538495249954
 46.5068666681425000 39.8692747573272612 28.6327538495249954
 43.6882968541224912 39.8692747573272612 28.6327538495249954
 40.8697270401024966 39.8692747573272612 28.6327538495249954
 59.1905576478242708 42.3103015750729767 28.6327538495249954
  8.4558359674301080 37.4283211689214923 28.6327538495249954
