 H  O 
 1.0000000000000000
    84.5579400000000021    0.0000000000000000    0.0000000000000000
   -42.2789706095346958   73.2293399455724767    0.0000000000000000
     0.0000000000000000    0.0000000000000000   46.9039550000000034
 H   O  
 230 360
Cartesian
 40.8696844902278471 72.4156887494372228 28.1128704123049964
 -9.8650793878652134 57.7698207603227232 28.1128704123049964
 47.9161094113162704 26.0371311936879657 28.1128704123049964
 53.5533335972962803 26.0371311936879657 28.1128704123049964
 -21.1395277598252136 57.7698207603227232 28.1128704123049964
 50.7347635394624064 55.3288671719169614 28.1128704123049964
 67.6463517832762875 26.0371311936879657 28.1128704123049964
 -1.4092851440513405 28.4780847820937346 28.1128704123049964
  1.4092846699686612 28.4780847820937346 28.1128704123049964
  9.8650786699686659 28.4780847820937346 28.1128704123049964
 23.9580968559486607 28.4780847820937346 28.1128704123049964
 36.6417453534824062 55.3288671719169614 28.1128704123049964
 22.5487271675023955 55.3288671719169614 28.1128704123049964
 14.0929331675024070 55.3288671719169614 28.1128704123049964
 52.1440486699686616 28.4780847820937346 28.1128704123049964
 19.7301575972962873 26.0371311936879657 28.1128704123049964
 57.7812728559486644 28.4780847820937346 28.1128704123049964
 63.4184124839886536 28.4780847820937346 28.1128704123049964
  5.6371391675024016 55.3288671719169614 28.1128704123049964
 -14.0930184433389574 30.9190383704995000 28.1128704123049964
 -8.4557942573589582 30.9190383704995000 28.1128704123049964
 -2.8186548324975988 55.3288671719169614 28.1128704123049964
 -14.0930186465175975 55.3288671719169614 28.1128704123049964
 31.0046059286210465 30.9190383704995000 28.1128704123049964
 36.6417455566610357 30.9190383704995000 28.1128704123049964
 42.2789697426410385 30.9190383704995000 28.1128704123049964
 47.9161939286210341 30.9190383704995000 28.1128704123049964
 52.1440907457606357 52.8878403541712458 28.1128704123049964
 62.0091275566610349 30.9190383704995000 28.1128704123049964
 38.0510725597806356 52.8878403541712458 28.1128704123049964
 -4.2278972776771910 33.3600651882452155 28.1128704123049964
 11.2743633534824053 55.3288671719169614 28.1128704123049964
 -7.0465095738452108 57.7698207603227232 28.1128704123049964
 11.2743635972962863 26.0371311936879657 28.1128704123049964
 -1.4092853878652121 57.7698207603227232 28.1128704123049964
 -1.4093277074710613 62.6518011664742076 28.1128704123049964
 -4.2278975214910632 62.6518011664742076 28.1128704123049964
 35.2324184722697566 18.7141971991307194 28.1128704123049964
 40.8696426582497523 18.7141971991307194 28.1128704123049964
 46.5068668442297550 18.7141971991307194 28.1128704123049964
 49.3254366582497497 18.7141971991307194 28.1128704123049964
 -23.9581398934510652 62.6518011664742076 28.1128704123049964
 -29.5952795214910651 62.6518011664742076 28.1128704123049964
 -2.8186122690778692 21.1551507875364884 28.1128704123049964
  5.6371817309221299 21.1551507875364884 28.1128704123049964
 11.2744059169021327 21.1551507875364884 28.1128704123049964
 14.0929757309221344 21.1551507875364884 28.1128704123049964
 16.9115455449421290 21.1551507875364884 28.1128704123049964
 19.7301999169021336 21.1551507875364884 28.1128704123049964
 16.9115874988271635 60.2107743487284921 28.1128704123049964
 14.0930176848071671 60.2107743487284921 28.1128704123049964
 45.0975819169021293 21.1551507875364884 28.1128704123049964
 57.7812306176145043 23.5961043759422537 28.1128704123049964
 23.9580966121347885 57.7698207603227232 28.1128704123049964
 49.3254366176144998 23.5961043759422537 28.1128704123049964
 40.8696426176145025 23.5961043759422537 28.1128704123049964
 35.2324604261547876 57.7698207603227232 28.1128704123049964
 32.4138486176145122 23.5961043759422537 28.1128704123049964
  1.4092423503628120 33.3600651882452155 28.1128704123049964
 26.7767089895745123 23.5961043759422537 28.1128704123049964
  7.0464666176145112 23.5961043759422537 28.1128704123049964
  4.2278968035945095 23.5961043759422537 28.1128704123049964
 -4.2278971964054897 23.5961043759422537 28.1128704123049964
 -9.8651213823854889 23.5961043759422537 28.1128704123049964
  2.8185694347540982 45.5649063596139996 28.1128704123049964
 70.4649639169021356 21.1551507875364884 28.1128704123049964
 49.3254786121347877 57.7698207603227232 28.1128704123049964
 26.7767087457606330 52.8878403541712458 28.1128704123049964
  9.8650363503628089 33.3600651882452155 28.1128704123049964
 15.5022605363428152 33.3600651882452155 28.1128704123049964
 -19.7302427105906588 40.6829991828024689 28.1128704123049964
 49.3254364144358703 48.0059331773597151 28.1128704123049964
 -0.0000003386306579 40.6829991828024689 28.1128704123049964
  5.6371392894093386 40.6829991828024689 28.1128704123049964
 40.8696424144358730 48.0059331773597151 28.1128704123049964
 14.0929332894093395 40.6829991828024689 28.1128704123049964
 25.3673816613693432 40.6829991828024689 28.1128704123049964
 28.1859514753893379 40.6829991828024689 28.1128704123049964
 31.0045212894093325 40.6829991828024689 28.1128704123049964
 39.4603152894093299 40.6829991828024689 28.1128704123049964
 26.7766242284558658 48.0059331773597151 28.1128704123049964
 18.3208302284558755 48.0059331773597151 28.1128704123049964
 -21.1395276379182775 43.1239527712082307 28.1128704123049964
 -4.2278973995841262 48.0059331773597151 28.1128704123049964
 -7.0465517715441273 48.0059331773597151 28.1128704123049964
 -7.0465094519382783 43.1239527712082307 28.1128704123049964
 -9.8651215855641290 48.0059331773597151 28.1128704123049964
 -11.2743641932859031 45.5649063596139996 28.1128704123049964
 -14.0930185652459006 45.5649063596139996 28.1128704123049964
 22.5488118067141059 45.5649063596139996 28.1128704123049964
 -25.3673823792659014 45.5649063596139996 28.1128704123049964
 39.4603998067140935 45.5649063596139996 28.1128704123049964
 49.3254787340417238 43.1239527712082307 28.1128704123049964
 -22.5487703269117468 50.4468867657654769 28.1128704123049964
 46.5068243620817157 43.1239527712082307 28.1128704123049964
 53.5533334347540944 45.5649063596139996 28.1128704123049964
 32.4138907340417219 43.1239527712082307 28.1128704123049964
 -26.7767095855641273 48.0059331773597151 28.1128704123049964
 -21.1394853995841281 48.0059331773597151 28.1128704123049964
 -15.5023457715441282 48.0059331773597151 28.1128704123049964
  1.4092845480617260 43.1239527712082307 28.1128704123049964
 47.9161938067141051 45.5649063596139996 28.1128704123049964
 23.9580546582497540 18.7141971991307194 28.1128704123049964
 57.7812304957075682 38.2419723650567462 28.1128704123049964
 49.3254364957075708 38.2419723650567462 28.1128704123049964
 18.3208303503628116 33.3600651882452155 28.1128704123049964
 21.1394847223228126 33.3600651882452155 28.1128704123049964
 21.1394845597806302 52.8878403541712458 28.1128704123049964
 29.5952787223228171 33.3600651882452155 28.1128704123049964
 18.3209147457606356 52.8878403541712458 28.1128704123049964
 49.3254365363428136 33.3600651882452155 28.1128704123049964
 54.9626607223228163 33.3600651882452155 28.1128704123049964
 -1.4093276261993704 52.8878403541712458 28.1128704123049964
 -16.9116305769648072 35.8010187766509844 28.1128704123049964
 -7.0464672542393672 52.8878403541712458 28.1128704123049964
 -9.8651216261993682 52.8878403541712458 28.1128704123049964
 -11.2744063909848098 35.8010187766509844 28.1128704123049964
 -2.8186123909848098 35.8010187766509844 28.1128704123049964
 -18.3209156261993691 52.8878403541712458 28.1128704123049964
 28.1859937949951949 35.8010187766509844 28.1128704123049964
 47.9161514871082517 50.4468867657654769 28.1128704123049964
 42.2789274230351850 35.8010187766509844 28.1128704123049964
 -16.9116306988717469 50.4468867657654769 28.1128704123049964
 38.0510726816875717 38.2419723650567462 28.1128704123049964
 32.4138484957075690 38.2419723650567462 28.1128704123049964
 -8.4558366988717459 50.4468867657654769 28.1128704123049964
 18.3209148676675753 38.2419723650567462 28.1128704123049964
 12.6836906816875779 38.2419723650567462 28.1128704123049964
 52.1440908676675789 38.2419723650567462 28.1128704123049964
  5.6371814871082586 50.4468867657654769 28.1128704123049964
 19.7301996730882578 50.4468867657654769 28.1128704123049964
 -9.8651215042924267 38.2419723650567462 28.1128704123049964
 -18.3209155042924259 38.2419723650567462 28.1128704123049964
 31.0045634871082498 50.4468867657654769 28.1128704123049964
 39.4603574871082543 50.4468867657654769 28.1128704123049964
 42.2789273011282489 50.4468867657654769 28.1128704123049964
 14.0929754871082551 50.4468867657654769 28.1128704123049964
  1.4092421065489333 62.6518011664742076 28.1128704123049964
  8.4557936207341040 45.5649063596139996 28.1128704123049964
 15.5022606582497549 18.7141971991307194 28.1128704123049964
 -36.6418309544045329 69.9747351610314468 28.1128704123049964
 -1.4093272604785494  8.9502363868277595 28.1128704123049964
  7.0464667395214500  8.9502363868277595 28.1128704123049964
 43.6882966238536952 67.5337083432857384 28.1128704123049964
 12.6836909255014501  8.9502363868277595 28.1128704123049964
 38.0510724378736924 67.5337083432857384 28.1128704123049964
 18.3209151114814510  8.9502363868277595 28.1128704123049964
 29.5952784378736951 67.5337083432857384 28.1128704123049964
 54.9626609255014458  8.9502363868277595 28.1128704123049964
 21.1394844378736906 67.5337083432857384 28.1128704123049964
 66.2370247395214449  8.9502363868277595 28.1128704123049964
 69.0556791114814530  8.9502363868277595 28.1128704123049964
 18.3209146238536960 67.5337083432857384 28.1128704123049964
 78.9207580388090690  6.5092827984219914 28.1128704123049964
 77.5114731114814504  8.9502363868277595 28.1128704123049964
  2.8185697192032206 11.3912632045734714 28.1128704123049964
 14.0929335332232206 11.3912632045734714 28.1128704123049964
  9.8651206238536986 67.5337083432857384 28.1128704123049964
  4.2278964378736958 67.5337083432857384 28.1128704123049964
 28.1859517192032243 11.3912632045734714 28.1128704123049964
 -1.4093277481063067 67.5337083432857384 28.1128704123049964
 -15.5022613761463042 67.5337083432857384 28.1128704123049964
 73.2834915332232129 11.3912632045734714 28.1128704123049964
 76.1021459051832210 11.3912632045734714 28.1128704123049964
 -7.0465092081243990 13.8322167929792403 28.1128704123049964
 -4.2279393941043990 13.8322167929792403 28.1128704123049964
  4.2278546058956001 13.8322167929792403 28.1128704123049964
 16.9115451792213065 65.0927547548799765 28.1128704123049964
 -0.0000000948167802 11.3912632045734714 28.1128704123049964
 73.2835338528290663  6.5092827984219914 28.1128704123049964
 -33.8231765824445318 69.9747351610314468 28.1128704123049964
  2.8185692315754580 69.9747351610314468 28.1128704123049964
  2.8185698004749202  1.6273023922705114 28.1128704123049964
 35.2324603042478444 72.4156887494372228 28.1128704123049964
 32.4138904902278497 72.4156887494372228 28.1128704123049964
 26.7766663042478434 72.4156887494372228 28.1128704123049964
 36.6417458004749221  1.6273023922705114 28.1128704123049964
 21.1394421182678336 72.4156887494372228 28.1128704123049964
 47.9161941724349276  1.6273023922705114 28.1128704123049964
 50.7347639864549222  1.6273023922705114 28.1128704123049964
 59.1905579864549196  1.6273023922705114 28.1128704123049964
 67.6463519864549170  1.6273023922705114 28.1128704123049964
  1.4092425941766900  4.0683292100162243 28.1128704123049964
  4.2278969661366892  4.0683292100162243 28.1128704123049964
  7.0464667801566900  4.0683292100162243 28.1128704123049964
  7.0465084902278479 72.4156887494372228 28.1128704123049964
  1.4092843042478451 72.4156887494372228 28.1128704123049964
 18.3208305941766909  4.0683292100162243 28.1128704123049964
 -7.0465096957521522 72.4156887494372228 28.1128704123049964
 -12.6837338817321594 72.4156887494372228 28.1128704123049964
 -21.1395278817321568 72.4156887494372228 28.1128704123049964
 -26.7766675097721567 72.4156887494372228 28.1128704123049964
 66.2370247801566876  4.0683292100162243 28.1128704123049964
 11.2744060388090670  6.5092827984219914 28.1128704123049964
 25.3673396668490696  6.5092827984219914 28.1128704123049964
 16.9115874175554666 69.9747351610314468 28.1128704123049964
 31.0045638528290759  6.5092827984219914 28.1128704123049964
 33.8231336668490670  6.5092827984219914 28.1128704123049964
 39.4603578528290697  6.5092827984219914 28.1128704123049964
 47.9161518528290671  6.5092827984219914 28.1128704123049964
  5.6371390455954664 69.9747351610314468 28.1128704123049964
 18.3208727918756047 13.8322167929792403 28.1128704123049964
  8.4557511792213162 65.0927547548799765 28.1128704123049964
 -2.8186544667767790 11.3912632045734714 28.1128704123049964
 -25.3674248207786874 65.0927547548799765 28.1128704123049964
 -2.8185699494720202 16.2731703813850075 28.1128704123049964
 47.9161940505279844 16.2731703813850075 28.1128704123049964
 -16.9116308207786865 65.0927547548799765 28.1128704123049964
 46.5068664785089325 62.6518011664742076 28.1128704123049964
 -5.6372243214320203 16.2731703813850075 28.1128704123049964
 -8.4557941354520185 16.2731703813850075 28.1128704123049964
 22.5488120505279817 16.2731703813850075 28.1128704123049964
  5.6372240505279780 16.2731703813850075 28.1128704123049964
 62.0091276785679781 16.2731703813850075 28.1128704123049964
 16.9115878645479825 16.2731703813850075 28.1128704123049964
 52.1440487918755977 13.8322167929792403 28.1128704123049964
 64.8277820505279863 16.2731703813850075 28.1128704123049964
 43.6882547918756003 13.8322167929792403 28.1128704123049964
 32.4138482925289324 62.6518011664742076 28.1128704123049964
 63.4184126058955968 13.8322167929792403 28.1128704123049964
  7.0464662925289359 62.6518011664742076 28.1128704123049964
  9.8650364722697521 18.7141971991307194 28.1128704123049964
 23.9580542925289315 62.6518011664742076 28.1128704123049964
 14.0930180505279825 16.2731703813850075 28.1128704123049964
 38.0510306058956047 13.8322167929792403 28.1128704123049964
 69.0556367918755996 13.8322167929792403 28.1128704123049964
 26.7766241065489261 62.6518011664742076 28.1128704123049964
 11.2743636785679815 16.2731703813850075 28.1128704123049964
 -36.6417886347986865 65.0927547548799765 28.1128704123049964
 49.3254789778556031 13.8322167929792403 28.1128704123049964
 38.0510724243286234 69.1610107355562462 28.6327538495249954
 -36.6417464100096169 71.6020375533019688 28.6327538495249954
 50.7347636071890307 47.1922087518845075 28.6327538495249954
 -39.4604007819696179 71.6020375533019688 28.6327538495249954
 -18.3209155991092061 49.6332355696302230 28.6327538495249954
 35.2325026103086287 69.1610107355562462 28.6327538495249954
 26.7766664126097069 59.3971231525932382 28.6327538495249954
  2.8185693399373224 56.9561695641874692 28.6327538495249954
 23.9580965985897052 59.3971231525932382 28.6327538495249954
 45.0976238572420840 61.8380767409990000 28.6327538495249954
 21.1395267845696964 59.3971231525932382 28.6327538495249954
 -12.6836914131292051 49.6332355696302230 28.6327538495249954
 45.0976239791490272 47.1922087518845075 28.6327538495249954
  1.4093267728507877 49.6332355696302230 28.6327538495249954
  9.8651206103086064 69.1610107355562462 28.6327538495249954
  9.8651207728507995 49.6332355696302230 28.6327538495249954
  7.0465507962886189 69.1610107355562462 28.6327538495249954
 21.1394845868707826 49.6332355696302230 28.6327538495249954
 23.9580544008907985 49.6332355696302230 28.6327538495249954
 -12.6836915756713875 69.1610107355562462 28.6327538495249954
 38.0510725868707951 49.6332355696302230 28.6327538495249954
 32.4139327962886199 69.1610107355562462 28.6327538495249954
 -4.2278974131292042 49.6332355696302230 28.6327538495249954
 38.0511147845697053 59.3971231525932382 28.6327538495249954
 42.2789696071890333 47.1922087518845075 28.6327538495249954
  8.4557934040103735 71.6020375533019688 28.6327538495249954
 11.2743632180303894 71.6020375533019688 28.6327538495249954
 -16.9115885147179164 61.8380767409990000 28.6327538495249954
 -22.5487280208509766 47.1922087518845075 28.6327538495249954
 16.9115874040103833 71.6020375533019688 28.6327538495249954
 57.7812727204966521 44.7512551634787386 28.6327538495249954
 -22.5487281427579163 61.8380767409990000 28.6327538495249954
 -14.0929341427579153 61.8380767409990000 28.6327538495249954
 22.5488115899903860 71.6020375533019688 28.6327538495249954
 38.0511149064766485 44.7512551634787386 28.6327538495249954
 32.4138907204966458 44.7512551634787386 28.6327538495249954
 31.0046055899903834 71.6020375533019688 28.6327538495249954
 29.5953209064766369 44.7512551634787386 28.6327538495249954
 12.6837329064766493 44.7512551634787386 28.6327538495249954
 -8.4557945147179190 61.8380767409990000 28.6327538495249954
 42.2789694852820901 61.8380767409990000 28.6327538495249954
 -8.4557943928109793 47.1922087518845075 28.6327538495249954
 -25.3673825147179137 61.8380767409990000 28.6327538495249954
 29.5953207845697079 59.3971231525932382 28.6327538495249954
 -16.9115885959896168 71.6020375533019688 28.6327538495249954
 -15.5022613896913821 69.1610107355562462 28.6327538495249954
 -11.2743644100096230 71.6020375533019688 28.6327538495249954
 -8.4557945959896212 71.6020375533019688 28.6327538495249954
 36.6418299791490298 47.1922087518845075 28.6327538495249954
 36.6418298572420866 61.8380767409990000 28.6327538495249954
 43.6882544126097088 59.3971231525932382 28.6327538495249954
 46.5069087845697027 59.3971231525932382 28.6327538495249954
 -33.8231765147179146 61.8380767409990000 28.6327538495249954
 14.0930177931690217 47.1922087518845075 28.6327538495249954
 11.2744479791490271 47.1922087518845075 28.6327538495249954
  8.4557936071890190 47.1922087518845075 28.6327538495249954
 -0.0000003928109814 47.1922087518845075 28.6327538495249954
 -2.8185704100096114 71.6020375533019688 28.6327538495249954
 -18.3208312037113821 69.1610107355562462 28.6327538495249954
 -22.5487703404568300 52.0741891580359919 28.6327538495249954
 -29.5952795756713840 69.1610107355562462 28.6327538495249954
 -36.6417886483437698 66.7200571471504844 28.6327538495249954
 32.4139329181955560 54.5151427464417537 28.6327538495249954
 -31.0045644623637671 66.7200571471504844 28.6327538495249954
 15.5023449181955559 54.5151427464417537 28.6327538495249954
 -28.1859946483437653 66.7200571471504844 28.6327538495249954
 28.1859513399373292 56.9561695641874692 28.6327538495249954
 38.0510725462355595 54.5151427464417537 28.6327538495249954
 -14.0929764623637634 66.7200571471504844 28.6327538495249954
 31.0046057118973302 56.9561695641874692 28.6327538495249954
  7.0465509181955595 54.5151427464417537 28.6327538495249954
  2.8186115376362340 66.7200571471504844 28.6327538495249954
  5.6371813516562215 66.7200571471504844 28.6327538495249954
 -4.2278974537644496 54.5151427464417537 28.6327538495249954
 -9.8650370818044468 54.5151427464417537 28.6327538495249954
 -5.6371824623637705 66.7200571471504844 28.6327538495249954
 -7.0464673490561447 64.2791035587447084 28.6327538495249954
 25.3673815259173274 56.9561695641874692 28.6327538495249954
 40.8697269181955534 54.5151427464417537 28.6327538495249954
 -5.6372246600626781 56.9561695641874692 28.6327538495249954
  8.4557935259173256 56.9561695641874692 28.6327538495249954
 12.6836904649638509 64.2791035587447084 28.6327538495249954
 14.0930177118973283 56.9561695641874692 28.6327538495249954
 -14.0930186600626755 56.9561695641874692 28.6327538495249954
 18.3209146509438554 64.2791035587447084 28.6327538495249954
 35.2325026509438644 64.2791035587447084 28.6327538495249954
 -16.9115884740826736 56.9561695641874692 28.6327538495249954
 16.9115875259173158 56.9561695641874692 28.6327538495249954
 -25.3673824740826745 56.9561695641874692 28.6327538495249954
 40.8696422789838678 64.2791035587447084 28.6327538495249954
  4.2278964649638544 64.2791035587447084 28.6327538495249954
 49.3255209181955507 54.5151427464417537 28.6327538495249954
 46.5068665462355568 54.5151427464417537 28.6327538495249954
 43.6882966509438617 64.2791035587447084 28.6327538495249954
 -18.3208310818044460 54.5151427464417537 28.6327538495249954
 -21.1394854537644470 54.5151427464417537 28.6327538495249954
 -23.9580552677844487 54.5151427464417537 28.6327538495249954
 47.9161937118973214 56.9561695641874692 28.6327538495249954
  8.4558358455231772 52.0741891580359919 28.6327538495249954
 -4.2278552154303037 59.3971231525932382 28.6327538495249954
  2.8186116595431669 52.0741891580359919 28.6327538495249954
 -5.6371823404568273 52.0741891580359919 28.6327538495249954
 45.0975815376362448 66.7200571471504844 28.6327538495249954
 -38.0510735756713814 69.1610107355562462 28.6327538495249954
 -1.4092854014103018 59.3971231525932382 28.6327538495249954
  1.4092844126096999 59.3971231525932382 28.6327538495249954
 -14.0929763404568273 52.0741891580359919 28.6327538495249954
  4.2279387845697078 59.3971231525932382 28.6327538495249954
  7.0465085985897025 59.3971231525932382 28.6327538495249954
 -28.1859945264368292 52.0741891580359919 28.6327538495249954
  9.8650784126096909 59.3971231525932382 28.6327538495249954
 54.9626605868708040 49.6332355696302230 28.6327538495249954
 52.1440907728507952 49.6332355696302230 28.6327538495249954
 -15.5023035873902977 59.3971231525932382 28.6327538495249954
 -23.9580553896913813 69.1610107355562462 28.6327538495249954
 16.9116298455231728 52.0741891580359919 28.6327538495249954
 -26.7766674014102968 59.3971231525932382 28.6327538495249954
 -26.7766250818044469 54.5151427464417537 28.6327538495249954
 14.0929753516562410 66.7200571471504844 28.6327538495249954
 -21.1394855350361439 64.2791035587447084 28.6327538495249954
 -29.5952794537644479 54.5151427464417537 28.6327538495249954
  5.6372236712620847 61.8380767409990000 28.6327538495249954
 50.7348058455231694 52.0741891580359919 28.6327538495249954
 42.2790118455231720 52.0741891580359919 28.6327538495249954
 36.6417876595431693 52.0741891580359919 28.6327538495249954
 -26.7767097210161431 64.2791035587447084 28.6327538495249954
 33.8232178455231747 52.0741891580359919 28.6327538495249954
 50.7347635259173302 56.9561695641874692 28.6327538495249954
 22.5487694735631763 52.0741891580359919 28.6327538495249954
 25.3674237236162377 66.7200571471504844 28.6327538495249954
 31.0045633516562411 66.7200571471504844 28.6327538495249954
 33.8232177236162386 66.7200571471504844 28.6327538495249954
 -23.9580975873902986 59.3971231525932382 28.6327538495249954
 -32.4138915873902960 59.3971231525932382 28.6327538495249954
  1.4092849002374601  0.8136511961352557 28.6327538495249954
 -9.8650792795033553 44.7512551634787386 28.6327538495249954
 16.9115878510028992 17.9004727736555189 28.6327538495249954
 14.0930180369829028 17.9004727736555189 28.6327538495249954
  2.8186542229628988 17.9004727736555189 28.6327538495249954
 -2.8185699630171004 17.9004727736555189 28.6327538495249954
 74.6928609643105261 15.4595191852497500 28.6327538495249954
 49.3254789643105269 15.4595191852497500 28.6327538495249954
 46.5069091502905181 15.4595191852497500 28.6327538495249954
 35.2324607783305126 15.4595191852497500 28.6327538495249954
 26.7766667783305188 15.4595191852497500 28.6327538495249954
  7.0465089643105223 15.4595191852497500 28.6327538495249954
 73.2835760776181360 13.0185655968439828 28.6327538495249954
 19.7302422229628966 17.9004727736555189 28.6327538495249954
 64.8277820776181386 13.0185655968439828 28.6327538495249954
 59.1905578916381430 13.0185655968439828 28.6327538495249954
 47.9161940776181368 13.0185655968439828 28.6327538495249954
 39.4604000776181465 13.0185655968439828 28.6327538495249954
 25.3673818916381357 13.0185655968439828 28.6327538495249954
 16.9115878916381419 13.0185655968439828 28.6327538495249954
 14.0930180776181420 13.0185655968439828 28.6327538495249954
  8.4557938916381428 13.0185655968439828 28.6327538495249954
  5.6372240776181393 13.0185655968439828 28.6327538495249954
 -0.0000001083618602 13.0185655968439828 28.6327538495249954
 -5.6372242943418591 13.0185655968439828 28.6327538495249954
 63.4184549119563812 10.5775387790982709 28.6327538495249954
 62.0091277056581518 13.0185655968439828 28.6327538495249954
 54.9626609119563767 10.5775387790982709 28.6327538495249954
 31.0046060369829029 17.9004727736555189 28.6327538495249954
 36.6418302229629020 17.9004727736555189 28.6327538495249954
 54.9626608306846691 20.3414995914012344 28.6327538495249954
 52.1440910166646745 20.3414995914012344 28.6327538495249954
 49.3254366447046735 20.3414995914012344 28.6327538495249954
 43.6882970166646629 20.3414995914012344 28.6327538495249954
 40.8696426447046761 20.3414995914012344 28.6327538495249954
 38.0510728306846602 20.3414995914012344 28.6327538495249954
 35.2325030166646727 20.3414995914012344 28.6327538495249954
 32.4138486447046574 20.3414995914012344 28.6327538495249954
 29.5952788306846699 20.3414995914012344 28.6327538495249954
 21.1394848306846654 20.3414995914012344 28.6327538495249954
  7.0464666447046698 20.3414995914012344 28.6327538495249954
 33.8231758510028868 17.9004727736555189 28.6327538495249954
  1.4093270166646681 20.3414995914012344 28.6327538495249954
 -4.2278971693153311 20.3414995914012344 28.6327538495249954
 -9.8651213552953294 20.3414995914012344 28.6327538495249954
 73.2835760369829075 17.9004727736555189 28.6327538495249954
 70.4650062229628986 17.9004727736555189 28.6327538495249954
 67.6463518510029047 17.9004727736555189 28.6327538495249954
 64.8277820369829101 17.9004727736555189 28.6327538495249954
 59.1905578510029073 17.9004727736555189 28.6327538495249954
 56.3719880369828985 17.9004727736555189 28.6327538495249954
 53.5534182229629039 17.9004727736555189 28.6327538495249954
 50.7347638510029029 17.9004727736555189 28.6327538495249954
 45.0976242229628923 17.9004727736555189 28.6327538495249954
 -1.4093273552953294 20.3414995914012344 28.6327538495249954
 49.3255212839163661 10.5775387790982709 28.6327538495249954
 46.5068669119563793 10.5775387790982709 28.6327538495249954
 40.8697272839163759 10.5775387790982709 28.6327538495249954
 -1.4093272333883895  5.6956316022867357 28.6327538495249954
 81.7393701588898551  3.2546047845410229 28.6327538495249954
 76.1021459729098524  3.2546047845410229 28.6327538495249954
 70.4650063448698489  3.2546047845410229 28.6327538495249954
 64.8277821588898462  3.2546047845410229 28.6327538495249954
 47.9161941588898301  3.2546047845410229 28.6327538495249954
 45.0976243448698426  3.2546047845410229 28.6327538495249954
 42.2789699729098274  3.2546047845410229 28.6327538495249954
 36.6418303448698452  3.2546047845410229 28.6327538495249954
 33.8231759729098371  3.2546047845410229 28.6327538495249954
 31.0046061588898354  3.2546047845410229 28.6327538495249954
 29.5952789525916060  5.6956316022867357 28.6327538495249954
 28.1860363448698337  3.2546047845410229 28.6327538495249954
 14.0930181588898407  3.2546047845410229 28.6327538495249954
  8.4557939729098397  3.2546047845410229 28.6327538495249954
 -0.0000000270901599  3.2546047845410229 28.6327538495249954
 71.8742912721974676  0.8136511961352557 28.6327538495249954
 54.9627032721974516  0.8136511961352557 28.6327538495249954
 46.5069092721974613  0.8136511961352557 28.6327538495249954
 32.4138910862174541  0.8136511961352557 28.6327538495249954
 18.3208729002374611  0.8136511961352557 28.6327538495249954
 15.5023030862174611  0.8136511961352557 28.6327538495249954
 12.6837332721974576  0.8136511961352557 28.6327538495249954
  4.2279392721974602  0.8136511961352557 28.6327538495249954
 22.5488121588898416  3.2546047845410229 28.6327538495249954
 35.2325031385716159  5.6956316022867357 28.6327538495249954
 43.6882971385716132  5.6956316022867357 28.6327538495249954
 49.3254367666116167  5.6956316022867357 28.6327538495249954
 38.0510729119563607 10.5775387790982709 28.6327538495249954
 35.2325030979363731 10.5775387790982709 28.6327538495249954
 32.4139332839163785 10.5775387790982709 28.6327538495249954
 26.7767090979363651 10.5775387790982709 28.6327538495249954
 23.9581392839163634 10.5775387790982709 28.6327538495249954
 18.3209150979363713 10.5775387790982709 28.6327538495249954
  9.8651210979363722 10.5775387790982709 28.6327538495249954
 73.2835338392839901  8.1365851906925037 28.6327538495249954
 64.8277398392839928  8.1365851906925037 28.6327538495249954
 36.6417880252639918  8.1365851906925037 28.6327538495249954
 31.0045638392839891  8.1365851906925037 28.6327538495249954
 28.1859940252639873  8.1365851906925037 28.6327538495249954
 22.5487698392839881  8.1365851906925037 28.6327538495249954
 14.0929758392839890  8.1365851906925037 28.6327538495249954
  8.4558362112439873  8.1365851906925037 28.6327538495249954
  2.8186120252639890  8.1365851906925037 28.6327538495249954
  0.0000422112439907  8.1365851906925037 28.6327538495249954
 -2.8186121607160102  8.1365851906925037 28.6327538495249954
 69.0556791385716195  5.6956316022867357 28.6327538495249954
 66.2370247666116256  5.6956316022867357 28.6327538495249954
 63.4184549525916097  5.6956316022867357 28.6327538495249954
 60.5998851385716151  5.6956316022867357 28.6327538495249954
 57.7812307666116141  5.6956316022867357 28.6327538495249954
 54.9626609525916123  5.6956316022867357 28.6327538495249954
 52.1440911385716035  5.6956316022867357 28.6327538495249954
 66.2370246447046753 20.3414995914012344 28.6327538495249954
  4.2279389064766386 44.7512551634787386 28.6327538495249954
 71.8742488306846781 20.3414995914012344 28.6327538495249954
 22.5487697173770485 22.7824531798069998 28.6327538495249954
 59.1905999674301100 37.4283211689214923 28.6327538495249954
 56.3719455954701161 37.4283211689214923 28.6327538495249954
 47.9161515954701187 37.4283211689214923 28.6327538495249954
 31.0045635954701204 37.4283211689214923 28.6327538495249954
 28.1859937814501045 37.4283211689214923 28.6327538495249954
 25.3674239674301170 37.4283211689214923 28.6327538495249954
 22.5487695954701017 37.4283211689214923 28.6327538495249954
 11.2744057814501097 37.4283211689214923 28.6327538495249954
  8.4558359674301080 37.4283211689214923 28.6327538495249954
  2.8186117814501150 37.4283211689214923 28.6327538495249954
  0.0000419674301133 37.4283211689214923 28.6327538495249954
 -15.5022611458775117 39.8692747573272612 28.6327538495249954
 -14.0929762185498877 37.4283211689214923 28.6327538495249954
 57.7812305227977419 34.9873675805157234 28.6327538495249954
 54.9626607087777472 34.9873675805157234 28.6327538495249954
 52.1440908947577384 34.9873675805157234 28.6327538495249954
 46.5068667087777357 34.9873675805157234 28.6327538495249954
 38.0510727087777383 34.9873675805157234 28.6327538495249954
 35.2325028947577295 34.9873675805157234 28.6327538495249954
 32.4138485227977426 34.9873675805157234 28.6327538495249954
 23.9580545227977240 34.9873675805157234 28.6327538495249954
 15.5022605227977337 34.9873675805157234 28.6327538495249954
 12.6836907087777320 34.9873675805157234 28.6327538495249954
 -7.0464671052422672 34.9873675805157234 28.6327538495249954
 36.6417452180303869 71.6020375533019688 28.6327538495249954
 -12.6836912912222672 34.9873675805157234 28.6327538495249954
 -12.6836913318575100 39.8692747573272612 28.6327538495249954
  1.4093268541224926 39.8692747573272612 28.6327538495249954
 -18.3208732795033562 44.7512551634787386 28.6327538495249954
 -23.9580974654833554 44.7512551634787386 28.6327538495249954
 59.1905576478242708 42.3103015750729767 28.6327538495249954
 56.3719878338042619 42.3103015750729767 28.6327538495249954
 50.7347636478242734 42.3103015750729767 28.6327538495249954
 42.2789696478242618 42.3103015750729767 28.6327538495249954
 36.6417454618442662 42.3103015750729767 28.6327538495249954
 28.1859514618442688 42.3103015750729767 28.6327538495249954
 25.3673816478242529 42.3103015750729767 28.6327538495249954
 19.7301574618442501 42.3103015750729767 28.6327538495249954
 16.9115876478242626 42.3103015750729767 28.6327538495249954
 -4.2278973318575099 39.8692747573272612 28.6327538495249954
  5.6372238338042564 42.3103015750729767 28.6327538495249954
 -11.2743641661957401 42.3103015750729767 28.6327538495249954
 -14.0930185381557376 42.3103015750729767 28.6327538495249954
 -16.9115883521757375 42.3103015750729767 28.6327538495249954
 -19.7301581661957393 42.3103015750729767 28.6327538495249954
 -22.5488125381557367 42.3103015750729767 28.6327538495249954
 60.5998848541225001 39.8692747573272612 28.6327538495249954
 46.5068666681425000 39.8692747573272612 28.6327538495249954
 43.6882968541224912 39.8692747573272612 28.6327538495249954
 40.8697270401024966 39.8692747573272612 28.6327538495249954
 29.5952786681424982 39.8692747573272612 28.6327538495249954
  9.8651208541224857 39.8692747573272612 28.6327538495249954
 -2.8185701661957374 42.3103015750729767 28.6327538495249954
 -15.5022611052422672 34.9873675805157234 28.6327538495249954
 64.8277819150759740 32.5463407627700150 28.6327538495249954
 59.1905577290959641 32.5463407627700150 28.6327538495249954
 31.0046059557112059 27.6644335859584807 28.6327538495249954
 28.1859515837511907 27.6644335859584807 28.6327538495249954
  2.8185695837512008 27.6644335859584807 28.6327538495249954
 -2.8185700442888009 27.6644335859584807 28.6327538495249954
 -11.2743640442888005 27.6644335859584807 28.6327538495249954
 63.4184547900494380 25.2234067682127652 28.6327538495249954
 60.5998849760294434 25.2234067682127652 28.6327538495249954
 57.7813151620094345 25.2234067682127652 28.6327538495249954
 54.9626607900494406 25.2234067682127652 28.6327538495249954
 29.5952787900494201 25.2234067682127652 28.6327538495249954
 21.1394847900494298 25.2234067682127652 28.6327538495249954
 33.8231757697311934 27.6644335859584807 28.6327538495249954
 15.5023451620094264 25.2234067682127652 28.6327538495249954
  7.0465511620094325 25.2234067682127652 28.6327538495249954
 -1.4092428379905699 25.2234067682127652 28.6327538495249954
 -9.8650368379905675 25.2234067682127652 28.6327538495249954
 -12.6836912099505668 25.2234067682127652 28.6327538495249954
 62.0091699033570620 22.7824531798069998 28.6327538495249954
 53.5533759033570504 22.7824531798069998 28.6327538495249954
 50.7348060893370558 22.7824531798069998 28.6327538495249954
 45.0975819033570531 22.7824531798069998 28.6327538495249954
 42.2790120893370442 22.7824531798069998 28.6327538495249954
 36.6417879033570415 22.7824531798069998 28.6327538495249954
 31.0045637173770388 22.7824531798069998 28.6327538495249954
 12.6836907900494289 25.2234067682127652 28.6327538495249954
 39.4603999557111962 27.6644335859584807 28.6327538495249954
 42.2789697697312050 27.6644335859584807 28.6327538495249954
 50.7347637697312024 27.6644335859584807 28.6327538495249954
 56.3719879150759695 32.5463407627700150 28.6327538495249954
 50.7347637290959668 32.5463407627700150 28.6327538495249954
 39.4603999150759606 32.5463407627700150 28.6327538495249954
 33.8231757290959649 32.5463407627700150 28.6327538495249954
 25.3673817290959498 32.5463407627700150 28.6327538495249954
 14.0930179150759578 32.5463407627700150 28.6327538495249954
  5.6372239150759640 32.5463407627700150 28.6327538495249954
 -2.8185700849240374 32.5463407627700150 28.6327538495249954
 -5.6371398989440404 32.5463407627700150 28.6327538495249954
 -8.4557942709040379 32.5463407627700150 28.6327538495249954
 -16.9115882709040370 32.5463407627700150 28.6327538495249954
 66.2370668424035927 30.1053871743642461 28.6327538495249954
 54.9627030283835865 30.1053871743642461 28.6327538495249954
 46.5069090283835891 30.1053871743642461 28.6327538495249954
 32.4138908424035748 30.1053871743642461 28.6327538495249954
 26.7766666564235685 30.1053871743642461 28.6327538495249954
 18.3208726564235782 30.1053871743642461 28.6327538495249954
 15.5023028424035783 30.1053871743642461 28.6327538495249954
 12.6837330283835765 30.1053871743642461 28.6327538495249954
  4.2279390283835818 30.1053871743642461 28.6327538495249954
 -1.4092851575964171 30.1053871743642461 28.6327538495249954
 -4.2278549716164209 30.1053871743642461 28.6327538495249954
 67.6463517697312113 27.6644335859584807 28.6327538495249954
 64.8277819557112025 27.6644335859584807 28.6327538495249954
 62.0091275837512086 27.6644335859584807 28.6327538495249954
 -8.4557519106629488 22.7824531798069998 28.6327538495249954
 63.4184547087777446 34.9873675805157234 28.6327538495249954
