 H  O 
 1.0000000000000000
    84.5579400000000021    0.0000000000000000    0.0000000000000000
   -42.2789706095346958   73.2293399455724767    0.0000000000000000
     0.0000000000000000    0.0000000000000000   46.9039550000000034
 H   O  
 285 174
Cartesian
 -0.0000000135450799  1.6273023922705114 28.1128704123049964
 50.7347636207340997 45.5649063596139996 28.1128704123049964
 42.2789696207341024 45.5649063596139996 28.1128704123049964
 36.6417454347540925 45.5649063596139996 28.1128704123049964
 28.1859514347540951 45.5649063596139996 28.1128704123049964
 22.5488118067141059 45.5649063596139996 28.1128704123049964
 14.0930178067140996 45.5649063596139996 28.1128704123049964
  8.4557936207341040 45.5649063596139996 28.1128704123049964
  5.6372238067141032 45.5649063596139996 28.1128704123049964
 -0.0000003792658964 45.5649063596139996 28.1128704123049964
 -14.0930185652459006 45.5649063596139996 28.1128704123049964
 52.1440485480617184 43.1239527712082307 28.1128704123049964
 32.4138907340417219 43.1239527712082307 28.1128704123049964
 23.9580967340417281 43.1239527712082307 28.1128704123049964
 12.6836483620817209 43.1239527712082307 28.1128704123049964
 -18.3208732659582765 43.1239527712082307 28.1128704123049964
 -23.9580974519382757 43.1239527712082307 28.1128704123049964
 47.9161092894093343 40.6829991828024689 28.1128704123049964
 -21.1394853995841281 48.0059331773597151 28.1128704123049964
 -18.3209155855641299 48.0059331773597151 28.1128704123049964
 -9.8651215855641290 48.0059331773597151 28.1128704123049964
 -4.2278973995841262 48.0059331773597151 28.1128704123049964
 12.6836905597806329 52.8878403541712458 28.1128704123049964
  9.8651207457606311 52.8878403541712458 28.1128704123049964
  4.2278965597806355 52.8878403541712458 28.1128704123049964
  1.4093267457606342 52.8878403541712458 28.1128704123049964
 -21.1394854402193673 52.8878403541712458 28.1128704123049964
 53.5533756730882544 50.4468867657654769 28.1128704123049964
 50.7347213011282463 50.4468867657654769 28.1128704123049964
 47.9161514871082517 50.4468867657654769 28.1128704123049964
 39.4603152894093299 40.6829991828024689 28.1128704123049964
 19.7301996730882578 50.4468867657654769 28.1128704123049964
 -0.0000426988717480 50.4468867657654769 28.1128704123049964
 -5.6371823269117440 50.4468867657654769 28.1128704123049964
 -25.3674246988717442 50.4468867657654769 28.1128704123049964
 -28.1859945128917460 50.4468867657654769 28.1128704123049964
 54.9626606004158731 48.0059331773597151 28.1128704123049964
 43.6882122284558676 48.0059331773597151 28.1128704123049964
 35.2324182284558631 48.0059331773597151 28.1128704123049964
 12.6836906004158720 48.0059331773597151 28.1128704123049964
 11.2744056730882534 50.4468867657654769 28.1128704123049964
 31.0045212894093325 40.6829991828024689 28.1128704123049964
 28.1859514753893379 40.6829991828024689 28.1128704123049964
 16.9115876613693388 40.6829991828024689 28.1128704123049964
 52.1440063503628082 33.3600651882452155 28.1128704123049964
 35.2324183503628063 33.3600651882452155 28.1128704123049964
 23.9580545363428143 33.3600651882452155 28.1128704123049964
 15.5022605363428152 33.3600651882452155 28.1128704123049964
  4.2278967223228134 33.3600651882452155 28.1128704123049964
 -1.4093274636571897 33.3600651882452155 28.1128704123049964
 -4.2278972776771910 33.3600651882452155 28.1128704123049964
 -7.0465516496371885 33.3600651882452155 28.1128704123049964
 54.9626607223228163 33.3600651882452155 28.1128704123049964
 62.0091275566610349 30.9190383704995000 28.1128704123049964
 56.3719879286210457 30.9190383704995000 28.1128704123049964
 45.0975395566610331 30.9190383704995000 28.1128704123049964
 28.1859515566610455 30.9190383704995000 28.1128704123049964
 -16.9115882573589573 30.9190383704995000 28.1128704123049964
 66.2370668559486688 28.4780847820937346 28.1128704123049964
 60.5998426699686590 28.4780847820937346 28.1128704123049964
 46.5068244839886518 28.4780847820937346 28.1128704123049964
 32.4138908559486651 28.4780847820937346 28.1128704123049964
 59.1905577426410403 30.9190383704995000 28.1128704123049964
 21.1394845597806302 52.8878403541712458 28.1128704123049964
 57.7812305363428109 33.3600651882452155 28.1128704123049964
 -14.0929762050048097 35.8010187766509844 28.1128704123049964
 11.2743634753893449 40.6829991828024689 28.1128704123049964
  2.8185694753893440 40.6829991828024689 28.1128704123049964
 -8.4557943386306622 40.6829991828024689 28.1128704123049964
 -11.2744487105906597 40.6829991828024689 28.1128704123049964
 -14.0930185246106596 40.6829991828024689 28.1128704123049964
 57.7812304957075682 38.2419723650567462 28.1128704123049964
 46.5068666816875762 38.2419723650567462 28.1128704123049964
 21.1394846816875770 38.2419723650567462 28.1128704123049964
 -19.7302003909848089 35.8010187766509844 28.1128704123049964
  4.2278966816875769 38.2419723650567462 28.1128704123049964
 23.9580964902278346 72.4156887494372228 28.1128704123049964
 56.3719456090151922 35.8010187766509844 28.1128704123049964
 50.7347214230351895 35.8010187766509844 28.1128704123049964
 42.2789274230351850 35.8010187766509844 28.1128704123049964
 36.6417877949951958 35.8010187766509844 28.1128704123049964
 28.1859937949951949 35.8010187766509844 28.1128704123049964
 16.9115454230351894 35.8010187766509844 28.1128704123049964
  8.4557514230351885 35.8010187766509844 28.1128704123049964
 -4.2278973183124275 38.2419723650567462 28.1128704123049964
 21.1394424839886597 28.4780847820937346 28.1128704123049964
 23.9580543738006249 52.8878403541712458 28.1128704123049964
 32.4138483738006258 52.8878403541712458 28.1128704123049964
 -12.6836915621263024 67.5337083432857384 28.1128704123049964
 -18.3209157481063052 67.5337083432857384 28.1128704123049964
 -38.0510735621263052 67.5337083432857384 28.1128704123049964
 39.4603573652013111 65.0927547548799765 28.1128704123049964
 36.6417875511813165 65.0927547548799765 28.1128704123049964
 28.1859935511813049 65.0927547548799765 28.1128704123049964
 22.5487693652013093 65.0927547548799765 28.1128704123049964
 19.7301995511813146 65.0927547548799765 28.1128704123049964
 16.9115451792213065 65.0927547548799765 28.1128704123049964
  8.4557511792213162 65.0927547548799765 28.1128704123049964
 -0.0000428207786890 65.0927547548799765 28.1128704123049964
 -2.8186126347986837 65.0927547548799765 28.1128704123049964
 -5.6371824488186855 65.0927547548799765 28.1128704123049964
 -14.0929764488186855 65.0927547548799765 28.1128704123049964
 -25.3674248207786874 65.0927547548799765 28.1128704123049964
 -31.0045644488186873 65.0927547548799765 28.1128704123049964
 40.8696422925289298 62.6518011664742076 28.1128704123049964
  1.4093266238536943 67.5337083432857384 28.1128704123049964
  9.8651206238536986 67.5337083432857384 28.1128704123049964
 12.6836904378736932 67.5337083432857384 28.1128704123049964
 23.9580542518936852 67.5337083432857384 28.1128704123049964
 12.6836481182678362 72.4156887494372228 28.1128704123049964
  9.8650783042478416 72.4156887494372228 28.1128704123049964
  4.2278541182678469 72.4156887494372228 28.1128704123049964
  1.4092843042478451 72.4156887494372228 28.1128704123049964
 -4.2279398817321576 72.4156887494372228 28.1128704123049964
 -9.8650795097721549 72.4156887494372228 28.1128704123049964
 -15.5023036957521541 72.4156887494372228 28.1128704123049964
 -21.1395278817321568 72.4156887494372228 28.1128704123049964
 35.2324181065489270 62.6518011664742076 28.1128704123049964
 -29.5953218817321577 72.4156887494372228 28.1128704123049964
 -40.8696856957521533 72.4156887494372228 28.1128704123049964
 39.4603150455954648 69.9747351610314468 28.1128704123049964
 28.1859512315754728 69.9747351610314468 28.1128704123049964
 25.3673814175554639 69.9747351610314468 28.1128704123049964
 16.9115874175554666 69.9747351610314468 28.1128704123049964
  5.6371390455954664 69.9747351610314468 28.1128704123049964
 -33.8231765824445318 69.9747351610314468 28.1128704123049964
 -39.4604007684245346 69.9747351610314468 28.1128704123049964
 -38.0511158817321586 72.4156887494372228 28.1128704123049964
 32.4138482925289324 62.6518011664742076 28.1128704123049964
 23.9580542925289315 62.6518011664742076 28.1128704123049964
 18.3208301065489287 62.6518011664742076 28.1128704123049964
 12.6836482401747883 57.7698207603227232 28.1128704123049964
  9.8650784261547866 57.7698207603227232 28.1128704123049964
  1.4092844261547897 57.7698207603227232 28.1128704123049964
 -4.2279397598252162 57.7698207603227232 28.1128704123049964
 -9.8650793878652134 57.7698207603227232 28.1128704123049964
 -23.9580975738452153 57.7698207603227232 28.1128704123049964
 -29.5953217598252145 57.7698207603227232 28.1128704123049964
 -32.4138915738452127 57.7698207603227232 28.1128704123049964
 23.9580966121347885 57.7698207603227232 28.1128704123049964
 22.5487271675023955 55.3288671719169614 28.1128704123049964
 -0.0000004605375943 55.3288671719169614 28.1128704123049964
 -2.8186548324975988 55.3288671719169614 28.1128704123049964
 -14.0930186465175975 55.3288671719169614 28.1128704123049964
 -16.9115884605376010 55.3288671719169614 28.1128704123049964
 -25.3673824605375984 55.3288671719169614 28.1128704123049964
 46.5068665597806330 52.8878403541712458 28.1128704123049964
 40.8696423738006303 52.8878403541712458 28.1128704123049964
 35.2325027457606268 52.8878403541712458 28.1128704123049964
  5.6371391675024016 55.3288671719169614 28.1128704123049964
 26.7767087457606330 52.8878403541712458 28.1128704123049964
 32.4138906121347787 57.7698207603227232 28.1128704123049964
 -25.3673825011728376 60.2107743487284921 28.1128704123049964
 12.6836904785089395 62.6518011664742076 28.1128704123049964
  9.8650361065489385 62.6518011664742076 28.1128704123049964
  1.4092421065489333 62.6518011664742076 28.1128704123049964
 -9.8651217074710615 62.6518011664742076 28.1128704123049964
 -26.7767097074710669 62.6518011664742076 28.1128704123049964
 -29.5952795214910651 62.6518011664742076 28.1128704123049964
 -35.2325037074710679 62.6518011664742076 28.1128704123049964
 45.0975393128471538 60.2107743487284921 28.1128704123049964
 -33.8231765011728385 60.2107743487284921 28.1128704123049964
 39.4603996848071645 60.2107743487284921 28.1128704123049964
 31.0046056848071565 60.2107743487284921 28.1128704123049964
 28.1859513128471555 60.2107743487284921 28.1128704123049964
 16.9115874988271635 60.2107743487284921 28.1128704123049964
 14.0930176848071671 60.2107743487284921 28.1128704123049964
  5.6372236848071626 60.2107743487284921 28.1128704123049964
 -5.6372246871528393 60.2107743487284921 28.1128704123049964
 -14.0930186871528367 60.2107743487284921 28.1128704123049964
 -22.5488126871528358 60.2107743487284921 28.1128704123049964
 36.6417453128471564 60.2107743487284921 28.1128704123049964
 12.6836484839886605 28.4780847820937346 28.1128704123049964
 -9.8651215042924267 38.2419723650567462 28.1128704123049964
 32.4138904902278497 72.4156887494372228 28.1128704123049964
 11.2743637192032189 11.3912632045734714 28.1128704123049964
 39.4603578528290697  6.5092827984219914 28.1128704123049964
 16.9115456668490722  6.5092827984219914 28.1128704123049964
  8.4557516668490695  6.5092827984219914 28.1128704123049964
 70.4649217192032182 11.3912632045734714 28.1128704123049964
 16.9115455449421290 21.1551507875364884 28.1128704123049964
 28.1859939169021310 21.1551507875364884 28.1128704123049964
 16.9115879051832216 11.3912632045734714 28.1128704123049964
 -2.8186121471709296  6.5092827984219914 28.1128704123049964
 77.5113885941766796  4.0683292100162243 28.1128704123049964
 36.6417879169021319 21.1551507875364884 28.1128704123049964
 28.1859516785679780 16.2731703813850075 28.1128704123049964
 47.9161517309221239 21.1551507875364884 28.1128704123049964
 71.8742489661366903  4.0683292100162243 28.1128704123049964
 22.5488120505279817 16.2731703813850075 28.1128704123049964
 56.3719457309221283 21.1551507875364884 28.1128704123049964
 62.0091699169021311 21.1551507875364884 28.1128704123049964
 69.0555945941766822  4.0683292100162243 28.1128704123049964
 67.6463095449421274 21.1551507875364884 28.1128704123049964
 66.2370247801566876  4.0683292100162243 28.1128704123049964
 -7.0464670104254905 23.5961043759422537 28.1128704123049964
 52.1440065941766875  4.0683292100162243 28.1128704123049964
 -4.2278971964054897 23.5961043759422537 28.1128704123049964
  7.0464666582497495 18.7141971991307194 28.1128704123049964
 43.6882125941766972  4.0683292100162243 28.1128704123049964
 11.2744059169021327 21.1551507875364884 28.1128704123049964
 35.2324185941766927  4.0683292100162243 28.1128704123049964
 47.9161518528290671  6.5092827984219914 28.1128704123049964
 56.3719458528290644  6.5092827984219914 28.1128704123049964
  1.4092424722697507 18.7141971991307194 28.1128704123049964
 63.4184549255014502  8.9502363868277595 28.1128704123049964
 21.1394848442297523 18.7141971991307194 28.1128704123049964
 23.9580546582497540 18.7141971991307194 28.1128704123049964
 57.7812307395214404  8.9502363868277595 28.1128704123049964
 -7.0465515277302488 18.7141971991307194 28.1128704123049964
 26.7766244722697486 18.7141971991307194 28.1128704123049964
 35.2324184722697566 18.7141971991307194 28.1128704123049964
 67.6463518645479809 16.2731703813850075 28.1128704123049964
 52.1440911114814512  8.9502363868277595 28.1128704123049964
 43.6882971114814538  8.9502363868277595 28.1128704123049964
 43.6882124722697469 18.7141971991307194 28.1128704123049964
 71.8742489255014476  8.9502363868277595 28.1128704123049964
 62.0091276785679781 16.2731703813850075 28.1128704123049964
 52.1440064722697443 18.7141971991307194 28.1128704123049964
 47.9161940505279844 16.2731703813850075 28.1128704123049964
 -0.0000000948167802 11.3912632045734714 28.1128704123049964
 71.8742488442297542 18.7141971991307194 28.1128704123049964
 12.6836909255014501  8.9502363868277595 28.1128704123049964
 -11.2744062690778684 21.1551507875364884 28.1128704123049964
 -8.4558364550578684 21.1551507875364884 28.1128704123049964
  9.8651211114814483  8.9502363868277595 28.1128704123049964
  1.4093271114814494  8.9502363868277595 28.1128704123049964
 -4.2278970744985491  8.9502363868277595 28.1128704123049964
  8.4557939051832172 11.3912632045734714 28.1128704123049964
 50.7347216668490617  6.5092827984219914 28.1128704123049964
 -0.0000001354520196 16.2731703813850075 28.1128704123049964
 16.9115878645479825 16.2731703813850075 28.1128704123049964
 -2.8185699494720202 16.2731703813850075 28.1128704123049964
 81.7393701724349171  1.6273023922705114 28.1128704123049964
  8.4557937832762846 26.0371311936879657 28.1128704123049964
 28.1859515972962846 26.0371311936879657 28.1128704123049964
 33.8231757832762838 26.0371311936879657 28.1128704123049964
 70.4649218004749116  1.6273023922705114 28.1128704123049964
  4.2278546058956001 13.8322167929792403 28.1128704123049964
 -4.2279393941043990 13.8322167929792403 28.1128704123049964
 67.6463519864549170  1.6273023922705114 28.1128704123049964
 47.9161094113162704 26.0371311936879657 28.1128704123049964
 56.3719034113162749 26.0371311936879657 28.1128704123049964
 62.0091278004749142  1.6273023922705114 28.1128704123049964
 39.4603155332232234 11.3912632045734714 28.1128704123049964
 -7.0465092081243990 13.8322167929792403 28.1128704123049964
 62.0091275972962777 26.0371311936879657 28.1128704123049964
 56.3719881724349250  1.6273023922705114 28.1128704123049964
 47.9161095332232136 11.3912632045734714 28.1128704123049964
 42.2789699864549249  1.6273023922705114 28.1128704123049964
 39.4604001724349231  1.6273023922705114 28.1128704123049964
 73.2834915332232129 11.3912632045734714 28.1128704123049964
 16.9115879864549186  1.6273023922705114 28.1128704123049964
 -12.6837335160113369 28.4780847820937346 28.1128704123049964
 -4.2279395160113378 28.4780847820937346 28.1128704123049964
  8.4557939864549194  1.6273023922705114 28.1128704123049964
  5.6372241724349186  1.6273023922705114 28.1128704123049964
 -1.4092851440513405 28.4780847820937346 28.1128704123049964
 53.5533337192032164 11.3912632045734714 28.1128704123049964
  4.2278544839886631 28.4780847820937346 28.1128704123049964
  4.2278968035945095 23.5961043759422537 28.1128704123049964
 -0.0000002167237204 26.0371311936879657 28.1128704123049964
  4.2278968442297478 18.7141971991307194 28.1128704123049964
 38.0510728035945078 23.5961043759422537 28.1128704123049964
 15.5022606176145086 23.5961043759422537 28.1128704123049964
 -8.4557942167237172 26.0371311936879657 28.1128704123049964
 25.3673819051832226 11.3912632045734714 28.1128704123049964
 60.5998427918756022 13.8322167929792403 28.1128704123049964
 31.0045215332232189 11.3912632045734714 28.1128704123049964
 52.1440487918755977 13.8322167929792403 28.1128704123049964
 12.6836908035945140 23.5961043759422537 28.1128704123049964
 18.3209149895745149 23.5961043759422537 28.1128704123049964
 43.6882547918756003 13.8322167929792403 28.1128704123049964
 -8.4557941354520185 16.2731703813850075 28.1128704123049964
 43.6882969895745106 23.5961043759422537 28.1128704123049964
 52.1440909895745008 23.5961043759422537 28.1128704123049964
 54.9626608035945097 23.5961043759422537 28.1128704123049964
 21.1394849661366919  4.0683292100162243 28.1128704123049964
 26.7766245941766883  4.0683292100162243 28.1128704123049964
 12.6836909661366875  4.0683292100162243 28.1128704123049964
  7.0464666176145112 23.5961043759422537 28.1128704123049964
 69.0556789895745169 23.5961043759422537 28.1128704123049964
 12.6836486058956019 13.8322167929792403 28.1128704123049964
 69.0556367918755996 13.8322167929792403 28.1128704123049964
 23.9580546176145113 23.5961043759422537 28.1128704123049964
 16.9115875259173158 56.9561695641874692 28.6327538495249954
 39.4603997118973240 56.9561695641874692 28.6327538495249954
 52.1440910979363750 10.5775387790982709 28.6327538495249954
 42.2789695259173328 56.9561695641874692 28.6327538495249954
 -1.4092427160836287 10.5775387790982709 28.6327538495249954
 21.1394849119563659 10.5775387790982709 28.6327538495249954
 76.1021882112439840  8.1365851906925037 28.6327538495249954
 28.1859513399373292 56.9561695641874692 28.6327538495249954
 19.7301573399373318 56.9561695641874692 28.6327538495249954
  7.0465512839163686 10.5775387790982709 28.6327538495249954
 12.6836909119563703 10.5775387790982709 28.6327538495249954
 35.2325030979363731 10.5775387790982709 28.6327538495249954
 -18.3208734014102959 59.3971231525932382 28.6327538495249954
 47.9161937118973214 56.9561695641874692 28.6327538495249954
 -12.6836492154302967 59.3971231525932382 28.6327538495249954
  4.2278969525916086  5.6956316022867357 28.6327538495249954
 67.6463942112439867  8.1365851906925037 28.6327538495249954
 42.2790117236162359 66.7200571471504844 28.6327538495249954
 25.3673819729098362  3.2546047845410229 28.6327538495249954
 -29.5952795756713840 69.1610107355562462 28.6327538495249954
 -26.7766252037113830 69.1610107355562462 28.6327538495249954
 -23.9580553896913813 69.1610107355562462 28.6327538495249954
 -12.6836915756713875 69.1610107355562462 28.6327538495249954
 -9.8650372037113900 69.1610107355562462 28.6327538495249954
 -7.0464673896913883 69.1610107355562462 28.6327538495249954
 -1.4092432037113782 69.1610107355562462 28.6327538495249954
 19.7301995376362349 66.7200571471504844 28.6327538495249954
  7.0465507962886189 69.1610107355562462 28.6327538495249954
 80.3300852721974650  0.8136511961352557 28.6327538495249954
 35.2325026103086287 69.1610107355562462 28.6327538495249954
 69.0556369002374737  0.8136511961352557 28.6327538495249954
 -36.6417464100096169 71.6020375533019688 28.6327538495249954
 57.7812730862174604  0.8136511961352557 28.6327538495249954
 -19.7301584100096186 71.6020375533019688 28.6327538495249954
 23.9580970862174638  0.8136511961352557 28.6327538495249954
  9.8650789002374601  0.8136511961352557 28.6327538495249954
 22.5488115899903860 71.6020375533019688 28.6327538495249954
 12.6836904243286224 69.1610107355562462 28.6327538495249954
 35.2324604126097114 59.3971231525932382 28.6327538495249954
 31.0046061588898354  3.2546047845410229 28.6327538495249954
 47.9161941588898301  3.2546047845410229 28.6327538495249954
 53.5533760252639937  8.1365851906925037 28.6327538495249954
 -31.0045221427579136 61.8380767409990000 28.6327538495249954
 -25.3673825147179137 61.8380767409990000 28.6327538495249954
 33.8232182112439972  8.1365851906925037 28.6327538495249954
 -5.6371401427579215 61.8380767409990000 28.6327538495249954
 -0.0000005147179177 61.8380767409990000 28.6327538495249954
 28.1859940252639873  8.1365851906925037 28.6327538495249954
 22.5487698392839881  8.1365851906925037 28.6327538495249954
 22.5488116712620865 61.8380767409990000 28.6327538495249954
 -8.4557522763837714 66.7200571471504844 28.6327538495249954
 60.5998851385716151  5.6956316022867357 28.6327538495249954
 -15.5022613490561429 64.2791035587447084 28.6327538495249954
  4.2278964649638544 64.2791035587447084 28.6327538495249954
  1.4093271385716108  5.6956316022867357 28.6327538495249954
 15.5022602789838597 64.2791035587447084 28.6327538495249954
 73.2835761588898578  3.2546047845410229 28.6327538495249954
 32.4138482789838704 64.2791035587447084 28.6327538495249954
 43.6882966509438617 64.2791035587447084 28.6327538495249954
 53.5534183448698329  3.2546047845410229 28.6327538495249954
 -33.8231342763837688 66.7200571471504844 28.6327538495249954
 -21.1394855350361439 64.2791035587447084 28.6327538495249954
 -19.7301582881026789 56.9561695641874692 28.6327538495249954
 16.9115877697311987 27.6644335859584807 28.6327538495249954
 57.7813152839163777 10.5775387790982709 28.6327538495249954
 32.4138485227977426 34.9873675805157234 28.6327538495249954
 46.5068667087777357 34.9873675805157234 28.6327538495249954
 54.9626607087777472 34.9873675805157234 28.6327538495249954
 60.5998848947577358 34.9873675805157234 28.6327538495249954
 -11.2744064045298860 37.4283211689214923 28.6327538495249954
 -8.4557520325698885 37.4283211689214923 28.6327538495249954
  0.0000419674301133 37.4283211689214923 28.6327538495249954
  0.0000420893370479 22.7824531798069998 28.6327538495249954
  5.6371815954701097 37.4283211689214923 28.6327538495249954
 14.0929755954701115 37.4283211689214923 28.6327538495249954
 16.9116299674301196 37.4283211689214923 28.6327538495249954
 25.3674239674301170 37.4283211689214923 28.6327538495249954
 50.7348059674301126 37.4283211689214923 28.6327538495249954
 -11.2744062826229499 22.7824531798069998 28.6327538495249954
 -21.1394853318575109 39.8692747573272612 28.6327538495249954
 -15.5022611458775117 39.8692747573272612 28.6327538495249954
 66.2370246447046753 20.3414995914012344 28.6327538495249954
  7.0465510401024849 39.8692747573272612 28.6327538495249954
 52.1440910166646745 20.3414995914012344 28.6327538495249954
 46.5068668306846718 20.3414995914012344 28.6327538495249954
 35.2325028541224938 39.8692747573272612 28.6327538495249954
 32.4138486447046574 20.3414995914012344 28.6327538495249954
 43.6882968541224912 39.8692747573272612 28.6327538495249954
 28.1859939033570512 22.7824531798069998 28.6327538495249954
 31.0045637173770388 22.7824531798069998 28.6327538495249954
 12.6836907087777320 34.9873675805157234 28.6327538495249954
 33.8232180893370540 22.7824531798069998 28.6327538495249954
 25.3673817697312032 27.6644335859584807 28.6327538495249954
 36.6417455837512094 27.6644335859584807 28.6327538495249954
 42.2789697697312050 27.6644335859584807 28.6327538495249954
 64.8277819557112025 27.6644335859584807 28.6327538495249954
 69.0556789760294407 25.2234067682127652 28.6327538495249954
 66.2371091620094319 25.2234067682127652 28.6327538495249954
 -7.0465093435764183 30.1053871743642461 28.6327538495249954
 -1.4092851575964171 30.1053871743642461 28.6327538495249954
  1.4092846564235810 30.1053871743642461 28.6327538495249954
 26.7766666564235685 30.1053871743642461 28.6327538495249954
 57.7813151620094345 25.2234067682127652 28.6327538495249954
 21.1394848306846654 20.3414995914012344 28.6327538495249954
 49.3254788424035837 30.1053871743642461 28.6327538495249954
 35.2325029760294228 25.2234067682127652 28.6327538495249954
 -16.9115882709040370 32.5463407627700150 28.6327538495249954
 -11.2743640849240396 32.5463407627700150 28.6327538495249954
 -8.4557942709040379 32.5463407627700150 28.6327538495249954
 12.6836907900494289 25.2234067682127652 28.6327538495249954
 11.2744481010559561 32.5463407627700150 28.6327538495249954
 19.7302421010559677 32.5463407627700150 28.6327538495249954
 31.0046059150759525 32.5463407627700150 28.6327538495249954
 39.4603999150759606 32.5463407627700150 28.6327538495249954
 39.4603577173770574 22.7824531798069998 28.6327538495249954
 -9.8651214772022673 34.9873675805157234 28.6327538495249954
 54.9627030283835865 30.1053871743642461 28.6327538495249954
 -11.2743641661957401 42.3103015750729767 28.6327538495249954
 -2.8185701661957374 42.3103015750729767 28.6327538495249954
  2.8185694618442589 42.3103015750729767 28.6327538495249954
  7.0464664008907913 49.6332355696302230 28.6327538495249954
  9.8651207728507995 49.6332355696302230 28.6327538495249954
 15.5022604008907816 49.6332355696302230 28.6327538495249954
 38.0511151502905278 15.4595191852497500 28.6327538495249954
 23.9580544008907985 49.6332355696302230 28.6327538495249954
 29.5952785868707942 49.6332355696302230 28.6327538495249954
 35.2325027728508005 49.6332355696302230 28.6327538495249954
 38.0510725868707951 49.6332355696302230 28.6327538495249954
 43.6882967728507978 49.6332355696302230 28.6327538495249954
  8.4557937697312031 27.6644335859584807 28.6327538495249954
 18.3208727783305179 15.4595191852497500 28.6327538495249954
 -1.4093275991092098 49.6332355696302230 28.6327538495249954
 -16.9115461544768308 52.0741891580359919 28.6327538495249954
  1.4092847783305213 15.4595191852497500 28.6327538495249954
 73.2835760776181360 13.0185655968439828 28.6327538495249954
 64.8277820776181386 13.0185655968439828 28.6327538495249954
 56.3719880776181483 13.0185655968439828 28.6327538495249954
 -26.7766250818044469 54.5151427464417537 28.6327538495249954
  8.4557938916381428 13.0185655968439828 28.6327538495249954
 -4.2278974537644496 54.5151427464417537 28.6327538495249954
  1.4093267322155492 54.5151427464417537 28.6327538495249954
 18.3209147322155452 54.5151427464417537 28.6327538495249954
 49.3255209181955507 54.5151427464417537 28.6327538495249954
 52.1440907322155596 54.5151427464417537 28.6327538495249954
 -11.2744065264368292 52.0741891580359919 28.6327538495249954
 54.9626609119563767 10.5775387790982709 28.6327538495249954
 53.5534179791490246 47.1922087518845075 28.6327538495249954
 11.2744482229629011 17.9004727736555189 28.6327538495249954
  5.6372238338042564 42.3103015750729767 28.6327538495249954
  8.4557936478242581 42.3103015750729767 28.6327538495249954
 15.5022606447046662 20.3414995914012344 28.6327538495249954
 19.7301574618442501 42.3103015750729767 28.6327538495249954
 28.1859514618442688 42.3103015750729767 28.6327538495249954
  7.0464666447046698 20.3414995914012344 28.6327538495249954
  1.4093270166646681 20.3414995914012344 28.6327538495249954
 56.3719878338042619 42.3103015750729767 28.6327538495249954
 -1.4093273552953294 20.3414995914012344 28.6327538495249954
 -7.0465094654833562 44.7512551634787386 28.6327538495249954
 -7.0464669833353293 20.3414995914012344 28.6327538495249954
 39.4603997931690245 47.1922087518845075 28.6327538495249954
  4.2279389064766386 44.7512551634787386 28.6327538495249954
 18.3208725345166314 44.7512551634787386 28.6327538495249954
 70.4650062229628986 17.9004727736555189 28.6327538495249954
 59.1905578510029073 17.9004727736555189 28.6327538495249954
 32.4138907204966458 44.7512551634787386 28.6327538495249954
 38.0511149064766485 44.7512551634787386 28.6327538495249954
 40.8696847204966431 44.7512551634787386 28.6327538495249954
 46.5069089064766459 44.7512551634787386 28.6327538495249954
 39.4604000369828896 17.9004727736555189 28.6327538495249954
 -25.3673823928109776 47.1922087518845075 28.6327538495249954
 -16.9115883928109767 47.1922087518845075 28.6327538495249954
 25.3673818510029001 17.9004727736555189 28.6327538495249954
  9.8650785345166412 44.7512551634787386 28.6327538495249954
 32.4138909643105251 15.4595191852497500 28.6327538495249954
