 H  O 
 1.0000000000000000
    84.5579400000000021    0.0000000000000000    0.0000000000000000
   -42.2789706095346958   73.2293399455724767    0.0000000000000000
     0.0000000000000000    0.0000000000000000   46.9039550000000034
 H   O  
 246 347
Cartesian
 43.6882969895745106 23.5961043759422537 28.1128704123049964
 67.6463095449421274 21.1551507875364884 28.1128704123049964
 -12.6836911964054888 23.5961043759422537 28.1128704123049964
 36.6417453128471564 60.2107743487284921 28.1128704123049964
 35.2325028676675771 38.2419723650567462 28.1128704123049964
  1.4093269895745080 23.5961043759422537 28.1128704123049964
 33.8231754988271618 60.2107743487284921 28.1128704123049964
 28.1859513128471555 60.2107743487284921 28.1128704123049964
 12.6836908035945140 23.5961043759422537 28.1128704123049964
 25.3673814988271609 60.2107743487284921 28.1128704123049964
 21.1394848035945166 23.5961043759422537 28.1128704123049964
 22.5488116848071662 60.2107743487284921 28.1128704123049964
 14.0930176848071671 60.2107743487284921 28.1128704123049964
 32.4138486176145122 23.5961043759422537 28.1128704123049964
 31.0045634871082498 50.4468867657654769 28.1128704123049964
 40.8696426176145025 23.5961043759422537 28.1128704123049964
 -15.5023457715441282 48.0059331773597151 28.1128704123049964
 32.4138484957075690 38.2419723650567462 28.1128704123049964
 46.5068668035945052 23.5961043759422537 28.1128704123049964
  2.8185693128471621 60.2107743487284921 28.1128704123049964
 52.1440909895745008 23.5961043759422537 28.1128704123049964
 60.5998849895745124 23.5961043759422537 28.1128704123049964
 63.4184548035945070 23.5961043759422537 28.1128704123049964
 42.2789273011282489 50.4468867657654769 28.1128704123049964
 66.2370246176145088 23.5961043759422537 28.1128704123049964
 -8.4557945011728339 60.2107743487284921 28.1128704123049964
 -5.6372244027037182 26.0371311936879657 28.1128704123049964
 -11.2743643151928357 60.2107743487284921 28.1128704123049964
 47.9161514871082517 50.4468867657654769 28.1128704123049964
  8.4557934988271644 60.2107743487284921 28.1128704123049964
 64.8277397309221328 21.1551507875364884 28.1128704123049964
 45.0975819169021293 21.1551507875364884 28.1128704123049964
 -35.2325037074710679 62.6518011664742076 28.1128704123049964
  8.4557936613693432 40.6829991828024689 28.1128704123049964
 -36.6417886347986865 65.0927547548799765 28.1128704123049964
 73.2835760505279836 16.2731703813850075 28.1128704123049964
  8.4557513011282524 50.4468867657654769 28.1128704123049964
 -9.8651213417502497 18.7141971991307194 28.1128704123049964
 40.8696423738006303 52.8878403541712458 28.1128704123049964
  4.2278968442297478 18.7141971991307194 28.1128704123049964
 40.8696422925289298 62.6518011664742076 28.1128704123049964
  7.0464666582497495 18.7141971991307194 28.1128704123049964
 21.1394848442297523 18.7141971991307194 28.1128704123049964
 23.9580546582497540 18.7141971991307194 28.1128704123049964
 -11.2744487105906597 40.6829991828024689 28.1128704123049964
 29.5952788442297496 18.7141971991307194 28.1128704123049964
 23.9580542925289315 62.6518011664742076 28.1128704123049964
 32.4138486582497549 18.7141971991307194 28.1128704123049964
 16.9115453011282568 50.4468867657654769 28.1128704123049964
 35.2324184722697566 18.7141971991307194 28.1128704123049964
 18.3208301065489287 62.6518011664742076 28.1128704123049964
 19.7301996730882578 50.4468867657654769 28.1128704123049964
 60.5998848676675763 38.2419723650567462 28.1128704123049964
 -0.0000424550578693 21.1551507875364884 28.1128704123049964
 28.1859936730882552 50.4468867657654769 28.1128704123049964
  2.8186119169021282 21.1551507875364884 28.1128704123049964
 54.9626606816875736 38.2419723650567462 28.1128704123049964
  5.6371817309221299 21.1551507875364884 28.1128704123049964
 40.8696424957075664 38.2419723650567462 28.1128704123049964
 14.0929757309221344 21.1551507875364884 28.1128704123049964
 -21.1394855214910677 62.6518011664742076 28.1128704123049964
 -32.4139338934510661 62.6518011664742076 28.1128704123049964
 -0.0000002167237204 26.0371311936879657 28.1128704123049964
  9.8651208676675761 38.2419723650567462 28.1128704123049964
  2.8185695972962814 26.0371311936879657 28.1128704123049964
 -23.9580552542393690 52.8878403541712458 28.1128704123049964
 36.6417877949951958 35.8010187766509844 28.1128704123049964
 25.3673817426410437 30.9190383704995000 28.1128704123049964
 28.1859515566610455 30.9190383704995000 28.1128704123049964
 33.8231334230351877 35.8010187766509844 28.1128704123049964
 50.7347637426410429 30.9190383704995000 28.1128704123049964
 16.9115875394624062 55.3288671719169614 28.1128704123049964
 -18.3209154636571903 33.3600651882452155 28.1128704123049964
 -12.6836912776771893 33.3600651882452155 28.1128704123049964
 23.9580543738006249 52.8878403541712458 28.1128704123049964
 -9.8651214636571893 33.3600651882452155 28.1128704123049964
 -1.4093274636571897 33.3600651882452155 28.1128704123049964
 11.2743633534824053 55.3288671719169614 28.1128704123049964
 19.7301997949951904 35.8010187766509844 28.1128704123049964
 -14.0930186465175975 55.3288671719169614 28.1128704123049964
 15.5022605363428152 33.3600651882452155 28.1128704123049964
 23.9580545363428143 33.3600651882452155 28.1128704123049964
 -19.7302428324975985 55.3288671719169614 28.1128704123049964
 26.7766243503628161 33.3600651882452155 28.1128704123049964
 -22.5488126465175966 55.3288671719169614 28.1128704123049964
 43.6882123503628037 33.3600651882452155 28.1128704123049964
 16.9115454230351894 35.8010187766509844 28.1128704123049964
 46.5068667223228047 33.3600651882452155 28.1128704123049964
 -28.1860368324975958 55.3288671719169614 28.1128704123049964
 57.7812305363428109 33.3600651882452155 28.1128704123049964
 52.1440907457606357 52.8878403541712458 28.1128704123049964
 -8.4558365769648098 35.8010187766509844 28.1128704123049964
 43.6882967457606384 52.8878403541712458 28.1128704123049964
  8.4557514230351885 35.8010187766509844 28.1128704123049964
 -0.0000425769648080 35.8010187766509844 28.1128704123049964
  2.8185695566610427 30.9190383704995000 28.1128704123049964
 -25.3674248207786874 65.0927547548799765 28.1128704123049964
 47.9161516090151949 35.8010187766509844 28.1128704123049964
 -32.4138915738452127 57.7698207603227232 28.1128704123049964
 14.0929334113162810 26.0371311936879657 28.1128704123049964
 -33.8231765011728385 60.2107743487284921 28.1128704123049964
 25.3673817832762829 26.0371311936879657 28.1128704123049964
 28.1859515972962846 26.0371311936879657 28.1128704123049964
 46.5068242401747796 57.7698207603227232 28.1128704123049964
 -18.3209156261993691 52.8878403541712458 28.1128704123049964
 35.2324604261547876 57.7698207603227232 28.1128704123049964
 45.0975395972962758 26.0371311936879657 28.1128704123049964
 -4.2278973183124275 38.2419723650567462 28.1128704123049964
 26.7766664261547831 57.7698207603227232 28.1128704123049964
 -7.0464672542393672 52.8878403541712458 28.1128704123049964
  1.4092844261547897 57.7698207603227232 28.1128704123049964
 64.8276974113162794 26.0371311936879657 28.1128704123049964
 -12.6837335160113369 28.4780847820937346 28.1128704123049964
 -15.5022611323324266 38.2419723650567462 28.1128704123049964
 -9.8650791440513395 28.4780847820937346 28.1128704123049964
 -1.4092853878652121 57.7698207603227232 28.1128704123049964
 12.6836484839886605 28.4780847820937346 28.1128704123049964
 -9.8650793878652134 57.7698207603227232 28.1128704123049964
 23.9580968559486607 28.4780847820937346 28.1128704123049964
 40.8696844902278471 72.4156887494372228 28.1128704123049964
 26.7766666699686624 28.4780847820937346 28.1128704123049964
 -12.6837337598252144 57.7698207603227232 28.1128704123049964
 35.2324606699686598 28.4780847820937346 28.1128704123049964
 -21.1394853183124276 38.2419723650567462 28.1128704123049964
 -1.4093276261993704 52.8878403541712458 28.1128704123049964
 62.0091697949951950 35.8010187766509844 28.1128704123049964
 54.9626184839886562 28.4780847820937346 28.1128704123049964
 -29.5953217598252145 57.7698207603227232 28.1128704123049964
 -11.2743640713789581 30.9190383704995000 28.1128704123049964
  5.6371814871082586 50.4468867657654769 28.1128704123049964
 -4.2278971557702505 18.7141971991307194 28.1128704123049964
 -22.5487704488186900 65.0927547548799765 28.1128704123049964
 28.1859512315754728 69.9747351610314468 28.1128704123049964
 22.5487270455954629 69.9747351610314468 28.1128704123049964
  5.6371818528290705  6.5092827984219914 28.1128704123049964
 16.9115874175554666 69.9747351610314468 28.1128704123049964
 14.0929758528290687  6.5092827984219914 28.1128704123049964
 16.9115456668490722  6.5092827984219914 28.1128704123049964
  5.6371390455954664 69.9747351610314468 28.1128704123049964
 22.5487698528290750  6.5092827984219914 28.1128704123049964
 19.7301574347541049 45.5649063596139996 28.1128704123049964
 31.0045638528290759  6.5092827984219914 28.1128704123049964
 21.1394846004158765 48.0059331773597151 28.1128704123049964
 -0.0000005824445366 69.9747351610314468 28.1128704123049964
 36.6417880388090680  6.5092827984219914 28.1128704123049964
 -5.6372247684245327 69.9747351610314468 28.1128704123049964
 45.0975820388090725  6.5092827984219914 28.1128704123049964
 16.9115876207341032 45.5649063596139996 28.1128704123049964
  8.4557936207341040 45.5649063596139996 28.1128704123049964
 -11.2744489544045354 69.9747351610314468 28.1128704123049964
 67.6463096668490635  6.5092827984219914 28.1128704123049964
 73.2835338528290663  6.5092827984219914 28.1128704123049964
 78.9207580388090690  6.5092827984219914 28.1128704123049964
 -4.2278970744985491  8.9502363868277595 28.1128704123049964
  2.8185694347540982 45.5649063596139996 28.1128704123049964
 -1.4093272604785494  8.9502363868277595 28.1128704123049964
 -5.6372245652458988 45.5649063596139996 28.1128704123049964
 50.7347638645479790 16.2731703813850075 28.1128704123049964
 32.4138484144358685 48.0059331773597151 28.1128704123049964
 -39.4604007684245346 69.9747351610314468 28.1128704123049964
 26.7767091114814519  8.9502363868277595 28.1128704123049964
 31.0046058067141033 45.5649063596139996 28.1128704123049964
 -11.2743641932859031 45.5649063596139996 28.1128704123049964
 33.8231754175554755 69.9747351610314468 28.1128704123049964
 36.6417454347540925 45.5649063596139996 28.1128704123049964
  5.6372241724349186  1.6273023922705114 28.1128704123049964
 -1.4093275855641247 48.0059331773597151 28.1128704123049964
 14.0930181724349168  1.6273023922705114 28.1128704123049964
 16.9115879864549186  1.6273023922705114 28.1128704123049964
 29.5952361182678381 72.4156887494372228 28.1128704123049964
 33.8231759864549275  1.6273023922705114 28.1128704123049964
 39.4604001724349231  1.6273023922705114 28.1128704123049964
 -21.1394853995841281 48.0059331773597151 28.1128704123049964
 45.0975398004749266  1.6273023922705114 28.1128704123049964
 26.7766663042478434 72.4156887494372228 28.1128704123049964
 56.3719881724349250  1.6273023922705114 28.1128704123049964
  7.0464664144358764 48.0059331773597151 28.1128704123049964
 64.8277821724349081  1.6273023922705114 28.1128704123049964
 23.9580964902278346 72.4156887494372228 28.1128704123049964
 67.6463519864549170  1.6273023922705114 28.1128704123049964
 21.1394421182678336 72.4156887494372228 28.1128704123049964
 78.9207158004749090  1.6273023922705114 28.1128704123049964
  9.8650783042478416 72.4156887494372228 28.1128704123049964
  1.4092425941766900  4.0683292100162243 28.1128704123049964
 -26.7767095855641273 48.0059331773597151 28.1128704123049964
  9.8650362284558710 48.0059331773597151 28.1128704123049964
 50.7347636207340997 45.5649063596139996 28.1128704123049964
 15.5022607801566892  4.0683292100162243 28.1128704123049964
 -15.5023036957521541 72.4156887494372228 28.1128704123049964
 26.7766245941766883  4.0683292100162243 28.1128704123049964
 18.3208302284558755 48.0059331773597151 28.1128704123049964
 42.2789696207341024 45.5649063596139996 28.1128704123049964
 -26.7766675097721567 72.4156887494372228 28.1128704123049964
 49.3254367801566929  4.0683292100162243 28.1128704123049964
 33.8231756207340979 45.5649063596139996 28.1128704123049964
 32.4138482518936897 67.5337083432857384 28.1128704123049964
  9.8651211114814483  8.9502363868277595 28.1128704123049964
 77.5114731114814504  8.9502363868277595 28.1128704123049964
 -4.2279393941043990 13.8322167929792403 28.1128704123049964
 -1.4092852659582757 43.1239527712082307 28.1128704123049964
 45.0975815511813138 65.0927547548799765 28.1128704123049964
 -7.0465094519382783 43.1239527712082307 28.1128704123049964
 57.7812307395214404  8.9502363868277595 28.1128704123049964
 35.2324607918756030 13.8322167929792403 28.1128704123049964
 43.6882547918756003 13.8322167929792403 28.1128704123049964
 28.1859935511813049 65.0927547548799765 28.1128704123049964
 57.7812729778555934 13.8322167929792403 28.1128704123049964
 -23.9580974519382757 43.1239527712082307 28.1128704123049964
 60.5998427918756022 13.8322167929792403 28.1128704123049964
 47.9161092894093343 40.6829991828024689 28.1128704123049964
 76.1021459051832210 11.3912632045734714 28.1128704123049964
 14.0929753652013119 65.0927547548799765 28.1128704123049964
 -8.4557941354520185 16.2731703813850075 28.1128704123049964
  5.6372240505279780 16.2731703813850075 28.1128704123049964
  8.4557511792213162 65.0927547548799765 28.1128704123049964
 16.9115878645479825 16.2731703813850075 28.1128704123049964
  2.8186115511813119 65.0927547548799765 28.1128704123049964
 22.5488120505279817 16.2731703813850075 28.1128704123049964
 31.0046060505279790 16.2731703813850075 28.1128704123049964
 -5.6371824488186855 65.0927547548799765 28.1128704123049964
 33.8231758645479843 16.2731703813850075 28.1128704123049964
 25.3673816613693432 40.6829991828024689 28.1128704123049964
 -19.7302006347986882 65.0927547548799765 28.1128704123049964
 19.7301574753893405 40.6829991828024689 28.1128704123049964
 74.6928609778556023 13.8322167929792403 28.1128704123049964
 73.2834915332232129 11.3912632045734714 28.1128704123049964
 26.7766667918756056 13.8322167929792403 28.1128704123049964
 35.2325027457606268 52.8878403541712458 28.1128704123049964
 -7.0464673761463033 67.5337083432857384 28.1128704123049964
 70.4649217192032182 11.3912632045734714 28.1128704123049964
 -4.2278975621263015 67.5337083432857384 28.1128704123049964
 49.3254787340417238 43.1239527712082307 28.1128704123049964
 39.4603155332232234 11.3912632045734714 28.1128704123049964
 -18.3209157481063052 67.5337083432857384 28.1128704123049964
 14.0929335332232206 11.3912632045734714 28.1128704123049964
 52.1440485480617184 43.1239527712082307 28.1128704123049964
 47.9161095332232136 11.3912632045734714 28.1128704123049964
 16.9115879051832216 11.3912632045734714 28.1128704123049964
 56.3719035332232110 11.3912632045734714 28.1128704123049964
  5.6371395332232206 11.3912632045734714 28.1128704123049964
 59.1905579051832120 11.3912632045734714 28.1128704123049964
 35.2324182284558631 48.0059331773597151 28.1128704123049964
 -21.1394855621263069 67.5337083432857384 28.1128704123049964
 64.8276975332232155 11.3912632045734714 28.1128704123049964
 -5.6372242807967794 11.3912632045734714 28.1128704123049964
 46.5068243620817157 43.1239527712082307 28.1128704123049964
 40.8696424008908039 49.6332355696302230 28.6327538495249954
  4.2278965868707896 49.6332355696302230 28.6327538495249954
 43.6882967728507978 49.6332355696302230 28.6327538495249954
 25.3674238455231631 52.0741891580359919 28.6327538495249954
  9.8651207728507995 49.6332355696302230 28.6327538495249954
 -0.0000003928109814 47.1922087518845075 28.6327538495249954
 31.0046057931690235 47.1922087518845075 28.6327538495249954
 28.1859936595431719 52.0741891580359919 28.6327538495249954
  7.0464664008907913 49.6332355696302230 28.6327538495249954
 36.6418299791490298 47.1922087518845075 28.6327538495249954
 33.8231756071890288 47.1922087518845075 28.6327538495249954
 -22.5487703404568300 52.0741891580359919 28.6327538495249954
 56.3719877931690334 47.1922087518845075 28.6327538495249954
  1.4093267728507877 49.6332355696302230 28.6327538495249954
 19.7302419791490244 47.1922087518845075 28.6327538495249954
 -2.8186125264368322 52.0741891580359919 28.6327538495249954
 -26.7767095991092070 49.6332355696302230 28.6327538495249954
 29.5952785868707942 49.6332355696302230 28.6327538495249954
  0.0000418455231652 52.0741891580359919 28.6327538495249954
 53.5534179791490246 47.1922087518845075 28.6327538495249954
  2.8186116595431669 52.0741891580359919 28.6327538495249954
 32.4138484008907994 49.6332355696302230 28.6327538495249954
 -15.5022612271492086 49.6332355696302230 28.6327538495249954
  8.4558358455231772 52.0741891580359919 28.6327538495249954
 -12.6836914131292051 49.6332355696302230 28.6327538495249954
 26.7767087728507853 49.6332355696302230 28.6327538495249954
 14.0929754735631594 52.0741891580359919 28.6327538495249954
 16.9115876071890092 47.1922087518845075 28.6327538495249954
 16.9116298455231728 52.0741891580359919 28.6327538495249954
 -1.4093275991092098 49.6332355696302230 28.6327538495249954
 42.2789696071890333 47.1922087518845075 28.6327538495249954
  8.4557936071890190 47.1922087518845075 28.6327538495249954
 18.3209147728507951 49.6332355696302230 28.6327538495249954
  4.2279392721974602  0.8136511961352557 28.6327538495249954
 45.0975816595431809 52.0741891580359919 28.6327538495249954
 36.6417875376362474 66.7200571471504844 28.6327538495249954
 16.9116297236162261 66.7200571471504844 28.6327538495249954
 14.0929753516562410 66.7200571471504844 28.6327538495249954
  2.8186115376362340 66.7200571471504844 28.6327538495249954
 -5.6371824623637705 66.7200571471504844 28.6327538495249954
 -16.9115462763837670 66.7200571471504844 28.6327538495249954
 -19.7302006483437680 66.7200571471504844 28.6327538495249954
 -25.3673402763837679 66.7200571471504844 28.6327538495249954
 -28.1859946483437653 66.7200571471504844 28.6327538495249954
 45.0975815376362448 66.7200571471504844 28.6327538495249954
 -36.6417886483437698 66.7200571471504844 28.6327538495249954
 43.6882966509438617 64.2791035587447084 28.6327538495249954
 40.8696422789838678 64.2791035587447084 28.6327538495249954
 26.7767086509438528 64.2791035587447084 28.6327538495249954
 21.1394844649638500 64.2791035587447084 28.6327538495249954
 18.3209146509438554 64.2791035587447084 28.6327538495249954
 15.5022602789838597 64.2791035587447084 28.6327538495249954
 12.6836904649638509 64.2791035587447084 28.6327538495249954
  9.8651206509438563 64.2791035587447084 28.6327538495249954
 -7.0464673490561447 64.2791035587447084 28.6327538495249954
 46.5068664649638706 64.2791035587447084 28.6327538495249954
 -21.1394855350361439 64.2791035587447084 28.6327538495249954
 -29.5952795756713840 69.1610107355562462 28.6327538495249954
 -15.5022613896913821 69.1610107355562462 28.6327538495249954
 39.4603995899903808 71.6020375533019688 28.6327538495249954
 36.6417452180303869 71.6020375533019688 28.6327538495249954
 28.1859512180303895 71.6020375533019688 28.6327538495249954
 25.3673814040103807 71.6020375533019688 28.6327538495249954
 22.5488115899903860 71.6020375533019688 28.6327538495249954
  5.6372235899903860 71.6020375533019688 28.6327538495249954
  2.8185692180303707 71.6020375533019688 28.6327538495249954
 -11.2743644100096230 71.6020375533019688 28.6327538495249954
 -14.0930187819696204 71.6020375533019688 28.6327538495249954
 -26.7766252037113830 69.1610107355562462 28.6327538495249954
 -16.9115885959896168 71.6020375533019688 28.6327538495249954
 -28.1859524100096195 71.6020375533019688 28.6327538495249954
 35.2325026103086287 69.1610107355562462 28.6327538495249954
 32.4139327962886199 69.1610107355562462 28.6327538495249954
  7.0465507962886189 69.1610107355562462 28.6327538495249954
  4.2278964243286037 69.1610107355562462 28.6327538495249954
  1.4093266103086164 69.1610107355562462 28.6327538495249954
 -7.0464673896913883 69.1610107355562462 28.6327538495249954
 -9.8650372037113900 69.1610107355562462 28.6327538495249954
 -12.6836915756713875 69.1610107355562462 28.6327538495249954
 -25.3673825959896213 71.6020375533019688 28.6327538495249954
 42.2790118455231720 52.0741891580359919 28.6327538495249954
 -23.9580553490561456 64.2791035587447084 28.6327538495249954
 45.0976238572420840 61.8380767409990000 28.6327538495249954
 33.8231755259173212 56.9561695641874692 28.6327538495249954
 11.2743633399373131 56.9561695641874692 28.6327538495249954
 -0.0000004740826793 56.9561695641874692 28.6327538495249954
 -8.4557944740826727 56.9561695641874692 28.6327538495249954
 -11.2743642881026744 56.9561695641874692 28.6327538495249954
 -14.0930186600626755 56.9561695641874692 28.6327538495249954
 -19.7301582881026789 56.9561695641874692 28.6327538495249954
 -22.5488126600626764 56.9561695641874692 28.6327538495249954
 -28.1859522881026763 56.9561695641874692 28.6327538495249954
 36.6417453399373301 56.9561695641874692 28.6327538495249954
 -31.0046066600626737 56.9561695641874692 28.6327538495249954
 43.6882967322155622 54.5151427464417537 28.6327538495249954
 40.8697269181955534 54.5151427464417537 28.6327538495249954
 26.7767087322155568 54.5151427464417537 28.6327538495249954
 23.9581389181955480 54.5151427464417537 28.6327538495249954
 15.5023449181955559 54.5151427464417537 28.6327538495249954
 12.6836905462355407 54.5151427464417537 28.6327538495249954
  9.8651207322155532 54.5151427464417537 28.6327538495249954
 -18.3208310818044460 54.5151427464417537 28.6327538495249954
 -23.9580552677844487 54.5151427464417537 28.6327538495249954
 52.1440907322155596 54.5151427464417537 28.6327538495249954
 -35.2325037210161440 64.2791035587447084 28.6327538495249954
 50.7347635259173302 56.9561695641874692 28.6327538495249954
 -29.5952372154302985 59.3971231525932382 28.6327538495249954
 42.2789694852820901 61.8380767409990000 28.6327538495249954
 33.8231754852820927 61.8380767409990000 28.6327538495249954
 25.3673814852820882 61.8380767409990000 28.6327538495249954
 22.5488116712620865 61.8380767409990000 28.6327538495249954
 19.7302418572420777 61.8380767409990000 28.6327538495249954
 16.9115874852820909 61.8380767409990000 28.6327538495249954
 14.0930176712620749 61.8380767409990000 28.6327538495249954
  2.8186538572420905 61.8380767409990000 28.6327538495249954
 -0.0000005147179177 61.8380767409990000 28.6327538495249954
 -32.4138915873902960 59.3971231525932382 28.6327538495249954
 -5.6371401427579215 61.8380767409990000 28.6327538495249954
 -33.8231765147179146 61.8380767409990000 28.6327538495249954
 38.0511147845697053 59.3971231525932382 28.6327538495249954
 35.2324604126097114 59.3971231525932382 28.6327538495249954
 26.7766664126097069 59.3971231525932382 28.6327538495249954
  4.2279387845697078 59.3971231525932382 28.6327538495249954
  1.4092844126096999 59.3971231525932382 28.6327538495249954
 -7.0465095873903012 59.3971231525932382 28.6327538495249954
 -9.8650794014102949 59.3971231525932382 28.6327538495249954
 -12.6836492154302967 59.3971231525932382 28.6327538495249954
 -8.4557945147179190 61.8380767409990000 28.6327538495249954
 -2.8185702068309761 47.1922087518845075 28.6327538495249954
 -19.7302004045298887 37.4283211689214923 28.6327538495249954
 -14.0929340208509810 47.1922087518845075 28.6327538495249954
 66.2370669643105288 15.4595191852497500 28.6327538495249954
 63.4184971502905270 15.4595191852497500 28.6327538495249954
 60.5998427783305331 15.4595191852497500 28.6327538495249954
 52.1440487783305286 15.4595191852497500 28.6327538495249954
 49.3254789643105269 15.4595191852497500 28.6327538495249954
 46.5069091502905181 15.4595191852497500 28.6327538495249954
 43.6882547783305313 15.4595191852497500 28.6327538495249954
 35.2324607783305126 15.4595191852497500 28.6327538495249954
 32.4138909643105251 15.4595191852497500 28.6327538495249954
 21.1395271502905153 15.4595191852497500 28.6327538495249954
 15.5023029643105232 15.4595191852497500 28.6327538495249954
  4.2279391502905188 15.4595191852497500 28.6327538495249954
 76.1021458916381448 13.0185655968439828 28.6327538495249954
 73.2835760776181360 13.0185655968439828 28.6327538495249954
 64.8277820776181386 13.0185655968439828 28.6327538495249954
 62.0091277056581518 13.0185655968439828 28.6327538495249954
 59.1905578916381430 13.0185655968439828 28.6327538495249954
 56.3719880776181483 13.0185655968439828 28.6327538495249954
 47.9161940776181368 13.0185655968439828 28.6327538495249954
 45.0975397056581500 13.0185655968439828 28.6327538495249954
 14.0930180776181420 13.0185655968439828 28.6327538495249954
  5.6372240776181393 13.0185655968439828 28.6327538495249954
  2.8185697056581414 13.0185655968439828 28.6327538495249954
 71.8742911502905173 15.4595191852497500 28.6327538495249954
 77.5114730979363742 10.5775387790982709 28.6327538495249954
 74.6928609643105261 15.4595191852497500 28.6327538495249954
 22.5488120369828984 17.9004727736555189 28.6327538495249954
 22.5487697173770485 22.7824531798069998 28.6327538495249954
 14.0929757173770476 22.7824531798069998 28.6327538495249954
 11.2744059033570529 22.7824531798069998 28.6327538495249954
  5.6371817173770493 22.7824531798069998 28.6327538495249954
  2.8186119033570516 22.7824531798069998 28.6327538495249954
  0.0000420893370479 22.7824531798069998 28.6327538495249954
 -11.2744062826229499 22.7824531798069998 28.6327538495249954
 66.2370246447046753 20.3414995914012344 28.6327538495249954
 35.2325030166646727 20.3414995914012344 28.6327538495249954
 26.7767090166646753 20.3414995914012344 28.6327538495249954
 23.9580546447046672 20.3414995914012344 28.6327538495249954
 15.5022606447046662 20.3414995914012344 28.6327538495249954
 12.6836908306846716 20.3414995914012344 28.6327538495249954
  4.2278968306846716 20.3414995914012344 28.6327538495249954
  1.4093270166646681 20.3414995914012344 28.6327538495249954
 -4.2278971693153311 20.3414995914012344 28.6327538495249954
 -9.8651213552953294 20.3414995914012344 28.6327538495249954
 64.8277820369829101 17.9004727736555189 28.6327538495249954
 53.5534182229629039 17.9004727736555189 28.6327538495249954
 50.7347638510029029 17.9004727736555189 28.6327538495249954
 33.8231758510028868 17.9004727736555189 28.6327538495249954
 31.0046060369829029 17.9004727736555189 28.6327538495249954
 25.3673818510029001 17.9004727736555189 28.6327538495249954
  5.6372240369829028 17.9004727736555189 28.6327538495249954
 74.6929032839163654 10.5775387790982709 28.6327538495249954
 66.2371092839163680 10.5775387790982709 28.6327538495249954
 60.5998850979363723 10.5775387790982709 28.6327538495249954
 78.9208003448698463  3.2546047845410229 28.6327538495249954
 76.1021459729098524  3.2546047845410229 28.6327538495249954
 64.8277821588898462  3.2546047845410229 28.6327538495249954
 59.1905579729098434  3.2546047845410229 28.6327538495249954
 56.3719881588898417  3.2546047845410229 28.6327538495249954
 47.9161941588898301  3.2546047845410229 28.6327538495249954
 45.0976243448698426  3.2546047845410229 28.6327538495249954
 39.4604001588898399  3.2546047845410229 28.6327538495249954
 16.9115879729098388  3.2546047845410229 28.6327538495249954
 14.0930181588898407  3.2546047845410229 28.6327538495249954
  8.4557939729098397  3.2546047845410229 28.6327538495249954
  5.6372241588898389  3.2546047845410229 28.6327538495249954
  2.8186543448698407  3.2546047845410229 28.6327538495249954
 80.3300852721974650  0.8136511961352557 28.6327538495249954
 77.5114309002374711  0.8136511961352557 28.6327538495249954
 69.0556369002374737  0.8136511961352557 28.6327538495249954
 66.2370670862174649  0.8136511961352557 28.6327538495249954
 57.7812730862174604  0.8136511961352557 28.6327538495249954
 54.9627032721974516  0.8136511961352557 28.6327538495249954
 43.6882549002374461  0.8136511961352557 28.6327538495249954
 29.5953212721974559  0.8136511961352557 28.6327538495249954
 15.5023030862174611  0.8136511961352557 28.6327538495249954
  7.0465090862174584  0.8136511961352557 28.6327538495249954
  4.2278969525916086  5.6956316022867357 28.6327538495249954
  7.0464667666116103  5.6956316022867357 28.6327538495249954
 15.5022607666116095  5.6956316022867357 28.6327538495249954
 21.1394849525916122  5.6956316022867357 28.6327538495249954
 57.7813152839163777 10.5775387790982709 28.6327538495249954
 43.6882970979363634 10.5775387790982709 28.6327538495249954
 38.0510729119563607 10.5775387790982709 28.6327538495249954
 26.7767090979363651 10.5775387790982709 28.6327538495249954
 23.9581392839163634 10.5775387790982709 28.6327538495249954
 15.5023452839163713 10.5775387790982709 28.6327538495249954
  7.0465512839163686 10.5775387790982709 28.6327538495249954
  4.2278969119563712 10.5775387790982709 28.6327538495249954
 78.9207580252639929  8.1365851906925037 28.6327538495249954
 56.3719458392839954  8.1365851906925037 28.6327538495249954
 36.6417880252639918  8.1365851906925037 28.6327538495249954
 25.3674240893370566 22.7824531798069998 28.6327538495249954
 28.1859940252639873  8.1365851906925037 28.6327538495249954
 22.5487698392839881  8.1365851906925037 28.6327538495249954
  8.4558362112439873  8.1365851906925037 28.6327538495249954
  5.6371818392839907  8.1365851906925037 28.6327538495249954
 -2.8186121607160102  8.1365851906925037 28.6327538495249954
 57.7812307666116141  5.6956316022867357 28.6327538495249954
 49.3254367666116167  5.6956316022867357 28.6327538495249954
 46.5068669525916008  5.6956316022867357 28.6327538495249954
 38.0510729525916105  5.6956316022867357 28.6327538495249954
 35.2325031385716159  5.6956316022867357 28.6327538495249954
 32.4138487666116077  5.6956316022867357 28.6327538495249954
 26.7767091385716043  5.6956316022867357 28.6327538495249954
 25.3674242112439856  8.1365851906925037 28.6327538495249954
 -11.2743642068309775 47.1922087518845075 28.6327538495249954
 42.2790120893370442 22.7824531798069998 28.6327538495249954
 47.9161517173770548 22.7824531798069998 28.6327538495249954
 -12.6836913318575100 39.8692747573272612 28.6327538495249954
 -21.1394853318575109 39.8692747573272612 28.6327538495249954
 62.0091697814501188 37.4283211689214923 28.6327538495249954
 59.1905999674301100 37.4283211689214923 28.6327538495249954
 56.3719455954701161 37.4283211689214923 28.6327538495249954
 39.4603575954701142 37.4283211689214923 28.6327538495249954
 36.6417877814501125 37.4283211689214923 28.6327538495249954
 33.8232179674301037 37.4283211689214923 28.6327538495249954
 31.0045635954701204 37.4283211689214923 28.6327538495249954
 19.7301997814501142 37.4283211689214923 28.6327538495249954
 16.9116299674301196 37.4283211689214923 28.6327538495249954
 11.2744057814501097 37.4283211689214923 28.6327538495249954
  8.4558359674301080 37.4283211689214923 28.6327538495249954
  0.0000419674301133 37.4283211689214923 28.6327538495249954
 -2.8186124045298877 37.4283211689214923 28.6327538495249954
 -5.6371822185498859 37.4283211689214923 28.6327538495249954
 -16.9115460325698876 37.4283211689214923 28.6327538495249954
 63.4184547087777446 34.9873675805157234 28.6327538495249954
 60.5998848947577358 34.9873675805157234 28.6327538495249954
 49.3254365227977445 34.9873675805157234 28.6327538495249954
 46.5068667087777357 34.9873675805157234 28.6327538495249954
 35.2325028947577295 34.9873675805157234 28.6327538495249954
 32.4138485227977426 34.9873675805157234 28.6327538495249954
 -1.4092429598975091 39.8692747573272612 28.6327538495249954
 21.1394847087777364 34.9873675805157234 28.6327538495249954
  1.4093268541224926 39.8692747573272612 28.6327538495249954
  9.8651208541224857 39.8692747573272612 28.6327538495249954
 -16.9115883928109767 47.1922087518845075 28.6327538495249954
 -19.7301582068309784 47.1922087518845075 28.6327538495249954
 -22.5487280208509766 47.1922087518845075 28.6327538495249954
 -25.3673823928109776 47.1922087518845075 28.6327538495249954
 54.9627029064766432 44.7512551634787386 28.6327538495249954
 52.1440485345166493 44.7512551634787386 28.6327538495249954
 49.3254787204966547 44.7512551634787386 28.6327538495249954
 21.1395269064766467 44.7512551634787386 28.6327538495249954
 18.3208725345166314 44.7512551634787386 28.6327538495249954
 -1.4092852795033535 44.7512551634787386 28.6327538495249954
 -7.0465094654833562 44.7512551634787386 28.6327538495249954
 -9.8650792795033553 44.7512551634787386 28.6327538495249954
 -12.6836490935233588 44.7512551634787386 28.6327538495249954
 -23.9580974654833554 44.7512551634787386 28.6327538495249954
 50.7347636478242734 42.3103015750729767 28.6327538495249954
 47.9161938338042646 42.3103015750729767 28.6327538495249954
 25.3673816478242529 42.3103015750729767 28.6327538495249954
  8.4557936478242581 42.3103015750729767 28.6327538495249954
 -11.2743641661957401 42.3103015750729767 28.6327538495249954
 -14.0930185381557376 42.3103015750729767 28.6327538495249954
 60.5998848541225001 39.8692747573272612 28.6327538495249954
 35.2325028541224938 39.8692747573272612 28.6327538495249954
 32.4139330401024850 39.8692747573272612 28.6327538495249954
  7.0465510401024849 39.8692747573272612 28.6327538495249954
 18.3209148947577418 34.9873675805157234 28.6327538495249954
 15.5022605227977337 34.9873675805157234 28.6327538495249954
  7.0464665227977319 34.9873675805157234 28.6327538495249954
 33.8231757697311934 27.6644335859584807 28.6327538495249954
 25.3673817697312032 27.6644335859584807 28.6327538495249954
 14.0930179557111952 27.6644335859584807 28.6327538495249954
 11.2743635837511977 27.6644335859584807 28.6327538495249954
 -0.0000002302687971 27.6644335859584807 28.6327538495249954
 -11.2743640442888005 27.6644335859584807 28.6327538495249954
 63.4184547900494380 25.2234067682127652 28.6327538495249954
 60.5998849760294434 25.2234067682127652 28.6327538495249954
 57.7813151620094345 25.2234067682127652 28.6327538495249954
 52.1440909760294318 25.2234067682127652 28.6327538495249954
 43.6882969760294344 25.2234067682127652 28.6327538495249954
 40.8697271620094256 25.2234067682127652 28.6327538495249954
 38.0510727900494388 25.2234067682127652 28.6327538495249954
 26.7767089760294326 25.2234067682127652 28.6327538495249954
 15.5023451620094264 25.2234067682127652 28.6327538495249954
 12.6836907900494289 25.2234067682127652 28.6327538495249954
  1.4093269760294336 25.2234067682127652 28.6327538495249954
 -1.4092428379905699 25.2234067682127652 28.6327538495249954
 -4.2278972099505676 25.2234067682127652 28.6327538495249954
 -9.8650368379905675 25.2234067682127652 28.6327538495249954
 -12.6836912099505668 25.2234067682127652 28.6327538495249954
 64.8277397173770566 22.7824531798069998 28.6327538495249954
 62.0091699033570620 22.7824531798069998 28.6327538495249954
 36.6417455837512094 27.6644335859584807 28.6327538495249954
 39.4603999557111962 27.6644335859584807 28.6327538495249954
 50.7347637697312024 27.6644335859584807 28.6327538495249954
 53.5533335837512112 27.6644335859584807 28.6327538495249954
  1.4093268947577322 34.9873675805157234 28.6327538495249954
 -1.4093274772022688 34.9873675805157234 28.6327538495249954
 -4.2278972912222672 34.9873675805157234 28.6327538495249954
 -18.3209154772022664 34.9873675805157234 28.6327538495249954
 62.0092121010559580 32.5463407627700150 28.6327538495249954
 47.9161939150759579 32.5463407627700150 28.6327538495249954
 45.0976241010559633 32.5463407627700150 28.6327538495249954
 42.2789697290959623 32.5463407627700150 28.6327538495249954
 25.3673817290959498 32.5463407627700150 28.6327538495249954
 19.7302421010559677 32.5463407627700150 28.6327538495249954
 14.0930179150759578 32.5463407627700150 28.6327538495249954
 45.0975819033570531 22.7824531798069998 28.6327538495249954
  8.4557937290959586 32.5463407627700150 28.6327538495249954
 -11.2743640849240396 32.5463407627700150 28.6327538495249954
 54.9627030283835865 30.1053871743642461 28.6327538495249954
 52.1440486564235925 30.1053871743642461 28.6327538495249954
 35.2324606564235907 30.1053871743642461 28.6327538495249954
 26.7766666564235685 30.1053871743642461 28.6327538495249954
  7.0465088424035836 30.1053871743642461 28.6327538495249954
  1.4092846564235810 30.1053871743642461 28.6327538495249954
 -9.8650791575964192 30.1053871743642461 28.6327538495249954
 -12.6836489716164174 30.1053871743642461 28.6327538495249954
 59.1905577697312140 27.6644335859584807 28.6327538495249954
 56.3719879557112051 27.6644335859584807 28.6327538495249954
  2.8186541010559618 32.5463407627700150 28.6327538495249954
 42.2789694040103896 71.6020375533019688 28.6327538495249954
