 H  O 
 1.0000000000000000
    84.5579400000000021    0.0000000000000000    0.0000000000000000
   -42.2789706095346958   73.2293399455724767    0.0000000000000000
     0.0000000000000000    0.0000000000000000   46.9039550000000034
 H   O  
 239 347
Cartesian
 -0.0000000135450799  1.6273023922705114 28.1128704123049964
 49.3254364957075708 38.2419723650567462 28.1128704123049964
 38.0510726816875717 38.2419723650567462 28.1128704123049964
 29.5952786816875744 38.2419723650567462 28.1128704123049964
 15.5022604957075725 38.2419723650567462 28.1128704123049964
 12.6836906816875779 38.2419723650567462 28.1128704123049964
  1.4093268676675752 38.2419723650567462 28.1128704123049964
 -7.0464671323324293 38.2419723650567462 28.1128704123049964
 -9.8651215042924267 38.2419723650567462 28.1128704123049964
 -21.1394853183124276 38.2419723650567462 28.1128704123049964
 32.4138904902278497 72.4156887494372228 28.1128704123049964
 50.7347214230351895 35.8010187766509844 28.1128704123049964
 47.9161516090151949 35.8010187766509844 28.1128704123049964
 42.2789274230351850 35.8010187766509844 28.1128704123049964
 33.8231334230351877 35.8010187766509844 28.1128704123049964
 28.1859937949951949 35.8010187766509844 28.1128704123049964
 25.3673394230351938 35.8010187766509844 28.1128704123049964
 19.7301997949951904 35.8010187766509844 28.1128704123049964
 57.7812304957075682 38.2419723650567462 28.1128704123049964
 16.9115454230351894 35.8010187766509844 28.1128704123049964
 60.5998848676675763 38.2419723650567462 28.1128704123049964
 -11.2744487105906597 40.6829991828024689 28.1128704123049964
 50.7347636207340997 45.5649063596139996 28.1128704123049964
 45.0975394347540970 45.5649063596139996 28.1128704123049964
 28.1859514347540951 45.5649063596139996 28.1128704123049964
 22.5488118067141059 45.5649063596139996 28.1128704123049964
 19.7301574347541049 45.5649063596139996 28.1128704123049964
 -14.0930185652459006 45.5649063596139996 28.1128704123049964
 -25.3673823792659014 45.5649063596139996 28.1128704123049964
 49.3254787340417238 43.1239527712082307 28.1128704123049964
 38.0510303620817112 43.1239527712082307 28.1128704123049964
 12.6836483620817209 43.1239527712082307 28.1128704123049964
  1.4092845480617260 43.1239527712082307 28.1128704123049964
 -1.4092852659582757 43.1239527712082307 28.1128704123049964
 -18.3208732659582765 43.1239527712082307 28.1128704123049964
 42.2789696613693309 40.6829991828024689 28.1128704123049964
 11.2743634753893449 40.6829991828024689 28.1128704123049964
  8.4557936613693432 40.6829991828024689 28.1128704123049964
 -5.6372245246106605 40.6829991828024689 28.1128704123049964
 -22.5488125246106605 40.6829991828024689 28.1128704123049964
 14.0929756090151947 35.8010187766509844 28.1128704123049964
 -16.9116305769648072 35.8010187766509844 28.1128704123049964
 49.3254365363428136 33.3600651882452155 28.1128704123049964
 42.2789697832762812 26.0371311936879657 28.1128704123049964
 33.8231757832762838 26.0371311936879657 28.1128704123049964
 22.5487274113162819 26.0371311936879657 28.1128704123049964
 19.7301575972962873 26.0371311936879657 28.1128704123049964
 11.2743635972962863 26.0371311936879657 28.1128704123049964
  8.4557937832762846 26.0371311936879657 28.1128704123049964
  5.6371394113162827 26.0371311936879657 28.1128704123049964
 -8.4557942167237172 26.0371311936879657 28.1128704123049964
 63.4184548035945070 23.5961043759422537 28.1128704123049964
 52.1440909895745008 23.5961043759422537 28.1128704123049964
 46.5068668035945052 23.5961043759422537 28.1128704123049964
 21.1394848035945166 23.5961043759422537 28.1128704123049964
  7.0464666176145112 23.5961043759422537 28.1128704123049964
 -7.0464670104254905 23.5961043759422537 28.1128704123049964
 -12.6836911964054888 23.5961043759422537 28.1128704123049964
 70.4649639169021356 21.1551507875364884 28.1128704123049964
 64.8277397309221328 21.1551507875364884 28.1128704123049964
 56.3719034113162749 26.0371311936879657 28.1128704123049964
 59.1905577832762830 26.0371311936879657 28.1128704123049964
 -15.5023033300313369 28.4780847820937346 28.1128704123049964
 -4.2279395160113378 28.4780847820937346 28.1128704123049964
 29.5952787223228171 33.3600651882452155 28.1128704123049964
 21.1394847223228126 33.3600651882452155 28.1128704123049964
  4.2278967223228134 33.3600651882452155 28.1128704123049964
 -15.5023456496371885 33.3600651882452155 28.1128704123049964
 59.1905577426410403 30.9190383704995000 28.1128704123049964
 53.5533335566610376 30.9190383704995000 28.1128704123049964
 45.0975395566610331 30.9190383704995000 28.1128704123049964
 36.6417455566610357 30.9190383704995000 28.1128704123049964
 53.5533334347540944 45.5649063596139996 28.1128704123049964
 33.8231757426410411 30.9190383704995000 28.1128704123049964
 -2.8185700713789608 30.9190383704995000 28.1128704123049964
 -5.6372244433389582 30.9190383704995000 28.1128704123049964
 63.4184124839886536 28.4780847820937346 28.1128704123049964
 60.5998426699686590 28.4780847820937346 28.1128704123049964
 57.7812728559486644 28.4780847820937346 28.1128704123049964
 21.1394424839886597 28.4780847820937346 28.1128704123049964
  9.8650786699686659 28.4780847820937346 28.1128704123049964
 -1.4092851440513405 28.4780847820937346 28.1128704123049964
 -0.0000002573589589 30.9190383704995000 28.1128704123049964
 -26.7767095855641273 48.0059331773597151 28.1128704123049964
 -9.8651215855641290 48.0059331773597151 28.1128704123049964
 -1.4093275855641247 48.0059331773597151 28.1128704123049964
 42.2789271792213057 65.0927547548799765 28.1128704123049964
 19.7301995511813146 65.0927547548799765 28.1128704123049964
 11.2744055511813173 65.0927547548799765 28.1128704123049964
  8.4557511792213162 65.0927547548799765 28.1128704123049964
 -2.8186126347986837 65.0927547548799765 28.1128704123049964
 -5.6371824488186855 65.0927547548799765 28.1128704123049964
 -11.2744066347986838 65.0927547548799765 28.1128704123049964
 -14.0929764488186855 65.0927547548799765 28.1128704123049964
 -31.0045644488186873 65.0927547548799765 28.1128704123049964
 35.2324181065489270 62.6518011664742076 28.1128704123049964
 32.4138482925289324 62.6518011664742076 28.1128704123049964
 26.7766241065489261 62.6518011664742076 28.1128704123049964
  9.8650361065489385 62.6518011664742076 28.1128704123049964
  7.0464662925289359 62.6518011664742076 28.1128704123049964
  4.2278964785089341 62.6518011664742076 28.1128704123049964
 -4.2278975214910632 62.6518011664742076 28.1128704123049964
 -23.9581398934510652 62.6518011664742076 28.1128704123049964
 -32.4138493761463025 67.5337083432857384 28.1128704123049964
 -12.6836915621263024 67.5337083432857384 28.1128704123049964
  1.4093266238536943 67.5337083432857384 28.1128704123049964
  7.0464662518936976 67.5337083432857384 28.1128704123049964
 21.1394421182678336 72.4156887494372228 28.1128704123049964
 15.5023024902278443 72.4156887494372228 28.1128704123049964
  4.2278541182678469 72.4156887494372228 28.1128704123049964
 -1.4092855097721566 72.4156887494372228 28.1128704123049964
 -21.1395278817321568 72.4156887494372228 28.1128704123049964
 -23.9580976957521585 72.4156887494372228 28.1128704123049964
 -29.5953218817321577 72.4156887494372228 28.1128704123049964
 42.2789694175554729 69.9747351610314468 28.1128704123049964
 47.9161936848071619 60.2107743487284921 28.1128704123049964
 36.6417452315754701 69.9747351610314468 28.1128704123049964
 19.7301572315754683 69.9747351610314468 28.1128704123049964
 -11.2744489544045354 69.9747351610314468 28.1128704123049964
 -14.0930187684245301 69.9747351610314468 28.1128704123049964
 -22.5488127684245363 69.9747351610314468 28.1128704123049964
 -25.3673825824445345 69.9747351610314468 28.1128704123049964
 40.8696422518936870 67.5337083432857384 28.1128704123049964
 29.5952784378736951 67.5337083432857384 28.1128704123049964
 23.9580542518936852 67.5337083432857384 28.1128704123049964
 22.5487270455954629 69.9747351610314468 28.1128704123049964
 42.2789275449421211 21.1551507875364884 28.1128704123049964
 42.2789694988271592 60.2107743487284921 28.1128704123049964
 22.5488116848071662 60.2107743487284921 28.1128704123049964
 14.0929754871082551 50.4468867657654769 28.1128704123049964
 11.2744056730882534 50.4468867657654769 28.1128704123049964
  8.4557513011282524 50.4468867657654769 28.1128704123049964
  5.6371814871082586 50.4468867657654769 28.1128704123049964
 -5.6371823269117440 50.4468867657654769 28.1128704123049964
 -19.7302005128917450 50.4468867657654769 28.1128704123049964
 -25.3674246988717442 50.4468867657654769 28.1128704123049964
 -28.1859945128917460 50.4468867657654769 28.1128704123049964
 54.9626606004158731 48.0059331773597151 28.1128704123049964
 52.1440062284558650 48.0059331773597151 28.1128704123049964
 40.8696424144358730 48.0059331773597151 28.1128704123049964
 35.2324182284558631 48.0059331773597151 28.1128704123049964
 29.5952786004158739 48.0059331773597151 28.1128704123049964
 26.7766242284558658 48.0059331773597151 28.1128704123049964
 23.9580544144358711 48.0059331773597151 28.1128704123049964
 21.1394846004158765 48.0059331773597151 28.1128704123049964
  9.8650362284558710 48.0059331773597151 28.1128704123049964
  7.0464663738006301 52.8878403541712458 28.1128704123049964
 12.6836905597806329 52.8878403541712458 28.1128704123049964
 26.7767087457606330 52.8878403541712458 28.1128704123049964
 32.4138483738006258 52.8878403541712458 28.1128704123049964
 19.7301573128471581 60.2107743487284921 28.1128704123049964
 14.0930176848071671 60.2107743487284921 28.1128704123049964
  5.6372236848071626 60.2107743487284921 28.1128704123049964
 -0.0000005011728327 60.2107743487284921 28.1128704123049964
 -5.6372246871528393 60.2107743487284921 28.1128704123049964
 -19.7301583151928384 60.2107743487284921 28.1128704123049964
 -25.3673825011728376 60.2107743487284921 28.1128704123049964
 -33.8231765011728385 60.2107743487284921 28.1128704123049964
 33.8231754988271618 60.2107743487284921 28.1128704123049964
 23.9580966121347885 57.7698207603227232 28.1128704123049964
 -12.6837337598252144 57.7698207603227232 28.1128704123049964
 50.7347635394624064 55.3288671719169614 28.1128704123049964
 45.0975393534824036 55.3288671719169614 28.1128704123049964
 36.6417453534824062 55.3288671719169614 28.1128704123049964
 -2.8186548324975988 55.3288671719169614 28.1128704123049964
 -8.4557944605375948 55.3288671719169614 28.1128704123049964
 -16.9115884605376010 55.3288671719169614 28.1128704123049964
 -28.1860368324975958 55.3288671719169614 28.1128704123049964
 21.1394422401747804 57.7698207603227232 28.1128704123049964
 36.6417879169021319 21.1551507875364884 28.1128704123049964
 59.1905154230351869 35.8010187766509844 28.1128704123049964
 11.2743636785679815 16.2731703813850075 28.1128704123049964
 -0.0000001354520196 16.2731703813850075 28.1128704123049964
  2.8185696785679806 16.2731703813850075 28.1128704123049964
 14.0930180505279825 16.2731703813850075 28.1128704123049964
 71.8742489661366903  4.0683292100162243 28.1128704123049964
 25.3673818645479834 16.2731703813850075 28.1128704123049964
 28.1859516785679780 16.2731703813850075 28.1128704123049964
 54.9626609661366956  4.0683292100162243 28.1128704123049964
 31.0046060505279790 16.2731703813850075 28.1128704123049964
 39.4604000505279870 16.2731703813850075 28.1128704123049964
 47.9161940505279844 16.2731703813850075 28.1128704123049964
 52.1440065941766875  4.0683292100162243 28.1128704123049964
 50.7347638645479790 16.2731703813850075 28.1128704123049964
 23.9580547801566937  4.0683292100162243 28.1128704123049964
 53.5533336785679737 16.2731703813850075 28.1128704123049964
 59.1905578645479835 16.2731703813850075 28.1128704123049964
 64.8277820505279863 16.2731703813850075 28.1128704123049964
  9.8650365941766900  4.0683292100162243 28.1128704123049964
 -9.8651213417502497 18.7141971991307194 28.1128704123049964
 -4.2278971557702505 18.7141971991307194 28.1128704123049964
  7.0464667801566900  4.0683292100162243 28.1128704123049964
 76.1021459864549144  1.6273023922705114 28.1128704123049964
 -0.0000423331509293  6.5092827984219914 28.1128704123049964
 18.3208304722697477 18.7141971991307194 28.1128704123049964
 71.8742066058955942 13.8322167929792403 28.1128704123049964
 31.0045638528290759  6.5092827984219914 28.1128704123049964
 29.5952789255014537  8.9502363868277595 28.1128704123049964
 60.5998851114814414  8.9502363868277595 28.1128704123049964
 69.0556791114814530  8.9502363868277595 28.1128704123049964
  5.6371395332232206 11.3912632045734714 28.1128704123049964
 14.0929335332232206 11.3912632045734714 28.1128704123049964
 39.4603155332232234 11.3912632045734714 28.1128704123049964
 21.1394849255014528  8.9502363868277595 28.1128704123049964
 45.0975397192032190 11.3912632045734714 28.1128704123049964
 62.0091277192032209 11.3912632045734714 28.1128704123049964
 -4.2278970744985491  8.9502363868277595 28.1128704123049964
 76.1021459051832210 11.3912632045734714 28.1128704123049964
 -1.4092850221444004 13.8322167929792403 28.1128704123049964
  1.4092847918756004 13.8322167929792403 28.1128704123049964
  9.8650787918756002 13.8322167929792403 28.1128704123049964
 64.8277398528290689  6.5092827984219914 28.1128704123049964
 12.6836486058956019 13.8322167929792403 28.1128704123049964
 15.5023029778556030 13.8322167929792403 28.1128704123049964
 47.9161518528290671  6.5092827984219914 28.1128704123049964
 26.7766667918756056 13.8322167929792403 28.1128704123049964
 42.2789276668490714  6.5092827984219914 28.1128704123049964
 33.8231336668490670  6.5092827984219914 28.1128704123049964
 52.1440487918755977 13.8322167929792403 28.1128704123049964
 73.2835761724349197  1.6273023922705114 28.1128704123049964
 35.2325031114814493  8.9502363868277595 28.1128704123049964
 63.4184548442297569 18.7141971991307194 28.1128704123049964
 52.1440064722697443 18.7141971991307194 28.1128704123049964
 22.5488121724349213  1.6273023922705114 28.1128704123049964
 53.5533338004749169  1.6273023922705114 28.1128704123049964
 43.6882124722697469 18.7141971991307194 28.1128704123049964
 39.4604001724349231  1.6273023922705114 28.1128704123049964
 11.2743638004749194  1.6273023922705114 28.1128704123049964
  2.8186119169021282 21.1551507875364884 28.1128704123049964
 -11.2744062690778684 21.1551507875364884 28.1128704123049964
 56.3719881724349250  1.6273023922705114 28.1128704123049964
 54.9626608442297453 18.7141971991307194 28.1128704123049964
  8.4557939864549194  1.6273023922705114 28.1128704123049964
 29.5952788442297496 18.7141971991307194 28.1128704123049964
 60.5998004722697488 18.7141971991307194 28.1128704123049964
 59.1905579864549196  1.6273023922705114 28.1128704123049964
 70.4649218004749116  1.6273023922705114 28.1128704123049964
 25.3673395449421299 21.1551507875364884 28.1128704123049964
 -8.4558364550578684 21.1551507875364884 28.1128704123049964
 19.7301573399373318 56.9561695641874692 28.6327538495249954
 69.0556791385716195  5.6956316022867357 28.6327538495249954
 -22.5488127819696196 71.6020375533019688 28.6327538495249954
 -1.4092430818044526 54.5151427464417537 28.6327538495249954
 21.1395272721974621  0.8136511961352557 28.6327538495249954
  1.4093267322155492 54.5151427464417537 28.6327538495249954
 -26.7766674014102968 59.3971231525932382 28.6327538495249954
 46.5068669525916008  5.6956316022867357 28.6327538495249954
 12.6837332721974576  0.8136511961352557 28.6327538495249954
 -19.7301584100096186 71.6020375533019688 28.6327538495249954
 12.6836905462355407 54.5151427464417537 28.6327538495249954
 -2.8185704100096114 71.6020375533019688 28.6327538495249954
 15.5023449181955559 54.5151427464417537 28.6327538495249954
 45.0975393399373274 56.9561695641874692 28.6327538495249954
 32.4139329181955560 54.5151427464417537 28.6327538495249954
 35.2325027322155506 54.5151427464417537 28.6327538495249954
 42.2789695259173328 56.9561695641874692 28.6327538495249954
 66.2370247666116256  5.6956316022867357 28.6327538495249954
 -2.8185702881026811 56.9561695641874692 28.6327538495249954
 -11.2743642881026744 56.9561695641874692 28.6327538495249954
 52.1440911385716035  5.6956316022867357 28.6327538495249954
 -14.0930186600626755 56.9561695641874692 28.6327538495249954
 -16.9115884740826736 56.9561695641874692 28.6327538495249954
 -28.1859522881026763 56.9561695641874692 28.6327538495249954
 33.8231755259173212 56.9561695641874692 28.6327538495249954
 80.3300429525916257  5.6956316022867357 28.6327538495249954
 63.4184549525916097  5.6956316022867357 28.6327538495249954
 36.6417453399373301 56.9561695641874692 28.6327538495249954
 49.3254367666116167  5.6956316022867357 28.6327538495249954
 49.3255209181955507 54.5151427464417537 28.6327538495249954
 46.5068665462355568 54.5151427464417537 28.6327538495249954
 -11.2743644100096230 71.6020375533019688 28.6327538495249954
 -5.6372247819696195 71.6020375533019688 28.6327538495249954
 22.5488117118973186 56.9561695641874692 28.6327538495249954
 -2.8186121607160102  8.1365851906925037 28.6327538495249954
 -15.5022612677844460 54.5151427464417537 28.6327538495249954
 -19.7302005264368283 52.0741891580359919 28.6327538495249954
 -22.5487703404568300 52.0741891580359919 28.6327538495249954
 -25.3673401544768282 52.0741891580359919 28.6327538495249954
 19.7301572180303850 71.6020375533019688 28.6327538495249954
 54.9626605868708040 49.6332355696302230 28.6327538495249954
 43.6882967728507978 49.6332355696302230 28.6327538495249954
 38.0510725868707951 49.6332355696302230 28.6327538495249954
 28.1859512180303895 71.6020375533019688 28.6327538495249954
 35.2325027728508005 49.6332355696302230 28.6327538495249954
 26.7767087728507853 49.6332355696302230 28.6327538495249954
 23.9580544008907985 49.6332355696302230 28.6327538495249954
 15.5022604008907816 49.6332355696302230 28.6327538495249954
 31.0046055899903834 71.6020375533019688 28.6327538495249954
 12.6836905868707941 49.6332355696302230 28.6327538495249954
 31.0045638392839891  8.1365851906925037 28.6327538495249954
  9.8651207728507995 49.6332355696302230 28.6327538495249954
 33.8232182112439972  8.1365851906925037 28.6327538495249954
 -5.6371823404568273 52.0741891580359919 28.6327538495249954
 -12.6836914537644478 54.5151427464417537 28.6327538495249954
 -2.8186125264368322 52.0741891580359919 28.6327538495249954
 22.5487698392839881  8.1365851906925037 28.6327538495249954
 -0.0000005959896168 71.6020375533019688 28.6327538495249954
  2.8185692180303707 71.6020375533019688 28.6327538495249954
 -18.3208310818044460 54.5151427464417537 28.6327538495249954
 47.9161514735631755 52.0741891580359919 28.6327538495249954
 45.0975816595431809 52.0741891580359919 28.6327538495249954
 42.2790118455231720 52.0741891580359919 28.6327538495249954
 36.6417876595431693 52.0741891580359919 28.6327538495249954
 33.8232178455231747 52.0741891580359919 28.6327538495249954
  0.0000422112439907  8.1365851906925037 28.6327538495249954
 31.0045634735631737 52.0741891580359919 28.6327538495249954
 28.1859936595431719 52.0741891580359919 28.6327538495249954
 16.9116302112439918  8.1365851906925037 28.6327538495249954
 14.0929754735631594 52.0741891580359919 28.6327538495249954
  9.8650789002374601  0.8136511961352557 28.6327538495249954
 16.9115874040103833 71.6020375533019688 28.6327538495249954
 11.2744056595431719 52.0741891580359919 28.6327538495249954
  8.4558358455231772 52.0741891580359919 28.6327538495249954
  5.6371814735631682 52.0741891580359919 28.6327538495249954
 -23.9580975873902986 59.3971231525932382 28.6327538495249954
 71.8742912721974676  0.8136511961352557 28.6327538495249954
 -12.6836492154302967 59.3971231525932382 28.6327538495249954
 11.2744483448698372  3.2546047845410229 28.6327538495249954
  9.8651206509438563 64.2791035587447084 28.6327538495249954
 22.5488121588898416  3.2546047845410229 28.6327538495249954
  7.0464662789838490 64.2791035587447084 28.6327538495249954
 -9.8650372037113900 69.1610107355562462 28.6327538495249954
  1.4093266103086164 69.1610107355562462 28.6327538495249954
 -4.2278975350361501 64.2791035587447084 28.6327538495249954
 39.4604001588898399  3.2546047845410229 28.6327538495249954
  4.2278964243286037 69.1610107355562462 28.6327538495249954
 50.7347639729098461  3.2546047845410229 28.6327538495249954
 54.9627032721974516  0.8136511961352557 28.6327538495249954
 -23.9580553490561456 64.2791035587447084 28.6327538495249954
 -26.7767097210161431 64.2791035587447084 28.6327538495249954
 -29.5952795350361448 64.2791035587447084 28.6327538495249954
 53.5534183448698329  3.2546047845410229 28.6327538495249954
 -32.4138493490561430 64.2791035587447084 28.6327538495249954
 21.1394844243286215 69.1610107355562462 28.6327538495249954
 12.6836904649638509 64.2791035587447084 28.6327538495249954
 -35.2325037210161440 64.2791035587447084 28.6327538495249954
 -12.6836915756713875 69.1610107355562462 28.6327538495249954
 -15.5022613896913821 69.1610107355562462 28.6327538495249954
 39.4603573516562420 66.7200571471504844 28.6327538495249954
 33.8232177236162386 66.7200571471504844 28.6327538495249954
 -32.4138493896913857 69.1610107355562462 28.6327538495249954
 74.6928610862174764  0.8136511961352557 28.6327538495249954
 14.0929753516562410 66.7200571471504844 28.6327538495249954
 11.2744055376362251 66.7200571471504844 28.6327538495249954
 77.5114309002374711  0.8136511961352557 28.6327538495249954
 -2.8186126483437688 66.7200571471504844 28.6327538495249954
 -11.2744066483437688 66.7200571471504844 28.6327538495249954
  5.6372241588898389  3.2546047845410229 28.6327538495249954
 -14.0929764623637634 66.7200571471504844 28.6327538495249954
 -31.0045644623637671 66.7200571471504844 28.6327538495249954
 43.6882966509438617 64.2791035587447084 28.6327538495249954
 -18.3208312037113821 69.1610107355562462 28.6327538495249954
  8.4557939729098397  3.2546047845410229 28.6327538495249954
 35.2325026509438644 64.2791035587447084 28.6327538495249954
 29.5952784649638616 64.2791035587447084 28.6327538495249954
 57.7812730862174604  0.8136511961352557 28.6327538495249954
 -21.1394432154303011 59.3971231525932382 28.6327538495249954
 23.9581387962886225 69.1610107355562462 28.6327538495249954
 56.3719881588898417  3.2546047845410229 28.6327538495249954
 43.6882544126097088 59.3971231525932382 28.6327538495249954
  1.4093271385716108  5.6956316022867357 28.6327538495249954
 40.8696845985897141 59.3971231525932382 28.6327538495249954
  4.2278969525916086  5.6956316022867357 28.6327538495249954
 23.9580965985897052 59.3971231525932382 28.6327538495249954
 23.9580970862174638  0.8136511961352557 28.6327538495249954
  7.0464667666116103  5.6956316022867357 28.6327538495249954
 21.1395267845696964 59.3971231525932382 28.6327538495249954
  9.8651211385716078  5.6956316022867357 28.6327538495249954
 18.3208724126097096 59.3971231525932382 28.6327538495249954
 26.7767091385716043  5.6956316022867357 28.6327538495249954
 29.5952789525916060  5.6956316022867357 28.6327538495249954
  4.2279387845697078 59.3971231525932382 28.6327538495249954
 -25.3673825959896213 71.6020375533019688 28.6327538495249954
 42.2790117236162359 66.7200571471504844 28.6327538495249954
 -4.2278552154303037 59.3971231525932382 28.6327538495249954
 32.4138487666116077  5.6956316022867357 28.6327538495249954
 43.6882966103086261 69.1610107355562462 28.6327538495249954
 33.8231754852820927 61.8380767409990000 28.6327538495249954
 -33.8231765147179146 61.8380767409990000 28.6327538495249954
 -1.4093272333883895  5.6956316022867357 28.6327538495249954
 31.0046056712620839 61.8380767409990000 28.6327538495249954
 28.1860358572420893 61.8380767409990000 28.6327538495249954
 67.6463519729098550  3.2546047845410229 28.6327538495249954
 22.5488116712620865 61.8380767409990000 28.6327538495249954
 19.7302418572420777 61.8380767409990000 28.6327538495249954
 40.8696850862174585  0.8136511961352557 28.6327538495249954
 70.4650063448698489  3.2546047845410229 28.6327538495249954
  8.4557934852820722 61.8380767409990000 28.6327538495249954
 40.8697267962886173 69.1610107355562462 28.6327538495249954
  5.6372236712620847 61.8380767409990000 28.6327538495249954
 78.9208003448698463  3.2546047845410229 28.6327538495249954
 -2.8185703287379194 61.8380767409990000 28.6327538495249954
  7.0464664008907913 49.6332355696302230 28.6327538495249954
 81.7393701588898551  3.2546047845410229 28.6327538495249954
 -5.6371401427579215 61.8380767409990000 28.6327538495249954
 -19.7301583287379145 61.8380767409990000 28.6327538495249954
 -22.5487281427579163 61.8380767409990000 28.6327538495249954
 -25.3673825147179137 61.8380767409990000 28.6327538495249954
 32.4138486447046574 20.3414995914012344 28.6327538495249954
 22.5488117931690120 47.1922087518845075 28.6327538495249954
 -7.0464672271492059 49.6332355696302230 28.6327538495249954
 52.1440487783305286 15.4595191852497500 28.6327538495249954
 49.3254788424035837 30.1053871743642461 28.6327538495249954
 35.2324606564235907 30.1053871743642461 28.6327538495249954
 63.4184971502905270 15.4595191852497500 28.6327538495249954
 15.5023028424035783 30.1053871743642461 28.6327538495249954
 12.6837330283835765 30.1053871743642461 28.6327538495249954
  1.4092846564235810 30.1053871743642461 28.6327538495249954
 -1.4092851575964171 30.1053871743642461 28.6327538495249954
 -4.2278549716164209 30.1053871743642461 28.6327538495249954
 -5.6371397770370981 17.9004727736555189 28.6327538495249954
 -15.5023033435764184 30.1053871743642461 28.6327538495249954
 62.0091275837512086 27.6644335859584807 28.6327538495249954
  5.6372240369829028 17.9004727736555189 28.6327538495249954
 59.1905577697312140 27.6644335859584807 28.6327538495249954
  8.4557938510029000 17.9004727736555189 28.6327538495249954
 42.2789697697312050 27.6644335859584807 28.6327538495249954
 33.8231757697311934 27.6644335859584807 28.6327538495249954
 22.5488119557112086 27.6644335859584807 28.6327538495249954
 16.9115878510028992 17.9004727736555189 28.6327538495249954
 57.7812728424035953 30.1053871743642461 28.6327538495249954
 19.7301575837512004 27.6644335859584807 28.6327538495249954
 60.5998426564235899 30.1053871743642461 28.6327538495249954
 -14.0929338989440378 32.5463407627700150 28.6327538495249954
 29.5952787087777267 34.9873675805157234 28.6327538495249954
 12.6837331502905215 15.4595191852497500 28.6327538495249954
 26.7767088947577392 34.9873675805157234 28.6327538495249954
 23.9580545227977240 34.9873675805157234 28.6327538495249954
 15.5023029643105232 15.4595191852497500 28.6327538495249954
 18.3209148947577418 34.9873675805157234 28.6327538495249954
 15.5022605227977337 34.9873675805157234 28.6327538495249954
 26.7766667783305188 15.4595191852497500 28.6327538495249954
  1.4093268947577322 34.9873675805157234 28.6327538495249954
 -1.4093274772022688 34.9873675805157234 28.6327538495249954
 -12.6836912912222672 34.9873675805157234 28.6327538495249954
 -15.5022611052422672 34.9873675805157234 28.6327538495249954
 50.7347637290959668 32.5463407627700150 28.6327538495249954
 29.5953211502905269 15.4595191852497500 28.6327538495249954
 47.9161939150759579 32.5463407627700150 28.6327538495249954
  2.8186541010559618 32.5463407627700150 28.6327538495249954
 -0.0000002709040391 32.5463407627700150 28.6327538495249954
 -8.4557942709040379 32.5463407627700150 28.6327538495249954
 -11.2743640849240396 32.5463407627700150 28.6327538495249954
 49.3254789643105269 15.4595191852497500 28.6327538495249954
 14.0930179557111952 27.6644335859584807 28.6327538495249954
 11.2743635837511977 27.6644335859584807 28.6327538495249954
  8.4557937697312031 27.6644335859584807 28.6327538495249954
 70.4649639033570594 22.7824531798069998 28.6327538495249954
 62.0092122229629013 17.9004727736555189 28.6327538495249954
 50.7348060893370558 22.7824531798069998 28.6327538495249954
 47.9161517173770548 22.7824531798069998 28.6327538495249954
 64.8277820369829101 17.9004727736555189 28.6327538495249954
 36.6417879033570415 22.7824531798069998 28.6327538495249954
 33.8232180893370540 22.7824531798069998 28.6327538495249954
 22.5487697173770485 22.7824531798069998 28.6327538495249954
 19.7301999033570468 22.7824531798069998 28.6327538495249954
 -9.8651213552953294 20.3414995914012344 28.6327538495249954
 -8.4557519106629488 22.7824531798069998 28.6327538495249954
 -11.2744062826229499 22.7824531798069998 28.6327538495249954
 -7.0464669833353293 20.3414995914012344 28.6327538495249954
 21.1394848306846654 20.3414995914012344 28.6327538495249954
 63.4184548306846807 20.3414995914012344 28.6327538495249954
 60.5998850166646719 20.3414995914012344 28.6327538495249954
 57.7812306447046780 20.3414995914012344 28.6327538495249954
 43.6882970166646629 20.3414995914012344 28.6327538495249954
 40.8696426447046761 20.3414995914012344 28.6327538495249954
 -12.6836912099505668 25.2234067682127652 28.6327538495249954
  7.0465511620094325 25.2234067682127652 28.6327538495249954
 53.5534182229629039 17.9004727736555189 28.6327538495249954
  9.8651209760294343 25.2234067682127652 28.6327538495249954
  2.8185695837512008 27.6644335859584807 28.6327538495249954
 -0.0000002302687971 27.6644335859584807 28.6327538495249954
 19.7302422229628966 17.9004727736555189 28.6327538495249954
 -2.8185700442888009 27.6644335859584807 28.6327538495249954
 22.5488120369828984 17.9004727736555189 28.6327538495249954
 28.1860362229629082 17.9004727736555189 28.6327538495249954
 69.0556789760294407 25.2234067682127652 28.6327538495249954
 60.5998849760294434 25.2234067682127652 28.6327538495249954
 57.7813151620094345 25.2234067682127652 28.6327538495249954
 35.2325028947577295 34.9873675805157234 28.6327538495249954
 31.0046060369829029 17.9004727736555189 28.6327538495249954
 43.6882969760294344 25.2234067682127652 28.6327538495249954
 33.8231758510028868 17.9004727736555189 28.6327538495249954
 35.2325029760294228 25.2234067682127652 28.6327538495249954
 39.4604000369828896 17.9004727736555189 28.6327538495249954
 32.4139331620094353 25.2234067682127652 28.6327538495249954
 29.5952787900494201 25.2234067682127652 28.6327538495249954
 23.9581391620094379 25.2234067682127652 28.6327538495249954
 21.1394847900494298 25.2234067682127652 28.6327538495249954
 50.7347638510029029 17.9004727736555189 28.6327538495249954
 46.5068667900494361 25.2234067682127652 28.6327538495249954
 40.8696425227977400 34.9873675805157234 28.6327538495249954
  9.8650787783305205 15.4595191852497500 28.6327538495249954
  7.0465089643105223 15.4595191852497500 28.6327538495249954
 49.3254787204966547 44.7512551634787386 28.6327538495249954
 60.5998850979363723 10.5775387790982709 28.6327538495249954
 23.9580967204966342 44.7512551634787386 28.6327538495249954
 63.4184549119563812 10.5775387790982709 28.6327538495249954
 21.1395269064766467 44.7512551634787386 28.6327538495249954
 71.8742489119563714 10.5775387790982709 28.6327538495249954
 -1.4092852795033535 44.7512551634787386 28.6327538495249954
 -12.6836490935233588 44.7512551634787386 28.6327538495249954
 74.6929032839163654 10.5775387790982709 28.6327538495249954
 -15.5023034654833562 44.7512551634787386 28.6327538495249954
 -18.3208732795033562 44.7512551634787386 28.6327538495249954
 77.5114730979363742 10.5775387790982709 28.6327538495249954
 39.4603998338042672 42.3103015750729767 28.6327538495249954
 36.6417454618442662 42.3103015750729767 28.6327538495249954
 -0.0000001083618602 13.0185655968439828 28.6327538495249954
 11.2743634618442599 42.3103015750729767 28.6327538495249954
  8.4557936478242581 42.3103015750729767 28.6327538495249954
 -0.0000003521757358 42.3103015750729767 28.6327538495249954
 -2.8185701661957374 42.3103015750729767 28.6327538495249954
 43.6882970979363634 10.5775387790982709 28.6327538495249954
 40.8697272839163759 10.5775387790982709 28.6327538495249954
 -14.0929340208509810 47.1922087518845075 28.6327538495249954
 38.0510729119563607 10.5775387790982709 28.6327538495249954
 -9.8651215991092069 49.6332355696302230 28.6327538495249954
 42.2790122112439946  8.1365851906925037 28.6327538495249954
 47.9161518392839980  8.1365851906925037 28.6327538495249954
 -26.7767095991092070 49.6332355696302230 28.6327538495249954
 59.1906002112439964  8.1365851906925037 28.6327538495249954
 56.3719877931690334 47.1922087518845075 28.6327538495249954
 53.5534179791490246 47.1922087518845075 28.6327538495249954
 64.8277398392839928  8.1365851906925037 28.6327538495249954
 50.7347636071890307 47.1922087518845075 28.6327538495249954
 -14.0930185381557376 42.3103015750729767 28.6327538495249954
 39.4603997931690245 47.1922087518845075 28.6327538495249954
 28.1860359791490147 47.1922087518845075 28.6327538495249954
 25.3673816071890279 47.1922087518845075 28.6327538495249954
 15.5023452839163713 10.5775387790982709 28.6327538495249954
 35.2325030166646727 20.3414995914012344 28.6327538495249954
 18.3209150979363713 10.5775387790982709 28.6327538495249954
 19.7302419791490244 47.1922087518845075 28.6327538495249954
 23.9581392839163634 10.5775387790982709 28.6327538495249954
  5.6372237931690181 47.1922087518845075 28.6327538495249954
 -0.0000003928109814 47.1922087518845075 28.6327538495249954
 -4.2278970880436288 10.5775387790982709 28.6327538495249954
 39.4603578392839793  8.1365851906925037 28.6327538495249954
 -16.9115883521757375 42.3103015750729767 28.6327538495249954
 -19.7301581661957393 42.3103015750729767 28.6327538495249954
 50.7347638916381456 13.0185655968439828 28.6327538495249954
 47.9161515954701187 37.4283211689214923 28.6327538495249954
 39.4603575954701142 37.4283211689214923 28.6327538495249954
 36.6417877814501125 37.4283211689214923 28.6327538495249954
 53.5533337056581473 13.0185655968439828 28.6327538495249954
 28.1859937814501045 37.4283211689214923 28.6327538495249954
 25.3674239674301170 37.4283211689214923 28.6327538495249954
 22.5487695954701017 37.4283211689214923 28.6327538495249954
 70.4649217056581421 13.0185655968439828 28.6327538495249954
 14.0929755954701115 37.4283211689214923 28.6327538495249954
 11.2744057814501097 37.4283211689214923 28.6327538495249954
 73.2835760776181360 13.0185655968439828 28.6327538495249954
 76.1021458916381448 13.0185655968439828 28.6327538495249954
 -8.4557520325698885 37.4283211689214923 28.6327538495249954
 -1.4092850356894804 15.4595191852497500 28.6327538495249954
 -11.2744064045298860 37.4283211689214923 28.6327538495249954
  1.4092847783305213 15.4595191852497500 28.6327538495249954
 52.1440908947577384 34.9873675805157234 28.6327538495249954
 49.3254365227977445 34.9873675805157234 28.6327538495249954
 56.3719455954701161 37.4283211689214923 28.6327538495249954
 42.2789698916381340 13.0185655968439828 28.6327538495249954
 59.1905999674301100 37.4283211689214923 28.6327538495249954
 39.4604000776181465 13.0185655968439828 28.6327538495249954
 60.5998848541225001 39.8692747573272612 28.6327538495249954
 57.7813150401024913 39.8692747573272612 28.6327538495249954
 43.6882968541224912 39.8692747573272612 28.6327538495249954
 40.8697270401024966 39.8692747573272612 28.6327538495249954
 38.0510726681424956 39.8692747573272612 28.6327538495249954
 35.2325028541224938 39.8692747573272612 28.6327538495249954
 29.5952786681424982 39.8692747573272612 28.6327538495249954
 26.7767088541224823 39.8692747573272612 28.6327538495249954
 15.5023450401024956 39.8692747573272612 28.6327538495249954
 11.2743637056581409 13.0185655968439828 28.6327538495249954
 12.6836906681424875 39.8692747573272612 28.6327538495249954
  9.8651208541224857 39.8692747573272612 28.6327538495249954
  7.0465510401024849 39.8692747573272612 28.6327538495249954
 -1.4092429598975091 39.8692747573272612 28.6327538495249954
 16.9115878916381419 13.0185655968439828 28.6327538495249954
 -7.0464671458775081 39.8692747573272612 28.6327538495249954
 -9.8650369598975125 39.8692747573272612 28.6327538495249954
 25.3673818916381357 13.0185655968439828 28.6327538495249954
 -21.1394853318575109 39.8692747573272612 28.6327538495249954
 62.0091697814501188 37.4283211689214923 28.6327538495249954
 14.0930180776181420 13.0185655968439828 28.6327538495249954
 42.2789694040103896 71.6020375533019688 28.6327538495249954
