 H  O 
 1.0000000000000000
    84.5579400000000021    0.0000000000000000    0.0000000000000000
   -42.2789706095346958   73.2293399455724767    0.0000000000000000
     0.0000000000000000    0.0000000000000000   46.9039550000000034
 H   O  
 256 342
Cartesian
 -0.0000000135450799  1.6273023922705114 28.1128704123049964
 39.4603152894093299 40.6829991828024689 28.1128704123049964
  8.4557936613693432 40.6829991828024689 28.1128704123049964
 -0.0000003386306579 40.6829991828024689 28.1128704123049964
 -2.8186547105906588 40.6829991828024689 28.1128704123049964
 -14.0930185246106596 40.6829991828024689 28.1128704123049964
 60.5998848676675763 38.2419723650567462 28.1128704123049964
 57.7812304957075682 38.2419723650567462 28.1128704123049964
 52.1440908676675789 38.2419723650567462 28.1128704123049964
 56.3719032894093317 40.6829991828024689 28.1128704123049964
 32.4138484957075690 38.2419723650567462 28.1128704123049964
 12.6836906816875779 38.2419723650567462 28.1128704123049964
  1.4093268676675752 38.2419723650567462 28.1128704123049964
 -1.4093275042924258 38.2419723650567462 28.1128704123049964
 -7.0464671323324293 38.2419723650567462 28.1128704123049964
 -12.6836913183124267 38.2419723650567462 28.1128704123049964
 62.0091697949951950 35.8010187766509844 28.1128704123049964
 39.4603576090151904 35.8010187766509844 28.1128704123049964
 36.6417877949951958 35.8010187766509844 28.1128704123049964
 26.7767088676675797 38.2419723650567462 28.1128704123049964
 -15.5023034519382783 43.1239527712082307 28.1128704123049964
 -12.6837336379182783 43.1239527712082307 28.1128704123049964
 -7.0465094519382783 43.1239527712082307 28.1128704123049964
  7.0464664144358764 48.0059331773597151 28.1128704123049964
  4.2278966004158747 48.0059331773597151 28.1128704123049964
 -4.2278973995841262 48.0059331773597151 28.1128704123049964
 -23.9581397715441291 48.0059331773597151 28.1128704123049964
 -26.7767095855641273 48.0059331773597151 28.1128704123049964
 56.3719878067141025 45.5649063596139996 28.1128704123049964
 47.9161938067141051 45.5649063596139996 28.1128704123049964
 45.0975394347540970 45.5649063596139996 28.1128704123049964
 31.0046058067141033 45.5649063596139996 28.1128704123049964
 19.7301574347541049 45.5649063596139996 28.1128704123049964
 14.0930178067140996 45.5649063596139996 28.1128704123049964
  8.4557936207341040 45.5649063596139996 28.1128704123049964
 -11.2743641932859031 45.5649063596139996 28.1128704123049964
 -14.0930185652459006 45.5649063596139996 28.1128704123049964
 49.3254787340417238 43.1239527712082307 28.1128704123049964
 46.5068243620817157 43.1239527712082307 28.1128704123049964
 35.2324605480617166 43.1239527712082307 28.1128704123049964
 21.1394423620817271 43.1239527712082307 28.1128704123049964
  7.0465087340417254 43.1239527712082307 28.1128704123049964
 25.3673394230351938 35.8010187766509844 28.1128704123049964
 16.9115454230351894 35.8010187766509844 28.1128704123049964
  5.6371816090151947 35.8010187766509844 28.1128704123049964
 49.3254365363428136 33.3600651882452155 28.1128704123049964
 -1.4092851440513405 28.4780847820937346 28.1128704123049964
 -9.8650791440513395 28.4780847820937346 28.1128704123049964
 -12.6837335160113369 28.4780847820937346 28.1128704123049964
 64.8276974113162794 26.0371311936879657 28.1128704123049964
 62.0091275972962777 26.0371311936879657 28.1128704123049964
 36.6417455972962784 26.0371311936879657 28.1128704123049964
 22.5487274113162819 26.0371311936879657 28.1128704123049964
 16.9115877832762855 26.0371311936879657 28.1128704123049964
 11.2743635972962863 26.0371311936879657 28.1128704123049964
  5.6371394113162827 26.0371311936879657 28.1128704123049964
  2.8185695972962814 26.0371311936879657 28.1128704123049964
 -8.4557942167237172 26.0371311936879657 28.1128704123049964
 66.2370246176145088 23.5961043759422537 28.1128704123049964
 63.4184548035945070 23.5961043759422537 28.1128704123049964
 54.9626608035945097 23.5961043759422537 28.1128704123049964
 52.1440909895745008 23.5961043759422537 28.1128704123049964
 46.5068668035945052 23.5961043759422537 28.1128704123049964
 40.8696426176145025 23.5961043759422537 28.1128704123049964
 29.5952788035945140 23.5961043759422537 28.1128704123049964
 26.7766666699686624 28.4780847820937346 28.1128704123049964
 18.3208302284558755 48.0059331773597151 28.1128704123049964
 29.5952364839886641 28.4780847820937346 28.1128704123049964
 49.3254788559486528 28.4780847820937346 28.1128704123049964
 46.5068667223228047 33.3600651882452155 28.1128704123049964
 40.8696425363428091 33.3600651882452155 28.1128704123049964
 38.0510727223228145 33.3600651882452155 28.1128704123049964
 29.5952787223228171 33.3600651882452155 28.1128704123049964
 26.7766243503628161 33.3600651882452155 28.1128704123049964
 -1.4093274636571897 33.3600651882452155 28.1128704123049964
 -12.6836912776771893 33.3600651882452155 28.1128704123049964
 -18.3209154636571903 33.3600651882452155 28.1128704123049964
 53.5533335566610376 30.9190383704995000 28.1128704123049964
 39.4603999286210438 30.9190383704995000 28.1128704123049964
 28.1859515566610455 30.9190383704995000 28.1128704123049964
 25.3673817426410437 30.9190383704995000 28.1128704123049964
 14.0930179286210446 30.9190383704995000 28.1128704123049964
  8.4557937426410454 30.9190383704995000 28.1128704123049964
 -5.6372244433389582 30.9190383704995000 28.1128704123049964
 -11.2743640713789581 30.9190383704995000 28.1128704123049964
 -14.0930184433389574 30.9190383704995000 28.1128704123049964
 63.4184124839886536 28.4780847820937346 28.1128704123049964
 57.7812728559486644 28.4780847820937346 28.1128704123049964
 43.6882546699686571 28.4780847820937346 28.1128704123049964
  4.2278968035945095 23.5961043759422537 28.1128704123049964
 21.1394846004158765 48.0059331773597151 28.1128704123049964
 29.5952786004158739 48.0059331773597151 28.1128704123049964
 -8.4558368207786891 65.0927547548799765 28.1128704123049964
 -16.9116308207786865 65.0927547548799765 28.1128704123049964
 -19.7302006347986882 65.0927547548799765 28.1128704123049964
 -22.5487704488186900 65.0927547548799765 28.1128704123049964
 -25.3674248207786874 65.0927547548799765 28.1128704123049964
 -33.8232188207786848 65.0927547548799765 28.1128704123049964
 38.0510724785089351 62.6518011664742076 28.1128704123049964
 35.2324181065489270 62.6518011664742076 28.1128704123049964
 -2.8186126347986837 65.0927547548799765 28.1128704123049964
 23.9580542925289315 62.6518011664742076 28.1128704123049964
 15.5022602925289341 62.6518011664742076 28.1128704123049964
 -1.4093277074710613 62.6518011664742076 28.1128704123049964
 -18.3209157074710660 62.6518011664742076 28.1128704123049964
 -21.1394855214910677 62.6518011664742076 28.1128704123049964
 -29.5952795214910651 62.6518011664742076 28.1128704123049964
 -35.2325037074710679 62.6518011664742076 28.1128704123049964
 45.0975393128471538 60.2107743487284921 28.1128704123049964
 36.6417453128471564 60.2107743487284921 28.1128704123049964
 21.1394844785089369 62.6518011664742076 28.1128704123049964
  5.6371813652013136 65.0927547548799765 28.1128704123049964
 25.3673391792213039 65.0927547548799765 28.1128704123049964
 42.2789271792213057 65.0927547548799765 28.1128704123049964
 26.7766663042478434 72.4156887494372228 28.1128704123049964
 15.5023024902278443 72.4156887494372228 28.1128704123049964
  7.0465084902278479 72.4156887494372228 28.1128704123049964
 -7.0465096957521522 72.4156887494372228 28.1128704123049964
 -9.8650795097721549 72.4156887494372228 28.1128704123049964
 -12.6837338817321594 72.4156887494372228 28.1128704123049964
 -29.5953218817321577 72.4156887494372228 28.1128704123049964
 -35.2324615097721576 72.4156887494372228 28.1128704123049964
 42.2789694175554729 69.9747351610314468 28.1128704123049964
 33.8231754175554755 69.9747351610314468 28.1128704123049964
 -0.0000005824445366 69.9747351610314468 28.1128704123049964
 -11.2744489544045354 69.9747351610314468 28.1128704123049964
 29.5952784378736951 67.5337083432857384 28.1128704123049964
 15.5022602518936878 67.5337083432857384 28.1128704123049964
  1.4093266238536943 67.5337083432857384 28.1128704123049964
 -1.4093277481063067 67.5337083432857384 28.1128704123049964
 -15.5022613761463042 67.5337083432857384 28.1128704123049964
 -26.7767097481063061 67.5337083432857384 28.1128704123049964
 -38.0510735621263052 67.5337083432857384 28.1128704123049964
 33.8231754988271618 60.2107743487284921 28.1128704123049964
 31.0046056848071565 60.2107743487284921 28.1128704123049964
 25.3673814988271609 60.2107743487284921 28.1128704123049964
 22.5488116848071662 60.2107743487284921 28.1128704123049964
 43.6882967457606384 52.8878403541712458 28.1128704123049964
 15.5022603738006346 52.8878403541712458 28.1128704123049964
 -1.4093276261993704 52.8878403541712458 28.1128704123049964
 -4.2278974402193654 52.8878403541712458 28.1128704123049964
 -23.9580552542393690 52.8878403541712458 28.1128704123049964
 45.0975816730882570 50.4468867657654769 28.1128704123049964
 36.6417876730882455 50.4468867657654769 28.1128704123049964
 33.8231333011282445 50.4468867657654769 28.1128704123049964
 31.0045634871082498 50.4468867657654769 28.1128704123049964
 22.5487694871082525 50.4468867657654769 28.1128704123049964
 -0.0000426988717480 50.4468867657654769 28.1128704123049964
 -2.8186125128917427 50.4468867657654769 28.1128704123049964
 -8.4558366988717459 50.4468867657654769 28.1128704123049964
 -14.0929763269117494 50.4468867657654769 28.1128704123049964
 -22.5487703269117468 50.4468867657654769 28.1128704123049964
 -25.3674246988717442 50.4468867657654769 28.1128704123049964
 -28.1859945128917460 50.4468867657654769 28.1128704123049964
 40.8696424144358730 48.0059331773597151 28.1128704123049964
 32.4138484144358685 48.0059331773597151 28.1128704123049964
 46.5068665597806330 52.8878403541712458 28.1128704123049964
 26.7766242284558658 48.0059331773597151 28.1128704123049964
 49.3254363738006276 52.8878403541712458 28.1128704123049964
 -11.2744488324975958 55.3288671719169614 28.1128704123049964
 11.2743633128471661 60.2107743487284921 28.1128704123049964
  8.4557934988271644 60.2107743487284921 28.1128704123049964
  5.6372236848071626 60.2107743487284921 28.1128704123049964
 -11.2743643151928357 60.2107743487284921 28.1128704123049964
 -16.9115885011728366 60.2107743487284921 28.1128704123049964
 -19.7301583151928384 60.2107743487284921 28.1128704123049964
 35.2324604261547876 57.7698207603227232 28.1128704123049964
 23.9580966121347885 57.7698207603227232 28.1128704123049964
  7.0465086121347857 57.7698207603227232 28.1128704123049964
 -4.2279397598252162 57.7698207603227232 28.1128704123049964
 -9.8650793878652134 57.7698207603227232 28.1128704123049964
 -12.6837337598252144 57.7698207603227232 28.1128704123049964
 -23.9580975738452153 57.7698207603227232 28.1128704123049964
 50.7347635394624064 55.3288671719169614 28.1128704123049964
 47.9161091675023982 55.3288671719169614 28.1128704123049964
 28.1859513534823982 55.3288671719169614 28.1128704123049964
 22.5487271675023955 55.3288671719169614 28.1128704123049964
  8.4557935394624035 55.3288671719169614 28.1128704123049964
  5.6371391675024016 55.3288671719169614 28.1128704123049964
 -16.9115884605376010 55.3288671719169614 28.1128704123049964
 -4.2278971964054897 23.5961043759422537 28.1128704123049964
 -21.1394853183124276 38.2419723650567462 28.1128704123049964
 69.0555945941766822  4.0683292100162243 28.1128704123049964
 70.4649216785679755 16.2731703813850075 28.1128704123049964
 21.1394849661366919  4.0683292100162243 28.1128704123049964
 18.3208305941766909  4.0683292100162243 28.1128704123049964
 40.8696849778556057 13.8322167929792403 28.1128704123049964
  4.2278969255014500  8.9502363868277595 28.1128704123049964
 15.5022607801566892  4.0683292100162243 28.1128704123049964
 -4.2278971557702505 18.7141971991307194 28.1128704123049964
 -1.4093273417502492 18.7141971991307194 28.1128704123049964
 12.6836908442297531 18.7141971991307194 28.1128704123049964
 29.5952789661366928  4.0683292100162243 28.1128704123049964
 38.0510306058956047 13.8322167929792403 28.1128704123049964
 -1.4093272198433096  4.0683292100162243 28.1128704123049964
 18.3208304722697477 18.7141971991307194 28.1128704123049964
 23.9580969778556039 13.8322167929792403 28.1128704123049964
 23.9580546582497540 18.7141971991307194 28.1128704123049964
 18.3208727918756047 13.8322167929792403 28.1128704123049964
 81.7393701724349171  1.6273023922705114 28.1128704123049964
 76.1021459864549144  1.6273023922705114 28.1128704123049964
 49.3254366582497497 18.7141971991307194 28.1128704123049964
 59.1905579864549196  1.6273023922705114 28.1128704123049964
 19.7302000388090732  6.5092827984219914 28.1128704123049964
 52.1440064722697443 18.7141971991307194 28.1128704123049964
 52.1440487918755977 13.8322167929792403 28.1128704123049964
 62.0091276785679781 16.2731703813850075 28.1128704123049964
 22.5487698528290750  6.5092827984219914 28.1128704123049964
  2.8185696785679806 16.2731703813850075 28.1128704123049964
 14.0930180505279825 16.2731703813850075 28.1128704123049964
 33.8231336668490670  6.5092827984219914 28.1128704123049964
  5.6371818528290705  6.5092827984219914 28.1128704123049964
 16.9115878645479825 16.2731703813850075 28.1128704123049964
 -2.8185699494720202 16.2731703813850075 28.1128704123049964
 19.7301576785679771 16.2731703813850075 28.1128704123049964
 71.8742489661366903  4.0683292100162243 28.1128704123049964
 40.8696427801566955  4.0683292100162243 28.1128704123049964
 28.1859516785679780 16.2731703813850075 28.1128704123049964
 -8.4557941354520185 16.2731703813850075 28.1128704123049964
 63.4184549661366859  4.0683292100162243 28.1128704123049964
 53.5533760388090698  6.5092827984219914 28.1128704123049964
 60.5998005941766849  4.0683292100162243 28.1128704123049964
 57.7812307801566902  4.0683292100162243 28.1128704123049964
 67.6463096668490635  6.5092827984219914 28.1128704123049964
 46.5068669661366982  4.0683292100162243 28.1128704123049964
 56.3719880505279747 16.2731703813850075 28.1128704123049964
 76.1021036668490609  6.5092827984219914 28.1128704123049964
 33.8231758645479843 16.2731703813850075 28.1128704123049964
 12.6836486058956019 13.8322167929792403 28.1128704123049964
  7.0464667395214500  8.9502363868277595 28.1128704123049964
 26.7767091114814519  8.9502363868277595 28.1128704123049964
 60.5998851114814414  8.9502363868277595 28.1128704123049964
 47.9161095332232136 11.3912632045734714 28.1128704123049964
 25.3673819864549230  1.6273023922705114 28.1128704123049964
  5.6371395332232206 11.3912632045734714 28.1128704123049964
 16.9115879864549186  1.6273023922705114 28.1128704123049964
 -11.2744062690778684 21.1551507875364884 28.1128704123049964
 53.5533759169021195 21.1551507875364884 28.1128704123049964
 33.8231759864549275  1.6273023922705114 28.1128704123049964
 46.5068669255014484  8.9502363868277595 28.1128704123049964
 33.8231335449421309 21.1551507875364884 28.1128704123049964
 39.4603155332232234 11.3912632045734714 28.1128704123049964
 14.0930181724349168  1.6273023922705114 28.1128704123049964
 66.2370246582497515 18.7141971991307194 28.1128704123049964
 11.2744059169021327 21.1551507875364884 28.1128704123049964
 64.8276975332232155 11.3912632045734714 28.1128704123049964
 42.2789699051832244 11.3912632045734714 28.1128704123049964
 31.0045215332232189 11.3912632045734714 28.1128704123049964
  2.8185697192032206 11.3912632045734714 28.1128704123049964
 11.2743638004749194  1.6273023922705114 28.1128704123049964
 -7.0465092081243990 13.8322167929792403 28.1128704123049964
 49.3254367395214430  8.9502363868277595 28.1128704123049964
 59.1905155449421230 21.1551507875364884 28.1128704123049964
 56.3719881724349250  1.6273023922705114 28.1128704123049964
 56.3719035332232110 11.3912632045734714 28.1128704123049964
 53.5533338004749169  1.6273023922705114 28.1128704123049964
 23.9580544008907985 49.6332355696302230 28.6327538495249954
 -31.0046066600626737 56.9561695641874692 28.6327538495249954
 -28.1859522881026763 56.9561695641874692 28.6327538495249954
 52.1440907322155596 54.5151427464417537 28.6327538495249954
 29.5952785868707942 49.6332355696302230 28.6327538495249954
 49.3255209181955507 54.5151427464417537 28.6327538495249954
 66.2370247666116256  5.6956316022867357 28.6327538495249954
 63.4184549525916097  5.6956316022867357 28.6327538495249954
  5.6372237118973310 56.9561695641874692 28.6327538495249954
 67.6463942112439867  8.1365851906925037 28.6327538495249954
 21.1394845868707826 49.6332355696302230 28.6327538495249954
  7.0464664008907913 49.6332355696302230 28.6327538495249954
 49.3254367666116167  5.6956316022867357 28.6327538495249954
 69.0556791385716195  5.6956316022867357 28.6327538495249954
 40.8696427666115980  5.6956316022867357 28.6327538495249954
  8.4557935259173256 56.9561695641874692 28.6327538495249954
 70.4649640252639955  8.1365851906925037 28.6327538495249954
 22.5488117118973186 56.9561695641874692 28.6327538495249954
 -1.4093275991092098 49.6332355696302230 28.6327538495249954
 23.9580547666116068  5.6956316022867357 28.6327538495249954
 50.7347635259173302 56.9561695641874692 28.6327538495249954
 -29.5952372154302985 59.3971231525932382 28.6327538495249954
 -11.2743642881026744 56.9561695641874692 28.6327538495249954
 46.5068665462355568 54.5151427464417537 28.6327538495249954
 23.9581389181955480 54.5151427464417537 28.6327538495249954
 38.0510725462355595 54.5151427464417537 28.6327538495249954
 -21.1394854537644470 54.5151427464417537 28.6327538495249954
 -5.6371823404568273 52.0741891580359919 28.6327538495249954
 47.9161514735631755 52.0741891580359919 28.6327538495249954
 22.5487698392839881  8.1365851906925037 28.6327538495249954
 45.0975816595431809 52.0741891580359919 28.6327538495249954
 25.3674242112439856  8.1365851906925037 28.6327538495249954
 -19.7302005264368283 52.0741891580359919 28.6327538495249954
 -2.8186125264368322 52.0741891580359919 28.6327538495249954
 28.1859940252639873  8.1365851906925037 28.6327538495249954
 33.8232178455231747 52.0741891580359919 28.6327538495249954
 25.3674238455231631 52.0741891580359919 28.6327538495249954
  0.0000418455231652 52.0741891580359919 28.6327538495249954
 22.5487694735631763 52.0741891580359919 28.6327538495249954
 14.0929754735631594 52.0741891580359919 28.6327538495249954
 36.6417876595431693 52.0741891580359919 28.6327538495249954
 -18.3208310818044460 54.5151427464417537 28.6327538495249954
  5.6371818392839907  8.1365851906925037 28.6327538495249954
 -15.5022612677844460 54.5151427464417537 28.6327538495249954
 32.4138484008907994 49.6332355696302230 28.6327538495249954
 62.0091700252639910  8.1365851906925037 28.6327538495249954
 35.2325027728508005 49.6332355696302230 28.6327538495249954
 19.7301996595431604 52.0741891580359919 28.6327538495249954
 77.5114731385716169  5.6956316022867357 28.6327538495249954
 12.6836905462355407 54.5151427464417537 28.6327538495249954
 80.3300429525916257  5.6956316022867357 28.6327538495249954
  2.8186120252639890  8.1365851906925037 28.6327538495249954
 -1.4092430818044526 54.5151427464417537 28.6327538495249954
 -4.2278974537644496 54.5151427464417537 28.6327538495249954
 -7.0464672677844442 54.5151427464417537 28.6327538495249954
 -25.3673401544768282 52.0741891580359919 28.6327538495249954
 47.9161518392839980  8.1365851906925037 28.6327538495249954
 -22.5487703404568300 52.0741891580359919 28.6327538495249954
 -12.6836914537644478 54.5151427464417537 28.6327538495249954
 64.8277398392839928  8.1365851906925037 28.6327538495249954
 21.1394849525916122  5.6956316022867357 28.6327538495249954
  2.8186119033570516 22.7824531798069998 28.6327538495249954
 -9.8650794014102949 59.3971231525932382 28.6327538495249954
 -26.7766252037113830 69.1610107355562462 28.6327538495249954
 -29.5952795756713840 69.1610107355562462 28.6327538495249954
 -32.4138493896913857 69.1610107355562462 28.6327538495249954
 45.0975815376362448 66.7200571471504844 28.6327538495249954
 42.2790117236162359 66.7200571471504844 28.6327538495249954
 31.0045633516562411 66.7200571471504844 28.6327538495249954
 54.9627032721974516  0.8136511961352557 28.6327538495249954
 28.1859935376362323 66.7200571471504844 28.6327538495249954
 16.9116297236162261 66.7200571471504844 28.6327538495249954
 14.0929753516562410 66.7200571471504844 28.6327538495249954
 57.7812730862174604  0.8136511961352557 28.6327538495249954
  0.0000417236162395 66.7200571471504844 28.6327538495249954
 -2.8186126483437688 66.7200571471504844 28.6327538495249954
 -16.9115462763837670 66.7200571471504844 28.6327538495249954
 -25.3673402763837679 66.7200571471504844 28.6327538495249954
 -28.1859946483437653 66.7200571471504844 28.6327538495249954
 -31.0045644623637671 66.7200571471504844 28.6327538495249954
 83.1486550862174738  0.8136511961352557 28.6327538495249954
 43.6882966509438617 64.2791035587447084 28.6327538495249954
 -15.5022613896913821 69.1610107355562462 28.6327538495249954
 40.8696422789838678 64.2791035587447084 28.6327538495249954
 -12.6836915756713875 69.1610107355562462 28.6327538495249954
 52.1440489002374647  0.8136511961352557 28.6327538495249954
 12.6837332721974576  0.8136511961352557 28.6327538495249954
  8.4557934040103735 71.6020375533019688 28.6327538495249954
  5.6372235899903860 71.6020375533019688 28.6327538495249954
 -8.4557945959896212 71.6020375533019688 28.6327538495249954
 -11.2743644100096230 71.6020375533019688 28.6327538495249954
 32.4138910862174541  0.8136511961352557 28.6327538495249954
 -33.8231765959896151 71.6020375533019688 28.6327538495249954
 35.2324609002374558  0.8136511961352557 28.6327538495249954
 -36.6417464100096169 71.6020375533019688 28.6327538495249954
 43.6882966103086261 69.1610107355562462 28.6327538495249954
 38.0511152721974639  0.8136511961352557 28.6327538495249954
 40.8697267962886173 69.1610107355562462 28.6327538495249954
 49.3254790862174488  0.8136511961352557 28.6327538495249954
 32.4139327962886199 69.1610107355562462 28.6327538495249954
 29.5952784243286260 69.1610107355562462 28.6327538495249954
 18.3209146103086198 69.1610107355562462 28.6327538495249954
 15.5023447962886092 69.1610107355562462 28.6327538495249954
  4.2278964243286037 69.1610107355562462 28.6327538495249954
  1.4093266103086164 69.1610107355562462 28.6327538495249954
 -9.8650372037113900 69.1610107355562462 28.6327538495249954
 -15.5023035873902977 59.3971231525932382 28.6327538495249954
 32.4138482789838704 64.2791035587447084 28.6327538495249954
 -0.0000000270901599  3.2546047845410229 28.6327538495249954
 50.7347639729098461  3.2546047845410229 28.6327538495249954
 -2.8185703287379194 61.8380767409990000 28.6327538495249954
 -5.6371401427579215 61.8380767409990000 28.6327538495249954
 -16.9115885147179164 61.8380767409990000 28.6327538495249954
 -19.7301583287379145 61.8380767409990000 28.6327538495249954
 59.1905579729098434  3.2546047845410229 28.6327538495249954
 62.0092123448698445  3.2546047845410229 28.6327538495249954
 76.1021882112439840  8.1365851906925037 28.6327538495249954
 35.2324604126097114 59.3971231525932382 28.6327538495249954
 70.4650063448698489  3.2546047845410229 28.6327538495249954
 32.4138905985897026 59.3971231525932382 28.6327538495249954
 81.7393701588898551  3.2546047845410229 28.6327538495249954
 23.9580965985897052 59.3971231525932382 28.6327538495249954
  4.2278969525916086  5.6956316022867357 28.6327538495249954
  9.8650784126096909 59.3971231525932382 28.6327538495249954
  7.0464667666116103  5.6956316022867357 28.6327538495249954
  7.0465085985897025 59.3971231525932382 28.6327538495249954
 18.3209151385716105  5.6956316022867357 28.6327538495249954
  4.2279387845697078 59.3971231525932382 28.6327538495249954
 -0.0000005147179177 61.8380767409990000 28.6327538495249954
 29.5952784649638616 64.2791035587447084 28.6327538495249954
 14.0930176712620749 61.8380767409990000 28.6327538495249954
 16.9115874852820909 61.8380767409990000 28.6327538495249954
 23.9580542789838589 64.2791035587447084 28.6327538495249954
 18.3209146509438554 64.2791035587447084 28.6327538495249954
 15.5022602789838597 64.2791035587447084 28.6327538495249954
 12.6836904649638509 64.2791035587447084 28.6327538495249954
  7.0464662789838490 64.2791035587447084 28.6327538495249954
 14.0930181588898407  3.2546047845410229 28.6327538495249954
 -4.2278975350361501 64.2791035587447084 28.6327538495249954
 16.9115879729098388  3.2546047845410229 28.6327538495249954
 -18.3209157210161457 64.2791035587447084 28.6327538495249954
 19.7302423448698399  3.2546047845410229 28.6327538495249954
 -21.1394855350361439 64.2791035587447084 28.6327538495249954
 -23.9580553490561456 64.2791035587447084 28.6327538495249954
 36.6418303448698452  3.2546047845410229 28.6327538495249954
 -35.2325037210161440 64.2791035587447084 28.6327538495249954
 39.4603996712620955 61.8380767409990000 28.6327538495249954
 39.4604001588898399  3.2546047845410229 28.6327538495249954
 36.6418298572420866 61.8380767409990000 28.6327538495249954
 42.2789699729098274  3.2546047845410229 28.6327538495249954
 22.5488116712620865 61.8380767409990000 28.6327538495249954
 47.9161941588898301  3.2546047845410229 28.6327538495249954
 -4.2278974131292042 49.6332355696302230 28.6327538495249954
 40.8697272839163759 10.5775387790982709 28.6327538495249954
 -12.6836914131292051 49.6332355696302230 28.6327538495249954
 -14.0929338989440378 32.5463407627700150 28.6327538495249954
 -5.6371397770370981 17.9004727736555189 28.6327538495249954
 54.9627030283835865 30.1053871743642461 28.6327538495249954
 -2.8185699630171004 17.9004727736555189 28.6327538495249954
 26.7766666564235685 30.1053871743642461 28.6327538495249954
 11.2744482229629011 17.9004727736555189 28.6327538495249954
 15.5023028424035783 30.1053871743642461 28.6327538495249954
 12.6837330283835765 30.1053871743642461 28.6327538495249954
  9.8650786564235791 30.1053871743642461 28.6327538495249954
 14.0930180369829028 17.9004727736555189 28.6327538495249954
  7.0465088424035836 30.1053871743642461 28.6327538495249954
 -1.4092851575964171 30.1053871743642461 28.6327538495249954
 -4.2278549716164209 30.1053871743642461 28.6327538495249954
 16.9115878510028992 17.9004727736555189 28.6327538495249954
 -9.8650791575964192 30.1053871743642461 28.6327538495249954
 -12.6836489716164174 30.1053871743642461 28.6327538495249954
 -15.5023033435764184 30.1053871743642461 28.6327538495249954
 64.8277819557112025 27.6644335859584807 28.6327538495249954
 28.1860362229629082 17.9004727736555189 28.6327538495249954
 -8.4557941489970982 17.9004727736555189 28.6327538495249954
 -11.2743640849240396 32.5463407627700150 28.6327538495249954
 -2.8185700849240374 32.5463407627700150 28.6327538495249954
 74.6928609643105261 15.4595191852497500 28.6327538495249954
 40.8696849643105153 15.4595191852497500 28.6327538495249954
 21.1394847087777364 34.9873675805157234 28.6327538495249954
 18.3209148947577418 34.9873675805157234 28.6327538495249954
 52.1440487783305286 15.4595191852497500 28.6327538495249954
 15.5022605227977337 34.9873675805157234 28.6327538495249954
  7.0464665227977319 34.9873675805157234 28.6327538495249954
 54.9627031502905297 15.4595191852497500 28.6327538495249954
 -18.3209154772022664 34.9873675805157234 28.6327538495249954
 53.5534181010559607 32.5463407627700150 28.6327538495249954
 59.1905577697312140 27.6644335859584807 28.6327538495249954
 50.7347637290959668 32.5463407627700150 28.6327538495249954
 45.0976241010559633 32.5463407627700150 28.6327538495249954
 42.2789697290959623 32.5463407627700150 28.6327538495249954
 63.4184971502905270 15.4595191852497500 28.6327538495249954
 39.4603999150759606 32.5463407627700150 28.6327538495249954
 66.2370669643105288 15.4595191852497500 28.6327538495249954
 69.0556367783305234 15.4595191852497500 28.6327538495249954
 28.1860361010559650 32.5463407627700150 28.6327538495249954
  8.4557937290959586 32.5463407627700150 28.6327538495249954
 -0.0000002709040391 32.5463407627700150 28.6327538495249954
 47.9161939150759579 32.5463407627700150 28.6327538495249954
 35.2325028947577295 34.9873675805157234 28.6327538495249954
 33.8231758510028868 17.9004727736555189 28.6327538495249954
 50.7347638510029029 17.9004727736555189 28.6327538495249954
  4.2278967900494315 25.2234067682127652 28.6327538495249954
 12.6836908306846716 20.3414995914012344 28.6327538495249954
  1.4093269760294336 25.2234067682127652 28.6327538495249954
 23.9580546447046672 20.3414995914012344 28.6327538495249954
 -9.8650368379905675 25.2234067682127652 28.6327538495249954
 26.7767090166646753 20.3414995914012344 28.6327538495249954
 64.8277397173770566 22.7824531798069998 28.6327538495249954
 29.5952788306846699 20.3414995914012344 28.6327538495249954
 32.4138486447046574 20.3414995914012344 28.6327538495249954
 53.5533759033570504 22.7824531798069998 28.6327538495249954
 50.7348060893370558 22.7824531798069998 28.6327538495249954
 52.1440910166646745 20.3414995914012344 28.6327538495249954
 45.0975819033570531 22.7824531798069998 28.6327538495249954
 42.2790120893370442 22.7824531798069998 28.6327538495249954
 39.4603577173770574 22.7824531798069998 28.6327538495249954
 54.9626608306846691 20.3414995914012344 28.6327538495249954
 28.1859939033570512 22.7824531798069998 28.6327538495249954
 25.3674240893370566 22.7824531798069998 28.6327538495249954
  5.6371817173770493 22.7824531798069998 28.6327538495249954
  7.0465511620094325 25.2234067682127652 28.6327538495249954
 -1.4093273552953294 20.3414995914012344 28.6327538495249954
 15.5023451620094264 25.2234067682127652 28.6327538495249954
 -7.0464669833353293 20.3414995914012344 28.6327538495249954
 39.4603999557111962 27.6644335859584807 28.6327538495249954
 28.1859515837511907 27.6644335859584807 28.6327538495249954
 53.5534182229629039 17.9004727736555189 28.6327538495249954
 16.9115877697311987 27.6644335859584807 28.6327538495249954
  5.6372239557112023 27.6644335859584807 28.6327538495249954
 -0.0000002302687971 27.6644335859584807 28.6327538495249954
 62.0092122229629013 17.9004727736555189 28.6327538495249954
 -2.8185700442888009 27.6644335859584807 28.6327538495249954
 64.8277820369829101 17.9004727736555189 28.6327538495249954
 53.5533335837512112 27.6644335859584807 28.6327538495249954
 -11.2743640442888005 27.6644335859584807 28.6327538495249954
 67.6463518510029047 17.9004727736555189 28.6327538495249954
 63.4184547900494380 25.2234067682127652 28.6327538495249954
 70.4650062229628986 17.9004727736555189 28.6327538495249954
 60.5998849760294434 25.2234067682127652 28.6327538495249954
 40.8697271620094256 25.2234067682127652 28.6327538495249954
 38.0510727900494388 25.2234067682127652 28.6327538495249954
 26.7767089760294326 25.2234067682127652 28.6327538495249954
 23.9581391620094379 25.2234067682127652 28.6327538495249954
 -9.8651213552953294 20.3414995914012344 28.6327538495249954
 -14.0930184162487979 27.6644335859584807 28.6327538495249954
 38.0511151502905278 15.4595191852497500 28.6327538495249954
 38.0510727087777383 34.9873675805157234 28.6327538495249954
 35.2324607783305126 15.4595191852497500 28.6327538495249954
 21.1395269064766467 44.7512551634787386 28.6327538495249954
 14.0930180776181420 13.0185655968439828 28.6327538495249954
 12.6837329064766493 44.7512551634787386 28.6327538495249954
  9.8650785345166412 44.7512551634787386 28.6327538495249954
  7.0465087204966403 44.7512551634787386 28.6327538495249954
 -12.6836490935233588 44.7512551634787386 28.6327538495249954
 33.8231758916381438 13.0185655968439828 28.6327538495249954
 -15.5023034654833562 44.7512551634787386 28.6327538495249954
 50.7347636478242734 42.3103015750729767 28.6327538495249954
 36.6417457056581313 13.0185655968439828 28.6327538495249954
 47.9161938338042646 42.3103015750729767 28.6327538495249954
 45.0975394618442706 42.3103015750729767 28.6327538495249954
 39.4604000776181465 13.0185655968439828 28.6327538495249954
 33.8231756478242644 42.3103015750729767 28.6327538495249954
 31.0046058338042556 42.3103015750729767 28.6327538495249954
 22.5488118338042653 42.3103015750729767 28.6327538495249954
 19.7301574618442501 42.3103015750729767 28.6327538495249954
  8.4557936478242581 42.3103015750729767 28.6327538495249954
 42.2789698916381340 13.0185655968439828 28.6327538495249954
 11.2743637056581409 13.0185655968439828 28.6327538495249954
 43.6882545345166520 44.7512551634787386 28.6327538495249954
 46.5069089064766459 44.7512551634787386 28.6327538495249954
 69.0556790979363768 10.5775387790982709 28.6327538495249954
  4.2278969119563712 10.5775387790982709 28.6327538495249954
 -23.9580552271492060 49.6332355696302230 28.6327538495249954
 -26.7767095991092070 49.6332355696302230 28.6327538495249954
  7.0465512839163686 10.5775387790982709 28.6327538495249954
 56.3719877931690334 47.1922087518845075 28.6327538495249954
 45.0976239791490272 47.1922087518845075 28.6327538495249954
 26.7767090979363651 10.5775387790982709 28.6327538495249954
 39.4603997931690245 47.1922087518845075 28.6327538495249954
 29.5952789119563668 10.5775387790982709 28.6327538495249954
  5.6372238338042564 42.3103015750729767 28.6327538495249954
 31.0046057931690235 47.1922087518845075 28.6327538495249954
 22.5488117931690120 47.1922087518845075 28.6327538495249954
 19.7302419791490244 47.1922087518845075 28.6327538495249954
 63.4184548306846807 20.3414995914012344 28.6327538495249954
  8.4557936071890190 47.1922087518845075 28.6327538495249954
  5.6372237931690181 47.1922087518845075 28.6327538495249954
 52.1440910979363750 10.5775387790982709 28.6327538495249954
 -14.0929340208509810 47.1922087518845075 28.6327538495249954
 54.9626609119563767 10.5775387790982709 28.6327538495249954
 -25.3673823928109776 47.1922087518845075 28.6327538495249954
 38.0510729119563607 10.5775387790982709 28.6327538495249954
 -2.8185701661957374 42.3103015750729767 28.6327538495249954
 -5.6372245381557384 42.3103015750729767 28.6327538495249954
 50.7347638916381456 13.0185655968439828 28.6327538495249954
 56.3719455954701161 37.4283211689214923 28.6327538495249954
 12.6837331502905215 15.4595191852497500 28.6327538495249954
 47.9161515954701187 37.4283211689214923 28.6327538495249954
 45.0975817814501099 37.4283211689214923 28.6327538495249954
 36.6417877814501125 37.4283211689214923 28.6327538495249954
 33.8232179674301037 37.4283211689214923 28.6327538495249954
 31.0045635954701204 37.4283211689214923 28.6327538495249954
 15.5023029643105232 15.4595191852497500 28.6327538495249954
 22.5487695954701017 37.4283211689214923 28.6327538495249954
  4.2279391502905188 15.4595191852497500 28.6327538495249954
 19.7301997814501142 37.4283211689214923 28.6327538495249954
 18.3208727783305179 15.4595191852497500 28.6327538495249954
  0.0000419674301133 37.4283211689214923 28.6327538495249954
 -2.8186124045298877 37.4283211689214923 28.6327538495249954
 32.4138909643105251 15.4595191852497500 28.6327538495249954
 28.1859512180303895 71.6020375533019688 28.6327538495249954
 63.4184547087777446 34.9873675805157234 28.6327538495249954
 60.5998848947577358 34.9873675805157234 28.6327538495249954
 49.3254365227977445 34.9873675805157234 28.6327538495249954
 40.8696425227977400 34.9873675805157234 28.6327538495249954
 14.0929755954701115 37.4283211689214923 28.6327538495249954
 -1.4092427160836287 10.5775387790982709 28.6327538495249954
 59.1905999674301100 37.4283211689214923 28.6327538495249954
 -1.4092850356894804 15.4595191852497500 28.6327538495249954
 -11.2743641661957401 42.3103015750729767 28.6327538495249954
 -14.0930185381557376 42.3103015750729767 28.6327538495249954
 53.5533337056581473 13.0185655968439828 28.6327538495249954
 -16.9115883521757375 42.3103015750729767 28.6327538495249954
 60.5998848541225001 39.8692747573272612 28.6327538495249954
 57.7813150401024913 39.8692747573272612 28.6327538495249954
 56.3719880776181483 13.0185655968439828 28.6327538495249954
 54.9626606681424974 39.8692747573272612 28.6327538495249954
 73.2835760776181360 13.0185655968439828 28.6327538495249954
 62.0091697814501188 37.4283211689214923 28.6327538495249954
 32.4139330401024850 39.8692747573272612 28.6327538495249954
 21.1394846681424795 39.8692747573272612 28.6327538495249954
 18.3209148541224920 39.8692747573272612 28.6327538495249954
  9.8651208541224857 39.8692747573272612 28.6327538495249954
  7.0465510401024849 39.8692747573272612 28.6327538495249954
  1.4093268541224926 39.8692747573272612 28.6327538495249954
 -7.0465092216694787 15.4595191852497500 28.6327538495249954
 -1.4092429598975091 39.8692747573272612 28.6327538495249954
 -4.2278973318575099 39.8692747573272612 28.6327538495249954
 -12.6836913318575100 39.8692747573272612 28.6327538495249954
 29.5952786681424982 39.8692747573272612 28.6327538495249954
 31.0046055899903834 71.6020375533019688 28.6327538495249954
