 H  O 
 1.0000000000000000
    84.5579400000000021    0.0000000000000000    0.0000000000000000
   -42.2789706095346958   73.2293399455724767    0.0000000000000000
     0.0000000000000000    0.0000000000000000   46.9039550000000034
 H   O  
 188 336
Cartesian
 18.3209148676675753 38.2419723650567462 28.1128704123049964
 60.5998003503628055 33.3600651882452155 28.1128704123049964
 -2.8186123909848098 35.8010187766509844 28.1128704123049964
  5.6371816090151947 35.8010187766509844 28.1128704123049964
 14.0929756090151947 35.8010187766509844 28.1128704123049964
 16.9115454230351894 35.8010187766509844 28.1128704123049964
 22.5487696090151921 35.8010187766509844 28.1128704123049964
 28.1859937949951949 35.8010187766509844 28.1128704123049964
 36.6417877949951958 35.8010187766509844 28.1128704123049964
 42.2789274230351850 35.8010187766509844 28.1128704123049964
 59.1905154230351869 35.8010187766509844 28.1128704123049964
 62.0091697949951950 35.8010187766509844 28.1128704123049964
  9.8651208676675761 38.2419723650567462 28.1128704123049964
 29.5952361182678381 72.4156887494372228 28.1128704123049964
 26.7767088676675797 38.2419723650567462 28.1128704123049964
 29.5952786816875744 38.2419723650567462 28.1128704123049964
 46.5068666816875762 38.2419723650567462 28.1128704123049964
 -11.2744487105906597 40.6829991828024689 28.1128704123049964
 46.5068243620817157 43.1239527712082307 28.1128704123049964
 32.4138907340417219 43.1239527712082307 28.1128704123049964
 29.5952363620817174 43.1239527712082307 28.1128704123049964
 26.7766665480617228 43.1239527712082307 28.1128704123049964
 21.1394423620817271 43.1239527712082307 28.1128704123049964
 12.6836483620817209 43.1239527712082307 28.1128704123049964
 54.9626607223228163 33.3600651882452155 28.1128704123049964
  1.4092845480617260 43.1239527712082307 28.1128704123049964
 -15.5023034519382783 43.1239527712082307 28.1128704123049964
 -21.1395276379182775 43.1239527712082307 28.1128704123049964
 50.7347636613693425 40.6829991828024689 28.1128704123049964
 39.4603152894093299 40.6829991828024689 28.1128704123049964
 22.5487272894093422 40.6829991828024689 28.1128704123049964
  2.8185694753893440 40.6829991828024689 28.1128704123049964
 -9.8650792659582809 43.1239527712082307 28.1128704123049964
 49.3254365363428136 33.3600651882452155 28.1128704123049964
 46.5068667223228047 33.3600651882452155 28.1128704123049964
 29.5952787223228171 33.3600651882452155 28.1128704123049964
 59.1905577832762830 26.0371311936879657 28.1128704123049964
 53.5533335972962803 26.0371311936879657 28.1128704123049964
 50.7347637832762715 26.0371311936879657 28.1128704123049964
  8.4557937832762846 26.0371311936879657 28.1128704123049964
 -0.0000002167237204 26.0371311936879657 28.1128704123049964
 69.0556789895745169 23.5961043759422537 28.1128704123049964
 -7.0465093300313377 28.4780847820937346 28.1128704123049964
 54.9626608035945097 23.5961043759422537 28.1128704123049964
 35.2325029895745132 23.5961043759422537 28.1128704123049964
 15.5022606176145086 23.5961043759422537 28.1128704123049964
  9.8651209895745122 23.5961043759422537 28.1128704123049964
  7.0464666176145112 23.5961043759422537 28.1128704123049964
 -9.8651213823854889 23.5961043759422537 28.1128704123049964
 70.4649639169021356 21.1551507875364884 28.1128704123049964
 40.8696426176145025 23.5961043759422537 28.1128704123049964
 54.9626183620817130 43.1239527712082307 28.1128704123049964
 -4.2279395160113378 28.4780847820937346 28.1128704123049964
 18.3208726699686650 28.4780847820937346 28.1128704123049964
  4.2278967223228134 33.3600651882452155 28.1128704123049964
 -1.4093274636571897 33.3600651882452155 28.1128704123049964
 -7.0465516496371885 33.3600651882452155 28.1128704123049964
 -9.8651214636571893 33.3600651882452155 28.1128704123049964
 -18.3209154636571903 33.3600651882452155 28.1128704123049964
 50.7347637426410429 30.9190383704995000 28.1128704123049964
 12.6836484839886605 28.4780847820937346 28.1128704123049964
 31.0046059286210465 30.9190383704995000 28.1128704123049964
 -11.2743640713789581 30.9190383704995000 28.1128704123049964
 63.4184124839886536 28.4780847820937346 28.1128704123049964
 46.5068244839886518 28.4780847820937346 28.1128704123049964
 40.8696848559486625 28.4780847820937346 28.1128704123049964
 32.4138908559486651 28.4780847820937346 28.1128704123049964
 26.7766666699686624 28.4780847820937346 28.1128704123049964
  2.8185695566610427 30.9190383704995000 28.1128704123049964
 -16.9115883792659005 45.5649063596139996 28.1128704123049964
 -8.4557943792659014 45.5649063596139996 28.1128704123049964
  5.6372238067141032 45.5649063596139996 28.1128704123049964
 -18.3209157481063052 67.5337083432857384 28.1128704123049964
 -21.1394855621263069 67.5337083432857384 28.1128704123049964
 -38.0510735621263052 67.5337083432857384 28.1128704123049964
 45.0975815511813138 65.0927547548799765 28.1128704123049964
 33.8231331792213084 65.0927547548799765 28.1128704123049964
 25.3673391792213039 65.0927547548799765 28.1128704123049964
 -15.5022613761463042 67.5337083432857384 28.1128704123049964
 16.9115451792213065 65.0927547548799765 28.1128704123049964
  2.8186115511813119 65.0927547548799765 28.1128704123049964
 -14.0929764488186855 65.0927547548799765 28.1128704123049964
 -25.3674248207786874 65.0927547548799765 28.1128704123049964
 -31.0045644488186873 65.0927547548799765 28.1128704123049964
 -36.6417886347986865 65.0927547548799765 28.1128704123049964
 40.8696422925289298 62.6518011664742076 28.1128704123049964
 11.2744055511813173 65.0927547548799765 28.1128704123049964
  4.2278964785089341 62.6518011664742076 28.1128704123049964
 -7.0464673761463033 67.5337083432857384 28.1128704123049964
  5.6371390455954664 69.9747351610314468 28.1128704123049964
 23.9580964902278346 72.4156887494372228 28.1128704123049964
 21.1394421182678336 72.4156887494372228 28.1128704123049964
  7.0465084902278479 72.4156887494372228 28.1128704123049964
  1.4092843042478451 72.4156887494372228 28.1128704123049964
 -4.2279398817321576 72.4156887494372228 28.1128704123049964
 -9.8650795097721549 72.4156887494372228 28.1128704123049964
 15.5022602518936878 67.5337083432857384 28.1128704123049964
 -18.3208735097721558 72.4156887494372228 28.1128704123049964
 -32.4138916957521559 72.4156887494372228 28.1128704123049964
 -38.0511158817321586 72.4156887494372228 28.1128704123049964
 36.6417452315754701 69.9747351610314468 28.1128704123049964
 28.1859512315754728 69.9747351610314468 28.1128704123049964
 22.5487270455954629 69.9747351610314468 28.1128704123049964
 16.9115874175554666 69.9747351610314468 28.1128704123049964
 -26.7766675097721567 72.4156887494372228 28.1128704123049964
 62.0091699169021311 21.1551507875364884 28.1128704123049964
 -4.2278975214910632 62.6518011664742076 28.1128704123049964
 -23.9581398934510652 62.6518011664742076 28.1128704123049964
  4.2278965597806355 52.8878403541712458 28.1128704123049964
 -1.4093276261993704 52.8878403541712458 28.1128704123049964
 -29.5952794402193682 52.8878403541712458 28.1128704123049964
 39.4603574871082543 50.4468867657654769 28.1128704123049964
 36.6417876730882455 50.4468867657654769 28.1128704123049964
 25.3673393011282471 50.4468867657654769 28.1128704123049964
 49.3254363738006276 52.8878403541712458 28.1128704123049964
 22.5487694871082525 50.4468867657654769 28.1128704123049964
 -14.0929763269117494 50.4468867657654769 28.1128704123049964
 52.1440062284558650 48.0059331773597151 28.1128704123049964
 43.6882122284558676 48.0059331773597151 28.1128704123049964
 -1.4093275855641247 48.0059331773597151 28.1128704123049964
 -18.3209155855641299 48.0059331773597151 28.1128704123049964
  8.4557936207341040 45.5649063596139996 28.1128704123049964
  8.4557513011282524 50.4468867657654769 28.1128704123049964
 -15.5023458934510643 62.6518011664742076 28.1128704123049964
 -11.2744488324975958 55.3288671719169614 28.1128704123049964
 11.2743633534824053 55.3288671719169614 28.1128704123049964
 36.6417453128471564 60.2107743487284921 28.1128704123049964
 33.8231754988271618 60.2107743487284921 28.1128704123049964
 28.1859513128471555 60.2107743487284921 28.1128704123049964
 14.0930176848071671 60.2107743487284921 28.1128704123049964
  8.4557934988271644 60.2107743487284921 28.1128704123049964
 -16.9115885011728366 60.2107743487284921 28.1128704123049964
  8.4557935394624035 55.3288671719169614 28.1128704123049964
 49.3254786121347877 57.7698207603227232 28.1128704123049964
 21.1394422401747804 57.7698207603227232 28.1128704123049964
 -4.2279397598252162 57.7698207603227232 28.1128704123049964
 -26.7766673878652135 57.7698207603227232 28.1128704123049964
 -32.4138915738452127 57.7698207603227232 28.1128704123049964
 36.6417453534824062 55.3288671719169614 28.1128704123049964
 16.9115875394624062 55.3288671719169614 28.1128704123049964
 43.6882544261547849 57.7698207603227232 28.1128704123049964
 50.7347215449421185 21.1551507875364884 28.1128704123049964
 38.0510301182678390 72.4156887494372228 28.1128704123049964
 -0.0000001354520196 16.2731703813850075 28.1128704123049964
 -2.8185699494720202 16.2731703813850075 28.1128704123049964
 43.6882971114814538  8.9502363868277595 28.1128704123049964
 16.9115879051832216 11.3912632045734714 28.1128704123049964
  5.6372240505279780 16.2731703813850075 28.1128704123049964
 14.0930180505279825 16.2731703813850075 28.1128704123049964
 21.1394848442297523 18.7141971991307194 28.1128704123049964
 28.1859940388090742  6.5092827984219914 28.1128704123049964
 36.6417457192032217 11.3912632045734714 28.1128704123049964
  9.8651211114814483  8.9502363868277595 28.1128704123049964
 64.8277820505279863 16.2731703813850075 28.1128704123049964
 62.0091276785679781 16.2731703813850075 28.1128704123049964
 73.2834915332232129 11.3912632045734714 28.1128704123049964
 76.1021459051832210 11.3912632045734714 28.1128704123049964
 53.5533336785679737 16.2731703813850075 28.1128704123049964
 -0.0000423331509293  6.5092827984219914 28.1128704123049964
 46.5068669661366982  4.0683292100162243 28.1128704123049964
 47.9161940505279844 16.2731703813850075 28.1128704123049964
 54.9626609661366956  4.0683292100162243 28.1128704123049964
 57.7812307801566902  4.0683292100162243 28.1128704123049964
 22.5488120505279817 16.2731703813850075 28.1128704123049964
 39.4604000505279870 16.2731703813850075 28.1128704123049964
 71.8742489661366903  4.0683292100162243 28.1128704123049964
 18.3209151114814510  8.9502363868277595 28.1128704123049964
 74.6928187801566850  4.0683292100162243 28.1128704123049964
 36.6417456785679860 16.2731703813850075 28.1128704123049964
  2.8185697192032206 11.3912632045734714 28.1128704123049964
 52.1440911114814512  8.9502363868277595 28.1128704123049964
 28.1859516785679780 16.2731703813850075 28.1128704123049964
 69.0556791114814530  8.9502363868277595 28.1128704123049964
 -2.8186544667767790 11.3912632045734714 28.1128704123049964
 60.5998851114814414  8.9502363868277595 28.1128704123049964
 57.7812729778555934 13.8322167929792403 28.1128704123049964
 67.6463519864549170  1.6273023922705114 28.1128704123049964
 -5.6372242807967794 11.3912632045734714 28.1128704123049964
 33.8231336668490670  6.5092827984219914 28.1128704123049964
  2.8186119169021282 21.1551507875364884 28.1128704123049964
 12.6836909661366875  4.0683292100162243 28.1128704123049964
 74.6928187395214422  8.9502363868277595 28.1128704123049964
 53.5533338004749169  1.6273023922705114 28.1128704123049964
 47.9161941724349276  1.6273023922705114 28.1128704123049964
 21.1394849661366919  4.0683292100162243 28.1128704123049964
 -1.4093272198433096  4.0683292100162243 28.1128704123049964
 59.1905579864549196  1.6273023922705114 28.1128704123049964
 -4.2278970744985491  8.9502363868277595 28.1128704123049964
 -7.0465095873903012 59.3971231525932382 28.6327538495249954
 33.8231755259173212 56.9561695641874692 28.6327538495249954
 16.9116302112439918  8.1365851906925037 28.6327538495249954
 -15.5023035873902977 59.3971231525932382 28.6327538495249954
 52.1440907322155596 54.5151427464417537 28.6327538495249954
  1.4092844126096999 59.3971231525932382 28.6327538495249954
  4.2279387845697078 59.3971231525932382 28.6327538495249954
 49.3255209181955507 54.5151427464417537 28.6327538495249954
 14.0929758392839890  8.1365851906925037 28.6327538495249954
 -4.2278552154303037 59.3971231525932382 28.6327538495249954
 -14.0930186600626755 56.9561695641874692 28.6327538495249954
 80.3300429525916257  5.6956316022867357 28.6327538495249954
 42.2789695259173328 56.9561695641874692 28.6327538495249954
 31.0046057118973302 56.9561695641874692 28.6327538495249954
 25.3673815259173274 56.9561695641874692 28.6327538495249954
  5.6371818392839907  8.1365851906925037 28.6327538495249954
 -2.8186121607160102  8.1365851906925037 28.6327538495249954
 14.0930177118973283 56.9561695641874692 28.6327538495249954
 46.5068665462355568 54.5151427464417537 28.6327538495249954
 11.2743633399373131 56.9561695641874692 28.6327538495249954
  5.6372237118973310 56.9561695641874692 28.6327538495249954
  2.8185693399373224 56.9561695641874692 28.6327538495249954
 47.9161937118973214 56.9561695641874692 28.6327538495249954
 -0.0000004740826793 56.9561695641874692 28.6327538495249954
 -21.1394432154303011 59.3971231525932382 28.6327538495249954
 -8.4557944740826727 56.9561695641874692 28.6327538495249954
 -18.3208734014102959 59.3971231525932382 28.6327538495249954
 -16.9115884740826736 56.9561695641874692 28.6327538495249954
 40.8696426447046761 20.3414995914012344 28.6327538495249954
 19.7302000252639935  8.1365851906925037 28.6327538495249954
 40.8697269181955534 54.5151427464417537 28.6327538495249954
 47.9161518392839980  8.1365851906925037 28.6327538495249954
  0.0000418455231652 52.0741891580359919 28.6327538495249954
 -16.9115461544768308 52.0741891580359919 28.6327538495249954
 -25.3673401544768282 52.0741891580359919 28.6327538495249954
 -28.1859945264368292 52.0741891580359919 28.6327538495249954
 53.5533760252639937  8.1365851906925037 28.6327538495249954
 54.9626605868708040 49.6332355696302230 28.6327538495249954
 11.2744056595431719 52.0741891580359919 28.6327538495249954
 40.8696424008908039 49.6332355696302230 28.6327538495249954
 35.2325027728508005 49.6332355696302230 28.6327538495249954
 26.7767087728507853 49.6332355696302230 28.6327538495249954
 73.2835338392839901  8.1365851906925037 28.6327538495249954
 21.1394845868707826 49.6332355696302230 28.6327538495249954
 12.6836905868707941 49.6332355696302230 28.6327538495249954
  4.2278965868707896 49.6332355696302230 28.6327538495249954
  1.4093267728507877 49.6332355696302230 28.6327538495249954
 64.8277398392839928  8.1365851906925037 28.6327538495249954
 14.0929754735631594 52.0741891580359919 28.6327538495249954
 19.7301996595431604 52.0741891580359919 28.6327538495249954
 28.1859936595431719 52.0741891580359919 28.6327538495249954
 32.4139329181955560 54.5151427464417537 28.6327538495249954
 29.5952785462355585 54.5151427464417537 28.6327538495249954
 26.7767087322155568 54.5151427464417537 28.6327538495249954
 21.1394845462355612 54.5151427464417537 28.6327538495249954
 66.2370247666116256  5.6956316022867357 28.6327538495249954
 12.6836905462355407 54.5151427464417537 28.6327538495249954
 22.5487698392839881  8.1365851906925037 28.6327538495249954
 31.0045638392839891  8.1365851906925037 28.6327538495249954
  7.0465509181955595 54.5151427464417537 28.6327538495249954
 -7.0464672677844442 54.5151427464417537 28.6327538495249954
 39.4603578392839793  8.1365851906925037 28.6327538495249954
 -15.5022612677844460 54.5151427464417537 28.6327538495249954
 -23.9580552677844487 54.5151427464417537 28.6327538495249954
 -26.7766250818044469 54.5151427464417537 28.6327538495249954
 -29.5952794537644479 54.5151427464417537 28.6327538495249954
 53.5533756595431782 52.0741891580359919 28.6327538495249954
 45.0975816595431809 52.0741891580359919 28.6327538495249954
 43.6882967322155622 54.5151427464417537 28.6327538495249954
 60.5998851385716151  5.6956316022867357 28.6327538495249954
 -0.0000005147179177 61.8380767409990000 28.6327538495249954
 18.3208724126097096 59.3971231525932382 28.6327538495249954
 -7.0464673896913883 69.1610107355562462 28.6327538495249954
 -9.8650372037113900 69.1610107355562462 28.6327538495249954
 -12.6836915756713875 69.1610107355562462 28.6327538495249954
 -15.5022613896913821 69.1610107355562462 28.6327538495249954
 -21.1394855756713831 69.1610107355562462 28.6327538495249954
 -23.9580553896913813 69.1610107355562462 28.6327538495249954
 -29.5952795756713840 69.1610107355562462 28.6327538495249954
 -32.4138493896913857 69.1610107355562462 28.6327538495249954
 -35.2324192037113804 69.1610107355562462 28.6327538495249954
 -38.0510735756713814 69.1610107355562462 28.6327538495249954
 42.2790117236162359 66.7200571471504844 28.6327538495249954
 19.7301995376362349 66.7200571471504844 28.6327538495249954
 25.3673819729098362  3.2546047845410229 28.6327538495249954
  8.4558357236162376 66.7200571471504844 28.6327538495249954
  5.6371813516562215 66.7200571471504844 28.6327538495249954
 -2.8186126483437688 66.7200571471504844 28.6327538495249954
 28.1860363448698337  3.2546047845410229 28.6327538495249954
 -4.2278975756713866 69.1610107355562462 28.6327538495249954
 -1.4092432037113782 69.1610107355562462 28.6327538495249954
  4.2278964243286037 69.1610107355562462 28.6327538495249954
 12.6836904243286224 69.1610107355562462 28.6327538495249954
 46.5069092721974613  0.8136511961352557 28.6327538495249954
  8.4557934040103735 71.6020375533019688 28.6327538495249954
 57.7812730862174604  0.8136511961352557 28.6327538495249954
 -8.4557945959896212 71.6020375533019688 28.6327538495249954
 63.4184972721974631  0.8136511961352557 28.6327538495249954
 -14.0930187819696204 71.6020375533019688 28.6327538495249954
 -22.5488127819696196 71.6020375533019688 28.6327538495249954
 71.8742912721974676  0.8136511961352557 28.6327538495249954
 -11.2744066483437688 66.7200571471504844 28.6327538495249954
 -31.0046067819696169 71.6020375533019688 28.6327538495249954
 43.6882966103086261 69.1610107355562462 28.6327538495249954
 40.8697267962886173 69.1610107355562462 28.6327538495249954
  2.8186543448698407  3.2546047845410229 28.6327538495249954
 32.4139327962886199 69.1610107355562462 28.6327538495249954
  8.4557939729098397  3.2546047845410229 28.6327538495249954
 26.7767086103086172 69.1610107355562462 28.6327538495249954
 23.9581387962886225 69.1610107355562462 28.6327538495249954
 16.9115879729098388  3.2546047845410229 28.6327538495249954
 77.5114309002374711  0.8136511961352557 28.6327538495249954
 15.5023025985896936 59.3971231525932382 28.6327538495249954
 31.0046061588898354  3.2546047845410229 28.6327538495249954
 42.2789699729098274  3.2546047845410229 28.6327538495249954
 28.1860358572420893 61.8380767409990000 28.6327538495249954
 22.5488116712620865 61.8380767409990000 28.6327538495249954
 19.7302418572420777 61.8380767409990000 28.6327538495249954
 16.9115874852820909 61.8380767409990000 28.6327538495249954
  5.6372236712620847 61.8380767409990000 28.6327538495249954
 29.5952789525916060  5.6956316022867357 28.6327538495249954
 -1.4093275991092098 49.6332355696302230 28.6327538495249954
 38.0510729525916105  5.6956316022867357 28.6327538495249954
 -19.7301583287379145 61.8380767409990000 28.6327538495249954
 46.5068669525916008  5.6956316022867357 28.6327538495249954
 -28.1859523287379155 61.8380767409990000 28.6327538495249954
 -33.8231765147179146 61.8380767409990000 28.6327538495249954
 38.0511147845697053 59.3971231525932382 28.6327538495249954
 49.3254367666116167  5.6956316022867357 28.6327538495249954
 52.1440911385716035  5.6956316022867357 28.6327538495249954
 32.4138905985897026 59.3971231525932382 28.6327538495249954
 54.9626609525916123  5.6956316022867357 28.6327538495249954
 31.0046056712620839 61.8380767409990000 28.6327538495249954
 33.8231754852820927 61.8380767409990000 28.6327538495249954
 36.6418298572420866 61.8380767409990000 28.6327538495249954
 39.4603996712620955 61.8380767409990000 28.6327538495249954
 -22.5487704623637697 66.7200571471504844 28.6327538495249954
 -33.8231342763837688 66.7200571471504844 28.6327538495249954
 50.7347639729098461  3.2546047845410229 28.6327538495249954
 38.0510724649638732 64.2791035587447084 28.6327538495249954
 29.5952784649638616 64.2791035587447084 28.6327538495249954
 21.1394844649638500 64.2791035587447084 28.6327538495249954
 15.5022602789838597 64.2791035587447084 28.6327538495249954
  7.0464662789838490 64.2791035587447084 28.6327538495249954
 36.6418303448698452  3.2546047845410229 28.6327538495249954
 78.9208003448698463  3.2546047845410229 28.6327538495249954
 -12.6836915350361448 64.2791035587447084 28.6327538495249954
 81.7393701588898551  3.2546047845410229 28.6327538495249954
 -18.3209157210161457 64.2791035587447084 28.6327538495249954
 -21.1394855350361439 64.2791035587447084 28.6327538495249954
 -26.7767097210161431 64.2791035587447084 28.6327538495249954
 15.5022607666116095  5.6956316022867357 28.6327538495249954
 18.3209151385716105  5.6956316022867357 28.6327538495249954
 45.0976238572420840 61.8380767409990000 28.6327538495249954
 -9.8651217210161430 64.2791035587447084 28.6327538495249954
 -4.2278974131292042 49.6332355696302230 28.6327538495249954
 33.8231756071890288 47.1922087518845075 28.6327538495249954
 78.9207580252639929  8.1365851906925037 28.6327538495249954
 -14.0929338989440378 32.5463407627700150 28.6327538495249954
 60.5998426564235899 30.1053871743642461 28.6327538495249954
 57.7812728424035953 30.1053871743642461 28.6327538495249954
 52.1440486564235925 30.1053871743642461 28.6327538495249954
 40.8696849643105153 15.4595191852497500 28.6327538495249954
 29.5953210283835837 30.1053871743642461 28.6327538495249954
 43.6882547783305313 15.4595191852497500 28.6327538495249954
 -1.4092851575964171 30.1053871743642461 28.6327538495249954
 35.2324607783305126 15.4595191852497500 28.6327538495249954
 -4.2278549716164209 30.1053871743642461 28.6327538495249954
 -15.5023033435764184 30.1053871743642461 28.6327538495249954
 67.6463517697312113 27.6644335859584807 28.6327538495249954
 62.0091275837512086 27.6644335859584807 28.6327538495249954
 60.5998427783305331 15.4595191852497500 28.6327538495249954
 42.2789697697312050 27.6644335859584807 28.6327538495249954
 36.6417455837512094 27.6644335859584807 28.6327538495249954
 74.6928609643105261 15.4595191852497500 28.6327538495249954
 22.5488119557112086 27.6644335859584807 28.6327538495249954
 -9.8650791575964192 30.1053871743642461 28.6327538495249954
 26.7766667783305188 15.4595191852497500 28.6327538495249954
 -0.0000002709040391 32.5463407627700150 28.6327538495249954
  5.6372239150759640 32.5463407627700150 28.6327538495249954
 67.6463518916381474 13.0185655968439828 28.6327538495249954
 26.7767088947577392 34.9873675805157234 28.6327538495249954
 70.4649217056581421 13.0185655968439828 28.6327538495249954
 73.2835760776181360 13.0185655968439828 28.6327538495249954
 -4.2278548497094786 15.4595191852497500 28.6327538495249954
  9.8651208947577302 34.9873675805157234 28.6327538495249954
  1.4093268947577322 34.9873675805157234 28.6327538495249954
 62.0092121010559580 32.5463407627700150 28.6327538495249954
  1.4092847783305213 15.4595191852497500 28.6327538495249954
 59.1905577290959641 32.5463407627700150 28.6327538495249954
  9.8650787783305205 15.4595191852497500 28.6327538495249954
 45.0976241010559633 32.5463407627700150 28.6327538495249954
 39.4603999150759606 32.5463407627700150 28.6327538495249954
 33.8231757290959649 32.5463407627700150 28.6327538495249954
 18.3208727783305179 15.4595191852497500 28.6327538495249954
 25.3673817290959498 32.5463407627700150 28.6327538495249954
 19.7302421010559677 32.5463407627700150 28.6327538495249954
 14.0930179150759578 32.5463407627700150 28.6327538495249954
 11.2744481010559561 32.5463407627700150 28.6327538495249954
  8.4557938510029000 17.9004727736555189 28.6327538495249954
 32.4138485227977426 34.9873675805157234 28.6327538495249954
 14.0930179557111952 27.6644335859584807 28.6327538495249954
  5.6372239557112023 27.6644335859584807 28.6327538495249954
  9.8651210166646699 20.3414995914012344 28.6327538495249954
 31.0045637173770388 22.7824531798069998 28.6327538495249954
 19.7301999033570468 22.7824531798069998 28.6327538495249954
 12.6836908306846716 20.3414995914012344 28.6327538495249954
 18.3209150166646637 20.3414995914012344 28.6327538495249954
 21.1394848306846654 20.3414995914012344 28.6327538495249954
  5.6371817173770493 22.7824531798069998 28.6327538495249954
 23.9580546447046672 20.3414995914012344 28.6327538495249954
  7.0464666447046698 20.3414995914012344 28.6327538495249954
 -11.2744062826229499 22.7824531798069998 28.6327538495249954
 26.7767090166646753 20.3414995914012344 28.6327538495249954
 66.2370246447046753 20.3414995914012344 28.6327538495249954
 29.5952788306846699 20.3414995914012344 28.6327538495249954
 57.7812306447046780 20.3414995914012344 28.6327538495249954
 54.9626608306846691 20.3414995914012344 28.6327538495249954
 32.4138486447046574 20.3414995914012344 28.6327538495249954
 46.5068668306846718 20.3414995914012344 28.6327538495249954
 43.6882970166646629 20.3414995914012344 28.6327538495249954
 71.8742488306846781 20.3414995914012344 28.6327538495249954
 53.5533759033570504 22.7824531798069998 28.6327538495249954
 -1.4093273552953294 20.3414995914012344 28.6327538495249954
 -12.6836912099505668 25.2234067682127652 28.6327538495249954
 -2.8185700442888009 27.6644335859584807 28.6327538495249954
 25.3673818510029001 17.9004727736555189 28.6327538495249954
 42.2789698510029055 17.9004727736555189 28.6327538495249954
 -8.4557942302688005 27.6644335859584807 28.6327538495249954
 63.4184547900494380 25.2234067682127652 28.6327538495249954
 60.5998849760294434 25.2234067682127652 28.6327538495249954
 56.3719880369828985 17.9004727736555189 28.6327538495249954
 59.1905578510029073 17.9004727736555189 28.6327538495249954
 62.0092122229629013 17.9004727736555189 28.6327538495249954
 49.3255211620094371 25.2234067682127652 28.6327538495249954
 43.6882969760294344 25.2234067682127652 28.6327538495249954
 40.8697271620094256 25.2234067682127652 28.6327538495249954
 32.4139331620094353 25.2234067682127652 28.6327538495249954
 29.5952787900494201 25.2234067682127652 28.6327538495249954
 12.6836907900494289 25.2234067682127652 28.6327538495249954
 -9.8651213552953294 20.3414995914012344 28.6327538495249954
  4.2278967900494315 25.2234067682127652 28.6327538495249954
 -7.0464669833353293 20.3414995914012344 28.6327538495249954
 -4.2278972099505676 25.2234067682127652 28.6327538495249954
  8.4557937697312031 27.6644335859584807 28.6327538495249954
 -9.8651215991092069 49.6332355696302230 28.6327538495249954
 62.0091277056581518 13.0185655968439828 28.6327538495249954
 52.1440908947577384 34.9873675805157234 28.6327538495249954
 23.9580967204966342 44.7512551634787386 28.6327538495249954
  9.8650785345166412 44.7512551634787386 28.6327538495249954
  7.0465512839163686 10.5775387790982709 28.6327538495249954
  4.2279389064766386 44.7512551634787386 28.6327538495249954
 -4.2278550935233552 44.7512551634787386 28.6327538495249954
 21.1394849119563659 10.5775387790982709 28.6327538495249954
 -12.6836490935233588 44.7512551634787386 28.6327538495249954
 29.5952789119563668 10.5775387790982709 28.6327538495249954
 38.0511149064766485 44.7512551634787386 28.6327538495249954
 -18.3208732795033562 44.7512551634787386 28.6327538495249954
 42.2789696478242618 42.3103015750729767 28.6327538495249954
 33.8231756478242644 42.3103015750729767 28.6327538495249954
 40.8697272839163759 10.5775387790982709 28.6327538495249954
 -5.6372242943418591 13.0185655968439828 28.6327538495249954
 16.9115876478242626 42.3103015750729767 28.6327538495249954
 -2.8185699223818586 13.0185655968439828 28.6327538495249954
 11.2743634618442599 42.3103015750729767 28.6327538495249954
  8.4557936478242581 42.3103015750729767 28.6327538495249954
 32.4139332839163785 10.5775387790982709 28.6327538495249954
 49.3254787204966547 44.7512551634787386 28.6327538495249954
 52.1440485345166493 44.7512551634787386 28.6327538495249954
 -22.5487280208509766 47.1922087518845075 28.6327538495249954
 -21.1394854131292078 49.6332355696302230 28.6327538495249954
 56.3719877931690334 47.1922087518845075 28.6327538495249954
 53.5534179791490246 47.1922087518845075 28.6327538495249954
 47.9161937931690360 47.1922087518845075 28.6327538495249954
 39.4603997931690245 47.1922087518845075 28.6327538495249954
 36.6418299791490298 47.1922087518845075 28.6327538495249954
 35.2325030166646727 20.3414995914012344 28.6327538495249954
 28.1860359791490147 47.1922087518845075 28.6327538495249954
 25.3673816071890279 47.1922087518845075 28.6327538495249954
 22.5488117931690120 47.1922087518845075 28.6327538495249954
 19.7302419791490244 47.1922087518845075 28.6327538495249954
 14.0930177931690217 47.1922087518845075 28.6327538495249954
 11.2744479791490271 47.1922087518845075 28.6327538495249954
  2.8186539791490159 47.1922087518845075 28.6327538495249954
 -1.4092427160836287 10.5775387790982709 28.6327538495249954
 -5.6371400208509774 47.1922087518845075 28.6327538495249954
 -8.4557943928109793 47.1922087518845075 28.6327538495249954
 -11.2743642068309775 47.1922087518845075 28.6327538495249954
 -14.0929340208509810 47.1922087518845075 28.6327538495249954
 -0.0000001083618602 13.0185655968439828 28.6327538495249954
 59.1905578916381430 13.0185655968439828 28.6327538495249954
 -8.4557943521757366 42.3103015750729767 28.6327538495249954
 -14.0930185381557376 42.3103015750729767 28.6327538495249954
 33.8231758916381438 13.0185655968439828 28.6327538495249954
 31.0045635954701204 37.4283211689214923 28.6327538495249954
 36.6417457056581313 13.0185655968439828 28.6327538495249954
 39.4604000776181465 13.0185655968439828 28.6327538495249954
 22.5487695954701017 37.4283211689214923 28.6327538495249954
 45.0975397056581500 13.0185655968439828 28.6327538495249954
 14.0929755954701115 37.4283211689214923 28.6327538495249954
 50.7347638916381456 13.0185655968439828 28.6327538495249954
 50.7348059674301126 37.4283211689214923 28.6327538495249954
  5.6371815954701097 37.4283211689214923 28.6327538495249954
  0.0000419674301133 37.4283211689214923 28.6327538495249954
 -2.8186124045298877 37.4283211689214923 28.6327538495249954
 -8.4557520325698885 37.4283211689214923 28.6327538495249954
 -11.2744064045298860 37.4283211689214923 28.6327538495249954
 -16.9115460325698876 37.4283211689214923 28.6327538495249954
 -19.7302004045298887 37.4283211689214923 28.6327538495249954
 63.4184547087777446 34.9873675805157234 28.6327538495249954
 53.5533337056581473 13.0185655968439828 28.6327538495249954
  2.8186117814501150 37.4283211689214923 28.6327538495249954
 53.5533757814501215 37.4283211689214923 28.6327538495249954
 56.3719455954701161 37.4283211689214923 28.6327538495249954
 62.0091697814501188 37.4283211689214923 28.6327538495249954
  5.6372240776181393 13.0185655968439828 28.6327538495249954
  8.4557938916381428 13.0185655968439828 28.6327538495249954
 57.7813150401024913 39.8692747573272612 28.6327538495249954
 54.9626606681424974 39.8692747573272612 28.6327538495249954
 11.2743637056581409 13.0185655968439828 28.6327538495249954
 43.6882968541224912 39.8692747573272612 28.6327538495249954
 16.9115878916381419 13.0185655968439828 28.6327538495249954
 35.2325028541224938 39.8692747573272612 28.6327538495249954
 32.4139330401024850 39.8692747573272612 28.6327538495249954
 29.5952786681424982 39.8692747573272612 28.6327538495249954
 26.7767088541224823 39.8692747573272612 28.6327538495249954
 23.9581390401024947 39.8692747573272612 28.6327538495249954
 25.3673818916381357 13.0185655968439828 28.6327538495249954
  4.2278966681424874 39.8692747573272612 28.6327538495249954
 28.1859517056581375 13.0185655968439828 28.6327538495249954
 -1.4092429598975091 39.8692747573272612 28.6327538495249954
 31.0046060776181456 13.0185655968439828 28.6327538495249954
 -15.5022611458775117 39.8692747573272612 28.6327538495249954
 -18.3208309598975099 39.8692747573272612 28.6327538495249954
  2.8185697056581414 13.0185655968439828 28.6327538495249954
 18.3208729002374611  0.8136511961352557 28.6327538495249954
