 H  O 
 1.0000000000000000
    84.5579400000000021    0.0000000000000000    0.0000000000000000
   -42.2789706095346958   73.2293399455724767    0.0000000000000000
     0.0000000000000000    0.0000000000000000   46.9039550000000034
 H   O  
 179 432
Cartesian
 -0.0000000135450799  1.6273023922705114 28.1128704123049964
  9.8650363503628089 33.3600651882452155 28.1128704123049964
 18.3208303503628116 33.3600651882452155 28.1128704123049964
 46.5068667223228047 33.3600651882452155 28.1128704123049964
 -8.4558365769648098 35.8010187766509844 28.1128704123049964
 25.3673394230351938 35.8010187766509844 28.1128704123049964
 53.5533757949951976 35.8010187766509844 28.1128704123049964
 62.0091697949951950 35.8010187766509844 28.1128704123049964
 32.4138904902278497 72.4156887494372228 28.1128704123049964
 18.3209148676675753 38.2419723650567462 28.1128704123049964
 29.5952786816875744 38.2419723650567462 28.1128704123049964
 38.0510726816875717 38.2419723650567462 28.1128704123049964
 43.6882968676675674 38.2419723650567462 28.1128704123049964
 52.1440908676675789 38.2419723650567462 28.1128704123049964
 -19.7302427105906588 40.6829991828024689 28.1128704123049964
 -1.4093274636571897 33.3600651882452155 28.1128704123049964
 -5.6372245246106605 40.6829991828024689 28.1128704123049964
  2.8185694753893440 40.6829991828024689 28.1128704123049964
  8.4557936613693432 40.6829991828024689 28.1128704123049964
 22.5487272894093422 40.6829991828024689 28.1128704123049964
 56.3719032894093317 40.6829991828024689 28.1128704123049964
 -21.1395276379182775 43.1239527712082307 28.1128704123049964
 -12.6837336379182783 43.1239527712082307 28.1128704123049964
  7.0465087340417254 43.1239527712082307 28.1128704123049964
 12.6836483620817209 43.1239527712082307 28.1128704123049964
 18.3208725480617254 43.1239527712082307 28.1128704123049964
 52.1440485480617184 43.1239527712082307 28.1128704123049964
 -25.3673823792659014 45.5649063596139996 28.1128704123049964
 11.2743634347540986 45.5649063596139996 28.1128704123049964
 33.8231756207340979 45.5649063596139996 28.1128704123049964
 36.6417454347540925 45.5649063596139996 28.1128704123049964
 -2.8186547105906588 40.6829991828024689 28.1128704123049964
 39.4603998067140935 45.5649063596139996 28.1128704123049964
 -7.0465516496371885 33.3600651882452155 28.1128704123049964
 56.3719879286210457 30.9190383704995000 28.1128704123049964
  1.4092424722697507 18.7141971991307194 28.1128704123049964
 21.1394848442297523 18.7141971991307194 28.1128704123049964
 26.7766244722697486 18.7141971991307194 28.1128704123049964
 29.5952788442297496 18.7141971991307194 28.1128704123049964
 46.5068668442297550 18.7141971991307194 28.1128704123049964
 49.3254366582497497 18.7141971991307194 28.1128704123049964
 57.7812306582497541 18.7141971991307194 28.1128704123049964
 60.5998004722697488 18.7141971991307194 28.1128704123049964
 66.2370246582497515 18.7141971991307194 28.1128704123049964
 69.0555944722697461 18.7141971991307194 28.1128704123049964
 71.8742488442297542 18.7141971991307194 28.1128704123049964
  5.6371817309221299 21.1551507875364884 28.1128704123049964
 11.2744059169021327 21.1551507875364884 28.1128704123049964
 19.7301999169021336 21.1551507875364884 28.1128704123049964
 64.8277819286210502 30.9190383704995000 28.1128704123049964
 32.4138486176145122 23.5961043759422537 28.1128704123049964
 43.6882969895745106 23.5961043759422537 28.1128704123049964
 49.3254366176144998 23.5961043759422537 28.1128704123049964
 -2.8186545886837178 26.0371311936879657 28.1128704123049964
  2.8185695972962814 26.0371311936879657 28.1128704123049964
  5.6371394113162827 26.0371311936879657 28.1128704123049964
 59.1905577832762830 26.0371311936879657 28.1128704123049964
 -16.9115882573589573 30.9190383704995000 28.1128704123049964
 -11.2743640713789581 30.9190383704995000 28.1128704123049964
 -5.6372244433389582 30.9190383704995000 28.1128704123049964
 28.1859515566610455 30.9190383704995000 28.1128704123049964
 33.8231757426410411 30.9190383704995000 28.1128704123049964
 39.4603999286210438 30.9190383704995000 28.1128704123049964
 45.0975395566610331 30.9190383704995000 28.1128704123049964
 50.7347637426410429 30.9190383704995000 28.1128704123049964
 38.0510728035945078 23.5961043759422537 28.1128704123049964
 -21.1394853995841281 48.0059331773597151 28.1128704123049964
 -12.6836913995841307 48.0059331773597151 28.1128704123049964
 -1.4093275855641247 48.0059331773597151 28.1128704123049964
 16.9115874988271635 60.2107743487284921 28.1128704123049964
 22.5488116848071662 60.2107743487284921 28.1128704123049964
 25.3673814988271609 60.2107743487284921 28.1128704123049964
 -7.0465518934510678 62.6518011664742076 28.1128704123049964
  1.4092421065489333 62.6518011664742076 28.1128704123049964
  7.0464662925289359 62.6518011664742076 28.1128704123049964
 12.6836904785089395 62.6518011664742076 28.1128704123049964
 40.8696422925289298 62.6518011664742076 28.1128704123049964
 -36.6417886347986865 65.0927547548799765 28.1128704123049964
 -28.1859946347986892 65.0927547548799765 28.1128704123049964
  5.6371813652013136 65.0927547548799765 28.1128704123049964
 45.0975815511813138 65.0927547548799765 28.1128704123049964
 -23.9580553761463051 67.5337083432857384 28.1128704123049964
 -18.3209157481063052 67.5337083432857384 28.1128704123049964
 -19.7301583151928384 60.2107743487284921 28.1128704123049964
 -9.8651217481063078 67.5337083432857384 28.1128704123049964
 21.1394844378736906 67.5337083432857384 28.1128704123049964
 29.5952784378736951 67.5337083432857384 28.1128704123049964
 -31.0046067684245337 69.9747351610314468 28.1128704123049964
 -25.3673825824445345 69.9747351610314468 28.1128704123049964
  5.6371390455954664 69.9747351610314468 28.1128704123049964
 11.2743632315754621 69.9747351610314468 28.1128704123049964
 -40.8696856957521533 72.4156887494372228 28.1128704123049964
 -35.2324615097721576 72.4156887494372228 28.1128704123049964
 -21.1395278817321568 72.4156887494372228 28.1128704123049964
 -7.0465096957521522 72.4156887494372228 28.1128704123049964
 -1.4092855097721566 72.4156887494372228 28.1128704123049964
  7.0465084902278479 72.4156887494372228 28.1128704123049964
 15.5023024902278443 72.4156887494372228 28.1128704123049964
 18.3208723042478390 72.4156887494372228 28.1128704123049964
 15.5022602518936878 67.5337083432857384 28.1128704123049964
 -25.3673825011728376 60.2107743487284921 28.1128704123049964
 -33.8231765011728385 60.2107743487284921 28.1128704123049964
 49.3254786121347877 57.7698207603227232 28.1128704123049964
  1.4092422284558699 48.0059331773597151 28.1128704123049964
 26.7766242284558658 48.0059331773597151 28.1128704123049964
 54.9626606004158731 48.0059331773597151 28.1128704123049964
 -28.1859945128917460 50.4468867657654769 28.1128704123049964
 -8.4558366988717459 50.4468867657654769 28.1128704123049964
 -0.0000426988717480 50.4468867657654769 28.1128704123049964
 31.0045634871082498 50.4468867657654769 28.1128704123049964
 39.4603574871082543 50.4468867657654769 28.1128704123049964
 47.9161514871082517 50.4468867657654769 28.1128704123049964
 -29.5952794402193682 52.8878403541712458 28.1128704123049964
 -18.3209156261993691 52.8878403541712458 28.1128704123049964
 -9.8651216261993682 52.8878403541712458 28.1128704123049964
 21.1394845597806302 52.8878403541712458 28.1128704123049964
 26.7767087457606330 52.8878403541712458 28.1128704123049964
 46.5068665597806330 52.8878403541712458 28.1128704123049964
 -25.3673824605375984 55.3288671719169614 28.1128704123049964
 -16.9115884605376010 55.3288671719169614 28.1128704123049964
 43.6882544261547849 57.7698207603227232 28.1128704123049964
 18.3208724261547857 57.7698207603227232 28.1128704123049964
 12.6836482401747883 57.7698207603227232 28.1128704123049964
  4.2278542401747847 57.7698207603227232 28.1128704123049964
 -4.2279397598252162 57.7698207603227232 28.1128704123049964
 -9.8650793878652134 57.7698207603227232 28.1128704123049964
 -1.4093273417502492 18.7141971991307194 28.1128704123049964
 -29.5953217598252145 57.7698207603227232 28.1128704123049964
 28.1859513534823982 55.3288671719169614 28.1128704123049964
 22.5487271675023955 55.3288671719169614 28.1128704123049964
 19.7301573534824009 55.3288671719169614 28.1128704123049964
  5.6371391675024016 55.3288671719169614 28.1128704123049964
  2.8185693534824074 55.3288671719169614 28.1128704123049964
 -5.6372246465175939 55.3288671719169614 28.1128704123049964
 36.6417453534824062 55.3288671719169614 28.1128704123049964
 -7.0465515277302488 18.7141971991307194 28.1128704123049964
 12.6836906816875779 38.2419723650567462 28.1128704123049964
 54.9626609255014458  8.9502363868277595 28.1128704123049964
 36.6417458004749221  1.6273023922705114 28.1128704123049964
  2.8185697192032206 11.3912632045734714 28.1128704123049964
 70.4649640388090717  6.5092827984219914 28.1128704123049964
 64.8277398528290689  6.5092827984219914 28.1128704123049964
 62.0091278004749142  1.6273023922705114 28.1128704123049964
 56.3719458528290644  6.5092827984219914 28.1128704123049964
 73.2835761724349197  1.6273023922705114 28.1128704123049964
 76.1021459864549144  1.6273023922705114 28.1128704123049964
 39.4603578528290697  6.5092827984219914 28.1128704123049964
 36.6417880388090680  6.5092827984219914 28.1128704123049964
 60.5998427918756022 13.8322167929792403 28.1128704123049964
 28.1859940388090742  6.5092827984219914 28.1128704123049964
 19.7302000388090732  6.5092827984219914 28.1128704123049964
 52.1440487918755977 13.8322167929792403 28.1128704123049964
 67.6463519051832236 11.3912632045734714 28.1128704123049964
 32.4138487801566981  4.0683292100162243 28.1128704123049964
 46.5068246058955950 13.8322167929792403 28.1128704123049964
 40.8696849778556057 13.8322167929792403 28.1128704123049964
 -0.0000423331509293  6.5092827984219914 28.1128704123049964
 43.6882125941766972  4.0683292100162243 28.1128704123049964
 52.1440065941766875  4.0683292100162243 28.1128704123049964
 32.4138909778556012 13.8322167929792403 28.1128704123049964
 18.3208727918756047 13.8322167929792403 28.1128704123049964
 -4.2279393941043990 13.8322167929792403 28.1128704123049964
  1.4092847918756004 13.8322167929792403 28.1128704123049964
 76.1021036668490609  6.5092827984219914 28.1128704123049964
 -2.8186544667767790 11.3912632045734714 28.1128704123049964
  4.2278546058956001 13.8322167929792403 28.1128704123049964
 42.2789698645479817 16.2731703813850075 28.1128704123049964
 11.2743638004749194  1.6273023922705114 28.1128704123049964
 28.1859516785679780 16.2731703813850075 28.1128704123049964
 47.9161940505279844 16.2731703813850075 28.1128704123049964
 64.8277820505279863 16.2731703813850075 28.1128704123049964
  9.8651211114814483  8.9502363868277595 28.1128704123049964
 22.5488121724349213  1.6273023922705114 28.1128704123049964
  5.6372241724349186  1.6273023922705114 28.1128704123049964
 39.4604000505279870 16.2731703813850075 28.1128704123049964
 33.8231759864549275  1.6273023922705114 28.1128704123049964
 35.2325031114814493  8.9502363868277595 28.1128704123049964
 14.0930180505279825 16.2731703813850075 28.1128704123049964
 16.9115879864549186  1.6273023922705114 28.1128704123049964
 -28.1859522881026763 56.9561695641874692 28.6327538495249954
 52.1440907322155596 54.5151427464417537 28.6327538495249954
 49.3255209181955507 54.5151427464417537 28.6327538495249954
 46.5068665462355568 54.5151427464417537 28.6327538495249954
  4.2278969525916086  5.6956316022867357 28.6327538495249954
  9.8651211385716078  5.6956316022867357 28.6327538495249954
 38.0510725462355595 54.5151427464417537 28.6327538495249954
 32.4139329181955560 54.5151427464417537 28.6327538495249954
 12.6836909525916113  5.6956316022867357 28.6327538495249954
 15.5022607666116095  5.6956316022867357 28.6327538495249954
 18.3209151385716105  5.6956316022867357 28.6327538495249954
 18.3209147322155452 54.5151427464417537 28.6327538495249954
 15.5023449181955559 54.5151427464417537 28.6327538495249954
  9.8651207322155532 54.5151427464417537 28.6327538495249954
 40.8697269181955534 54.5151427464417537 28.6327538495249954
 -25.3673824740826745 56.9561695641874692 28.6327538495249954
  5.6371818392839907  8.1365851906925037 28.6327538495249954
  7.0465509181955595 54.5151427464417537 28.6327538495249954
 73.2835761588898578  3.2546047845410229 28.6327538495249954
 39.4603997118973240 56.9561695641874692 28.6327538495249954
 33.8231755259173212 56.9561695641874692 28.6327538495249954
 31.0046057118973302 56.9561695641874692 28.6327538495249954
 28.1859513399373292 56.9561695641874692 28.6327538495249954
 25.3673815259173274 56.9561695641874692 28.6327538495249954
 16.9116302112439918  8.1365851906925037 28.6327538495249954
  2.8186539791490159 47.1922087518845075 28.6327538495249954
 22.5488117118973186 56.9561695641874692 28.6327538495249954
 19.7301573399373318 56.9561695641874692 28.6327538495249954
 -22.5488126600626764 56.9561695641874692 28.6327538495249954
 76.1021459729098524  3.2546047845410229 28.6327538495249954
  5.6372237931690181 47.1922087518845075 28.6327538495249954
 78.9208003448698463  3.2546047845410229 28.6327538495249954
  8.4557935259173256 56.9561695641874692 28.6327538495249954
 81.7393701588898551  3.2546047845410229 28.6327538495249954
 11.2744479791490271 47.1922087518845075 28.6327538495249954
 -0.0000004740826793 56.9561695641874692 28.6327538495249954
 14.0930177931690217 47.1922087518845075 28.6327538495249954
 -8.4557944740826727 56.9561695641874692 28.6327538495249954
  1.4093271385716108  5.6956316022867357 28.6327538495249954
 -16.9115884740826736 56.9561695641874692 28.6327538495249954
 16.9115875259173158 56.9561695641874692 28.6327538495249954
 -19.7301582881026789 56.9561695641874692 28.6327538495249954
  1.4093267322155492 54.5151427464417537 28.6327538495249954
 23.9580547666116068  5.6956316022867357 28.6327538495249954
 -25.3673401544768282 52.0741891580359919 28.6327538495249954
 60.5998851385716151  5.6956316022867357 28.6327538495249954
 36.6418299791490298 47.1922087518845075 28.6327538495249954
 46.5068665868708067 49.6332355696302230 28.6327538495249954
 43.6882967728507978 49.6332355696302230 28.6327538495249954
 69.0556791385716195  5.6956316022867357 28.6327538495249954
 35.2325027728508005 49.6332355696302230 28.6327538495249954
 39.4603997931690245 47.1922087518845075 28.6327538495249954
 29.5952785868707942 49.6332355696302230 28.6327538495249954
 45.0976239791490272 47.1922087518845075 28.6327538495249954
 26.7767087728507853 49.6332355696302230 28.6327538495249954
 23.9580544008907985 49.6332355696302230 28.6327538495249954
 18.3209147728507951 49.6332355696302230 28.6327538495249954
 12.6836905868707941 49.6332355696302230 28.6327538495249954
  4.2278965868707896 49.6332355696302230 28.6327538495249954
 50.7347636071890307 47.1922087518845075 28.6327538495249954
 53.5534179791490246 47.1922087518845075 28.6327538495249954
 -4.2278974131292042 49.6332355696302230 28.6327538495249954
 80.3300429525916257  5.6956316022867357 28.6327538495249954
 -26.7767095991092070 49.6332355696302230 28.6327538495249954
 -2.8186121607160102  8.1365851906925037 28.6327538495249954
 -22.5487703404568300 52.0741891580359919 28.6327538495249954
 19.7302419791490244 47.1922087518845075 28.6327538495249954
 -19.7302005264368283 52.0741891580359919 28.6327538495249954
 -14.0929763404568273 52.0741891580359919 28.6327538495249954
 -7.0464672677844442 54.5151427464417537 28.6327538495249954
 -9.8650370818044468 54.5151427464417537 28.6327538495249954
 -12.6836914537644478 54.5151427464417537 28.6327538495249954
 22.5488117931690120 47.1922087518845075 28.6327538495249954
 32.4138487666116077  5.6956316022867357 28.6327538495249954
 -21.1394854537644470 54.5151427464417537 28.6327538495249954
 35.2325031385716159  5.6956316022867357 28.6327538495249954
 -26.7766250818044469 54.5151427464417537 28.6327538495249954
 -29.5952794537644479 54.5151427464417537 28.6327538495249954
 53.5533756595431782 52.0741891580359919 28.6327538495249954
 50.7348058455231694 52.0741891580359919 28.6327538495249954
 28.1860359791490147 47.1922087518845075 28.6327538495249954
 47.9161937118973214 56.9561695641874692 28.6327538495249954
 40.8696427666115980  5.6956316022867357 28.6327538495249954
 19.7301996595431604 52.0741891580359919 28.6327538495249954
  5.6371814735631682 52.0741891580359919 28.6327538495249954
  2.8186116595431669 52.0741891580359919 28.6327538495249954
 31.0046057931690235 47.1922087518845075 28.6327538495249954
 -2.8186125264368322 52.0741891580359919 28.6327538495249954
 -5.6371823404568273 52.0741891580359919 28.6327538495249954
 54.9626609525916123  5.6956316022867357 28.6327538495249954
 33.8231756071890288 47.1922087518845075 28.6327538495249954
 25.3674238455231631 52.0741891580359919 28.6327538495249954
  1.4092844126096999 59.3971231525932382 28.6327538495249954
 67.6463519729098550  3.2546047845410229 28.6327538495249954
 46.5069092721974613  0.8136511961352557 28.6327538495249954
 -26.7766252037113830 69.1610107355562462 28.6327538495249954
 -29.5952795756713840 69.1610107355562462 28.6327538495249954
 54.9627032721974516  0.8136511961352557 28.6327538495249954
 -35.2324192037113804 69.1610107355562462 28.6327538495249954
 42.2790117236162359 66.7200571471504844 28.6327538495249954
 33.8232177236162386 66.7200571471504844 28.6327538495249954
 31.0045633516562411 66.7200571471504844 28.6327538495249954
 57.7812730862174604  0.8136511961352557 28.6327538495249954
 25.3674237236162377 66.7200571471504844 28.6327538495249954
 19.7301995376362349 66.7200571471504844 28.6327538495249954
 71.8742912721974676  0.8136511961352557 28.6327538495249954
 11.2744055376362251 66.7200571471504844 28.6327538495249954
  8.4558357236162376 66.7200571471504844 28.6327538495249954
  5.6371813516562215 66.7200571471504844 28.6327538495249954
  2.8186115376362340 66.7200571471504844 28.6327538495249954
  0.0000417236162395 66.7200571471504844 28.6327538495249954
 -5.6371824623637705 66.7200571471504844 28.6327538495249954
 -8.4557522763837714 66.7200571471504844 28.6327538495249954
 -14.0929764623637634 66.7200571471504844 28.6327538495249954
 -19.7302006483437680 66.7200571471504844 28.6327538495249954
 83.1486550862174738  0.8136511961352557 28.6327538495249954
 -0.0000000270901599  3.2546047845410229 28.6327538495249954
  1.4093266103086164 69.1610107355562462 28.6327538495249954
  4.2278964243286037 69.1610107355562462 28.6327538495249954
 38.0511152721974639  0.8136511961352557 28.6327538495249954
 12.6836904243286224 69.1610107355562462 28.6327538495249954
 31.0046055899903834 71.6020375533019688 28.6327538495249954
 28.1859512180303895 71.6020375533019688 28.6327538495249954
 22.5488115899903860 71.6020375533019688 28.6327538495249954
 19.7301572180303850 71.6020375533019688 28.6327538495249954
  9.8650789002374601  0.8136511961352557 28.6327538495249954
 14.0930175899903762 71.6020375533019688 28.6327538495249954
 -2.8185704100096114 71.6020375533019688 28.6327538495249954
 -5.6372247819696195 71.6020375533019688 28.6327538495249954
 18.3208729002374611  0.8136511961352557 28.6327538495249954
 -11.2743644100096230 71.6020375533019688 28.6327538495249954
 -16.9115885959896168 71.6020375533019688 28.6327538495249954
 43.6882966509438617 64.2791035587447084 28.6327538495249954
 -22.5488127819696196 71.6020375533019688 28.6327538495249954
 -28.1859524100096195 71.6020375533019688 28.6327538495249954
 -31.0046067819696169 71.6020375533019688 28.6327538495249954
 -33.8231765959896151 71.6020375533019688 28.6327538495249954
 32.4138910862174541  0.8136511961352557 28.6327538495249954
 -39.4604007819696179 71.6020375533019688 28.6327538495249954
 43.6882966103086261 69.1610107355562462 28.6327538495249954
 40.8697267962886173 69.1610107355562462 28.6327538495249954
 35.2325026103086287 69.1610107355562462 28.6327538495249954
 32.4139327962886199 69.1610107355562462 28.6327538495249954
 18.3209146103086198 69.1610107355562462 28.6327538495249954
 15.5023447962886092 69.1610107355562462 28.6327538495249954
 -25.3673825959896213 71.6020375533019688 28.6327538495249954
 35.2325026509438644 64.2791035587447084 28.6327538495249954
 32.4138482789838704 64.2791035587447084 28.6327538495249954
 29.5952784649638616 64.2791035587447084 28.6327538495249954
 -11.2743643287379136 61.8380767409990000 28.6327538495249954
 -16.9115885147179164 61.8380767409990000 28.6327538495249954
 -25.3673825147179137 61.8380767409990000 28.6327538495249954
 -28.1859523287379155 61.8380767409990000 28.6327538495249954
 -31.0045221427579136 61.8380767409990000 28.6327538495249954
 -33.8231765147179146 61.8380767409990000 28.6327538495249954
 46.5069087845697027 59.3971231525932382 28.6327538495249954
 38.0511147845697053 59.3971231525932382 28.6327538495249954
 35.2324604126097114 59.3971231525932382 28.6327538495249954
 29.5953207845697079 59.3971231525932382 28.6327538495249954
 47.9161941588898301  3.2546047845410229 28.6327538495249954
 -8.4557945147179190 61.8380767409990000 28.6327538495249954
 21.1395267845696964 59.3971231525932382 28.6327538495249954
 12.6837327845697061 59.3971231525932382 28.6327538495249954
  9.8650784126096909 59.3971231525932382 28.6327538495249954
  4.2279387845697078 59.3971231525932382 28.6327538495249954
 -2.8185702068309761 47.1922087518845075 28.6327538495249954
 -1.4092854014103018 59.3971231525932382 28.6327538495249954
 -4.2278552154303037 59.3971231525932382 28.6327538495249954
 -7.0465095873903012 59.3971231525932382 28.6327538495249954
 -18.3208734014102959 59.3971231525932382 28.6327538495249954
 56.3719881588898417  3.2546047845410229 28.6327538495249954
 62.0092123448698445  3.2546047845410229 28.6327538495249954
 -26.7766674014102968 59.3971231525932382 28.6327538495249954
 15.5023025985896936 59.3971231525932382 28.6327538495249954
 70.4650063448698489  3.2546047845410229 28.6327538495249954
 42.2789699729098274  3.2546047845410229 28.6327538495249954
 39.4604001588898399  3.2546047845410229 28.6327538495249954
 26.7767086509438528 64.2791035587447084 28.6327538495249954
 23.9580542789838589 64.2791035587447084 28.6327538495249954
 21.1394844649638500 64.2791035587447084 28.6327538495249954
 18.3209146509438554 64.2791035587447084 28.6327538495249954
  9.8651206509438563 64.2791035587447084 28.6327538495249954
  2.8186543448698407  3.2546047845410229 28.6327538495249954
  4.2278964649638544 64.2791035587447084 28.6327538495249954
 -9.8651217210161430 64.2791035587447084 28.6327538495249954
 -12.6836915350361448 64.2791035587447084 28.6327538495249954
 -15.5022613490561429 64.2791035587447084 28.6327538495249954
 -18.3209157210161457 64.2791035587447084 28.6327538495249954
 -2.8185703287379194 61.8380767409990000 28.6327538495249954
 -23.9580553490561456 64.2791035587447084 28.6327538495249954
 19.7302423448698399  3.2546047845410229 28.6327538495249954
 -32.4138493490561430 64.2791035587447084 28.6327538495249954
 22.5488121588898416  3.2546047845410229 28.6327538495249954
 47.9161936712620928 61.8380767409990000 28.6327538495249954
 45.0976238572420840 61.8380767409990000 28.6327538495249954
 42.2789694852820901 61.8380767409990000 28.6327538495249954
 28.1860363448698337  3.2546047845410229 28.6327538495249954
 36.6418298572420866 61.8380767409990000 28.6327538495249954
 11.2744478572420874 61.8380767409990000 28.6327538495249954
 36.6418303448698452  3.2546047845410229 28.6327538495249954
  2.8186538572420905 61.8380767409990000 28.6327538495249954
 -26.7767097210161431 64.2791035587447084 28.6327538495249954
 -5.6371400208509774 47.1922087518845075 28.6327538495249954
 69.0556367783305234 15.4595191852497500 28.6327538495249954
 39.4603578392839793  8.1365851906925037 28.6327538495249954
 -0.0000002302687971 27.6644335859584807 28.6327538495249954
 -5.6372244162487979 27.6644335859584807 28.6327538495249954
 -8.4557942302688005 27.6644335859584807 28.6327538495249954
 -14.0930184162487979 27.6644335859584807 28.6327538495249954
 46.5068667900494361 25.2234067682127652 28.6327538495249954
 35.2325029760294228 25.2234067682127652 28.6327538495249954
 26.7767089760294326 25.2234067682127652 28.6327538495249954
 18.3209149760294281 25.2234067682127652 28.6327538495249954
 12.6836907900494289 25.2234067682127652 28.6327538495249954
  9.8651209760294343 25.2234067682127652 28.6327538495249954
 56.3719880776181483 13.0185655968439828 28.6327538495249954
 25.3673817697312032 27.6644335859584807 28.6327538495249954
  1.4093269760294336 25.2234067682127652 28.6327538495249954
 -7.0464670239705693 25.2234067682127652 28.6327538495249954
 67.6463940893370506 22.7824531798069998 28.6327538495249954
 64.8277397173770566 22.7824531798069998 28.6327538495249954
 62.0091699033570620 22.7824531798069998 28.6327538495249954
 56.3719457173770593 22.7824531798069998 28.6327538495249954
 53.5533759033570504 22.7824531798069998 28.6327538495249954
 70.4649217056581421 13.0185655968439828 28.6327538495249954
 45.0975819033570531 22.7824531798069998 28.6327538495249954
 76.1021458916381448 13.0185655968439828 28.6327538495249954
 -7.0465092216694787 15.4595191852497500 28.6327538495249954
 33.8232180893370540 22.7824531798069998 28.6327538495249954
 64.8277820776181386 13.0185655968439828 28.6327538495249954
 28.1859515837511907 27.6644335859584807 28.6327538495249954
 31.0046059557112059 27.6644335859584807 28.6327538495249954
 33.8231757697311934 27.6644335859584807 28.6327538495249954
 46.5069090283835891 30.1053871743642461 28.6327538495249954
 28.1859517056581375 13.0185655968439828 28.6327538495249954
 38.0511150283835775 30.1053871743642461 28.6327538495249954
 36.6417457056581313 13.0185655968439828 28.6327538495249954
 29.5953210283835837 30.1053871743642461 28.6327538495249954
 39.4604000776181465 13.0185655968439828 28.6327538495249954
 23.9580968424035810 30.1053871743642461 28.6327538495249954
 15.5023028424035783 30.1053871743642461 28.6327538495249954
 12.6837330283835765 30.1053871743642461 28.6327538495249954
  9.8650786564235791 30.1053871743642461 28.6327538495249954
  7.0465088424035836 30.1053871743642461 28.6327538495249954
  4.2279390283835818 30.1053871743642461 28.6327538495249954
  1.4092846564235810 30.1053871743642461 28.6327538495249954
 -1.4092851575964171 30.1053871743642461 28.6327538495249954
 -4.2278549716164209 30.1053871743642461 28.6327538495249954
 42.2789698916381340 13.0185655968439828 28.6327538495249954
 67.6463517697312113 27.6644335859584807 28.6327538495249954
 62.0091275837512086 27.6644335859584807 28.6327538495249954
 56.3719879557112051 27.6644335859584807 28.6327538495249954
 53.5533335837512112 27.6644335859584807 28.6327538495249954
 50.7347637697312024 27.6644335859584807 28.6327538495249954
 45.0975395837512067 27.6644335859584807 28.6327538495249954
 42.2789697697312050 27.6644335859584807 28.6327538495249954
 39.4603999557111962 27.6644335859584807 28.6327538495249954
 36.6417455837512094 27.6644335859584807 28.6327538495249954
 -4.2278548497094786 15.4595191852497500 28.6327538495249954
 19.7301577056581365 13.0185655968439828 28.6327538495249954
 28.1859939033570512 22.7824531798069998 28.6327538495249954
 19.7301999033570468 22.7824531798069998 28.6327538495249954
 -9.8651213552953294 20.3414995914012344 28.6327538495249954
 73.2835760369829075 17.9004727736555189 28.6327538495249954
 18.3208727783305179 15.4595191852497500 28.6327538495249954
 21.1395271502905153 15.4595191852497500 28.6327538495249954
 62.0092122229629013 17.9004727736555189 28.6327538495249954
 26.7766667783305188 15.4595191852497500 28.6327538495249954
 53.5534182229629039 17.9004727736555189 28.6327538495249954
 29.5953211502905269 15.4595191852497500 28.6327538495249954
 38.0511151502905278 15.4595191852497500 28.6327538495249954
 45.0976242229628923 17.9004727736555189 28.6327538495249954
 42.2789698510029055 17.9004727736555189 28.6327538495249954
  9.8650787783305205 15.4595191852497500 28.6327538495249954
 33.8231758510028868 17.9004727736555189 28.6327538495249954
 25.3673818510029001 17.9004727736555189 28.6327538495249954
 22.5488120369828984 17.9004727736555189 28.6327538495249954
 11.2744482229629011 17.9004727736555189 28.6327538495249954
  8.4557938510029000 17.9004727736555189 28.6327538495249954
  2.8186542229628988 17.9004727736555189 28.6327538495249954
 49.3254789643105269 15.4595191852497500 28.6327538495249954
 60.5998427783305331 15.4595191852497500 28.6327538495249954
 -2.8185699630171004 17.9004727736555189 28.6327538495249954
 63.4184971502905270 15.4595191852497500 28.6327538495249954
 74.6928609643105261 15.4595191852497500 28.6327538495249954
 71.8742911502905173 15.4595191852497500 28.6327538495249954
 31.0046060369829029 17.9004727736555189 28.6327538495249954
  4.2279391502905188 15.4595191852497500 28.6327538495249954
 15.5022606447046662 20.3414995914012344 28.6327538495249954
 -1.4092850356894804 15.4595191852497500 28.6327538495249954
 16.9116300893370450 22.7824531798069998 28.6327538495249954
 14.0929757173770476 22.7824531798069998 28.6327538495249954
 11.2744059033570529 22.7824531798069998 28.6327538495249954
  8.4558360893370512 22.7824531798069998 28.6327538495249954
  5.6371817173770493 22.7824531798069998 28.6327538495249954
  2.8186119033570516 22.7824531798069998 28.6327538495249954
  0.0000420893370479 22.7824531798069998 28.6327538495249954
 -5.6371820966429516 22.7824531798069998 28.6327538495249954
 -8.4557519106629488 22.7824531798069998 28.6327538495249954
 -11.2744062826229499 22.7824531798069998 28.6327538495249954
 71.8742488306846781 20.3414995914012344 28.6327538495249954
 66.2370246447046753 20.3414995914012344 28.6327538495249954
 63.4184548306846807 20.3414995914012344 28.6327538495249954
 60.5998850166646719 20.3414995914012344 28.6327538495249954
 57.7812306447046780 20.3414995914012344 28.6327538495249954
 52.1440910166646745 20.3414995914012344 28.6327538495249954
 46.5068668306846718 20.3414995914012344 28.6327538495249954
 43.6882970166646629 20.3414995914012344 28.6327538495249954
 40.8696426447046761 20.3414995914012344 28.6327538495249954
 35.2325030166646727 20.3414995914012344 28.6327538495249954
 32.4138486447046574 20.3414995914012344 28.6327538495249954
 29.5952788306846699 20.3414995914012344 28.6327538495249954
 26.7767090166646753 20.3414995914012344 28.6327538495249954
 23.9580546447046672 20.3414995914012344 28.6327538495249954
 21.1394848306846654 20.3414995914012344 28.6327538495249954
 22.5487697173770485 22.7824531798069998 28.6327538495249954
 54.9627030283835865 30.1053871743642461 28.6327538495249954
 60.5998426564235899 30.1053871743642461 28.6327538495249954
 63.4184970283835838 30.1053871743642461 28.6327538495249954
 11.2743634618442599 42.3103015750729767 28.6327538495249954
  4.2278969119563712 10.5775387790982709 28.6327538495249954
 -0.0000003521757358 42.3103015750729767 28.6327538495249954
 -8.4557943521757366 42.3103015750729767 28.6327538495249954
 12.6836909119563703 10.5775387790982709 28.6327538495249954
 -16.9115883521757375 42.3103015750729767 28.6327538495249954
 15.5023452839163713 10.5775387790982709 28.6327538495249954
 -22.5488125381557367 42.3103015750729767 28.6327538495249954
 18.3209150979363713 10.5775387790982709 28.6327538495249954
 54.9626606681424974 39.8692747573272612 28.6327538495249954
 52.1440908541225028 39.8692747573272612 28.6327538495249954
  1.4093270979363695 10.5775387790982709 28.6327538495249954
 49.3255210401024939 39.8692747573272612 28.6327538495249954
 26.7767088541224823 39.8692747573272612 28.6327538495249954
 21.1394849119563659 10.5775387790982709 28.6327538495249954
 21.1394846681424795 39.8692747573272612 28.6327538495249954
 18.3209148541224920 39.8692747573272612 28.6327538495249954
 15.5023450401024956 39.8692747573272612 28.6327538495249954
  9.8651208541224857 39.8692747573272612 28.6327538495249954
 26.7767090979363651 10.5775387790982709 28.6327538495249954
  7.0465510401024849 39.8692747573272612 28.6327538495249954
 29.5952789119563668 10.5775387790982709 28.6327538495249954
 -1.4092429598975091 39.8692747573272612 28.6327538495249954
 40.8697272839163759 10.5775387790982709 28.6327538495249954
 46.5068666681425000 39.8692747573272612 28.6327538495249954
 19.7301574618442501 42.3103015750729767 28.6327538495249954
 31.0046058338042556 42.3103015750729767 28.6327538495249954
 33.8231756478242644 42.3103015750729767 28.6327538495249954
 -16.9115883928109767 47.1922087518845075 28.6327538495249954
 42.2790122112439946  8.1365851906925037 28.6327538495249954
 57.7812727204966521 44.7512551634787386 28.6327538495249954
 54.9627029064766432 44.7512551634787386 28.6327538495249954
 50.7348062112439848  8.1365851906925037 28.6327538495249954
 53.5533760252639937  8.1365851906925037 28.6327538495249954
 35.2324605345166475 44.7512551634787386 28.6327538495249954
 23.9580967204966342 44.7512551634787386 28.6327538495249954
 21.1395269064766467 44.7512551634787386 28.6327538495249954
 67.6463942112439867  8.1365851906925037 28.6327538495249954
  4.2279389064766386 44.7512551634787386 28.6327538495249954
  1.4092845345166412 44.7512551634787386 28.6327538495249954
 -1.4092852795033535 44.7512551634787386 28.6327538495249954
 -7.0465094654833562 44.7512551634787386 28.6327538495249954
 -9.8650792795033553 44.7512551634787386 28.6327538495249954
 -12.6836490935233588 44.7512551634787386 28.6327538495249954
 -15.5023034654833562 44.7512551634787386 28.6327538495249954
 -18.3208732795033562 44.7512551634787386 28.6327538495249954
 -21.1394430935233544 44.7512551634787386 28.6327538495249954
 53.5533334618442680 42.3103015750729767 28.6327538495249954
 -1.4092427160836287 10.5775387790982709 28.6327538495249954
 47.9161938338042646 42.3103015750729767 28.6327538495249954
 45.0975394618442706 42.3103015750729767 28.6327538495249954
 42.2789696478242618 42.3103015750729767 28.6327538495249954
 36.6417454618442662 42.3103015750729767 28.6327538495249954
 43.6882970979363634 10.5775387790982709 28.6327538495249954
 -7.0464671458775081 39.8692747573272612 28.6327538495249954
 -15.5022611458775117 39.8692747573272612 28.6327538495249954
 -18.3208309598975099 39.8692747573272612 28.6327538495249954
 46.5068667087777357 34.9873675805157234 28.6327538495249954
 40.8696425227977400 34.9873675805157234 28.6327538495249954
 38.0510727087777383 34.9873675805157234 28.6327538495249954
 35.2325028947577295 34.9873675805157234 28.6327538495249954
 32.4138485227977426 34.9873675805157234 28.6327538495249954
 29.5952787087777267 34.9873675805157234 28.6327538495249954
 77.5114730979363742 10.5775387790982709 28.6327538495249954
 21.1394847087777364 34.9873675805157234 28.6327538495249954
 15.5022605227977337 34.9873675805157234 28.6327538495249954
  7.0464665227977319 34.9873675805157234 28.6327538495249954
 -4.2278972912222672 34.9873675805157234 28.6327538495249954
 -12.6836912912222672 34.9873675805157234 28.6327538495249954
 59.1905577290959641 32.5463407627700150 28.6327538495249954
 50.7347637290959668 32.5463407627700150 28.6327538495249954
 -0.0000001083618602 13.0185655968439828 28.6327538495249954
 42.2789697290959623 32.5463407627700150 28.6327538495249954
 22.5488119150759623 32.5463407627700150 28.6327538495249954
 14.0930179150759578 32.5463407627700150 28.6327538495249954
  2.8186541010559618 32.5463407627700150 28.6327538495249954
  8.4557938916381428 13.0185655968439828 28.6327538495249954
 -2.8185700849240374 32.5463407627700150 28.6327538495249954
 11.2743637056581409 13.0185655968439828 28.6327538495249954
 -8.4557942709040379 32.5463407627700150 28.6327538495249954
 -16.9115882709040370 32.5463407627700150 28.6327538495249954
 14.0930180776181420 13.0185655968439828 28.6327538495249954
 49.3254365227977445 34.9873675805157234 28.6327538495249954
 -11.2743642068309775 47.1922087518845075 28.6327538495249954
 71.8742489119563714 10.5775387790982709 28.6327538495249954
 69.0556790979363768 10.5775387790982709 28.6327538495249954
 46.5068669119563793 10.5775387790982709 28.6327538495249954
 62.0091697814501188 37.4283211689214923 28.6327538495249954
 59.1905999674301100 37.4283211689214923 28.6327538495249954
 56.3719455954701161 37.4283211689214923 28.6327538495249954
 49.3255212839163661 10.5775387790982709 28.6327538495249954
 47.9161515954701187 37.4283211689214923 28.6327538495249954
 54.9626609119563767 10.5775387790982709 28.6327538495249954
 39.4603575954701142 37.4283211689214923 28.6327538495249954
 57.7813152839163777 10.5775387790982709 28.6327538495249954
 33.8232179674301037 37.4283211689214923 28.6327538495249954
 63.4184549119563812 10.5775387790982709 28.6327538495249954
 28.1859937814501045 37.4283211689214923 28.6327538495249954
 25.3674239674301170 37.4283211689214923 28.6327538495249954
 22.5487695954701017 37.4283211689214923 28.6327538495249954
 66.2371092839163680 10.5775387790982709 28.6327538495249954
 11.2744057814501097 37.4283211689214923 28.6327538495249954
  8.4558359674301080 37.4283211689214923 28.6327538495249954
  5.6371815954701097 37.4283211689214923 28.6327538495249954
  0.0000419674301133 37.4283211689214923 28.6327538495249954
 -2.8186124045298877 37.4283211689214923 28.6327538495249954
 -5.6371822185498859 37.4283211689214923 28.6327538495249954
 -8.4557520325698885 37.4283211689214923 28.6327538495249954
 -14.0929762185498877 37.4283211689214923 28.6327538495249954
 -19.7302004045298887 37.4283211689214923 28.6327538495249954
 63.4184547087777446 34.9873675805157234 28.6327538495249954
 57.7812305227977419 34.9873675805157234 28.6327538495249954
 33.8231754040103922 71.6020375533019688 28.6327538495249954
