 H  O 
 1.0000000000000000
    84.5579400000000021    0.0000000000000000    0.0000000000000000
   -42.2789706095346958   73.2293399455724767    0.0000000000000000
     0.0000000000000000    0.0000000000000000   46.9039550000000034
 H   O  
 219 303
Cartesian
 38.0510728035945078 23.5961043759422537 28.1128704123049964
 -28.1859523151928357 60.2107743487284921 28.1128704123049964
 19.7301575972962873 26.0371311936879657 28.1128704123049964
 46.5068242401747796 57.7698207603227232 28.1128704123049964
 39.4603154113162731 26.0371311936879657 28.1128704123049964
 43.6882544261547849 57.7698207603227232 28.1128704123049964
 45.0975395972962758 26.0371311936879657 28.1128704123049964
 40.8696846121347903 57.7698207603227232 28.1128704123049964
 67.6463517832762875 26.0371311936879657 28.1128704123049964
 32.4138906121347787 57.7698207603227232 28.1128704123049964
 -12.6837335160113369 28.4780847820937346 28.1128704123049964
 21.1394422401747804 57.7698207603227232 28.1128704123049964
 -7.0465093300313377 28.4780847820937346 28.1128704123049964
 23.9580968559486607 28.4780847820937346 28.1128704123049964
 12.6836482401747883 57.7698207603227232 28.1128704123049964
 -1.4092853878652121 57.7698207603227232 28.1128704123049964
 -7.0465095738452108 57.7698207603227232 28.1128704123049964
 60.5998426699686590 28.4780847820937346 28.1128704123049964
 -12.6837337598252144 57.7698207603227232 28.1128704123049964
 -18.3208733878652161 57.7698207603227232 28.1128704123049964
 -5.6372244433389582 30.9190383704995000 28.1128704123049964
 47.9161091675023982 55.3288671719169614 28.1128704123049964
  2.8185695566610427 30.9190383704995000 28.1128704123049964
 42.2789695394624090 55.3288671719169614 28.1128704123049964
  5.6372239286210437 30.9190383704995000 28.1128704123049964
 36.6417453534824062 55.3288671719169614 28.1128704123049964
 14.0930179286210446 30.9190383704995000 28.1128704123049964
 28.1859513534823982 55.3288671719169614 28.1128704123049964
 22.5488119286210420 30.9190383704995000 28.1128704123049964
 25.3673817426410437 30.9190383704995000 28.1128704123049964
 14.0929334113162810 26.0371311936879657 28.1128704123049964
 28.1859515566610455 30.9190383704995000 28.1128704123049964
 -22.5488126871528358 60.2107743487284921 28.1128704123049964
 -2.8186545886837178 26.0371311936879657 28.1128704123049964
 -23.9581398934510652 62.6518011664742076 28.1128704123049964
  2.8186119169021282 21.1551507875364884 28.1128704123049964
  8.4557515449421317 21.1551507875364884 28.1128704123049964
 -26.7767097074710669 62.6518011664742076 28.1128704123049964
 14.0929757309221344 21.1551507875364884 28.1128704123049964
 22.5487697309221353 21.1551507875364884 28.1128704123049964
 36.6417879169021319 21.1551507875364884 28.1128704123049964
 39.4603577309221265 21.1551507875364884 28.1128704123049964
 47.9161517309221239 21.1551507875364884 28.1128704123049964
 -32.4139338934510661 62.6518011664742076 28.1128704123049964
 50.7347215449421185 21.1551507875364884 28.1128704123049964
 53.5533759169021195 21.1551507875364884 28.1128704123049964
 67.6463095449421274 21.1551507875364884 28.1128704123049964
 47.9161936848071619 60.2107743487284921 28.1128704123049964
 70.4649639169021356 21.1551507875364884 28.1128704123049964
 -7.0464670104254905 23.5961043759422537 28.1128704123049964
 45.0975393128471538 60.2107743487284921 28.1128704123049964
  4.2278968035945095 23.5961043759422537 28.1128704123049964
 42.2789694988271592 60.2107743487284921 28.1128704123049964
 36.6417453128471564 60.2107743487284921 28.1128704123049964
 23.9580546176145113 23.5961043759422537 28.1128704123049964
 35.2325029895745132 23.5961043759422537 28.1128704123049964
 45.0975394347540970 45.5649063596139996 28.1128704123049964
 16.9115874988271635 60.2107743487284921 28.1128704123049964
 52.1440909895745008 23.5961043759422537 28.1128704123049964
 54.9626608035945097 23.5961043759422537 28.1128704123049964
 14.0930176848071671 60.2107743487284921 28.1128704123049964
 63.4184548035945070 23.5961043759422537 28.1128704123049964
 69.0556789895745169 23.5961043759422537 28.1128704123049964
  2.8185695972962814 26.0371311936879657 28.1128704123049964
 25.3673815394624036 55.3288671719169614 28.1128704123049964
 50.7347637426410429 30.9190383704995000 28.1128704123049964
 59.1905577426410403 30.9190383704995000 28.1128704123049964
 11.2743634753893449 40.6829991828024689 28.1128704123049964
 14.0929332894093395 40.6829991828024689 28.1128704123049964
 28.1859514753893379 40.6829991828024689 28.1128704123049964
 35.2324182284558631 48.0059331773597151 28.1128704123049964
 53.5533334753893371 40.6829991828024689 28.1128704123049964
 32.4138484144358685 48.0059331773597151 28.1128704123049964
 -18.3208732659582765 43.1239527712082307 28.1128704123049964
 -15.5023034519382783 43.1239527712082307 28.1128704123049964
 -7.0465094519382783 43.1239527712082307 28.1128704123049964
 -4.2279396379182765 43.1239527712082307 28.1128704123049964
 -1.4092852659582757 43.1239527712082307 28.1128704123049964
  1.4092845480617260 43.1239527712082307 28.1128704123049964
 12.6836483620817209 43.1239527712082307 28.1128704123049964
 15.5022604144358738 48.0059331773597151 28.1128704123049964
 23.9580967340417281 43.1239527712082307 28.1128704123049964
 -7.0465517715441273 48.0059331773597151 28.1128704123049964
 32.4138907340417219 43.1239527712082307 28.1128704123049964
 40.8696847340417122 43.1239527712082307 28.1128704123049964
 52.1440485480617184 43.1239527712082307 28.1128704123049964
 54.9626183620817130 43.1239527712082307 28.1128704123049964
 -25.3673823792659014 45.5649063596139996 28.1128704123049964
 -18.3209155855641299 48.0059331773597151 28.1128704123049964
 -0.0000003792658964 45.5649063596139996 28.1128704123049964
 53.5533334347540944 45.5649063596139996 28.1128704123049964
  5.6372238067141032 45.5649063596139996 28.1128704123049964
 11.2743634347540986 45.5649063596139996 28.1128704123049964
 19.7301574347541049 45.5649063596139996 28.1128704123049964
 47.9161938067141051 45.5649063596139996 28.1128704123049964
 31.0046058067141033 45.5649063596139996 28.1128704123049964
 -2.8186547105906588 40.6829991828024689 28.1128704123049964
 46.5068666004158757 48.0059331773597151 28.1128704123049964
 -16.9115883386306614 40.6829991828024689 28.1128704123049964
 -19.7302427105906588 40.6829991828024689 28.1128704123049964
 22.5487271675023955 55.3288671719169614 28.1128704123049964
 -12.6836912776771893 33.3600651882452155 28.1128704123049964
 -1.4093274636571897 33.3600651882452155 28.1128704123049964
  5.6371391675024016 55.3288671719169614 28.1128704123049964
  4.2278967223228134 33.3600651882452155 28.1128704123049964
 26.7766243503628161 33.3600651882452155 28.1128704123049964
 29.5952787223228171 33.3600651882452155 28.1128704123049964
 32.4138485363428117 33.3600651882452155 28.1128704123049964
 43.6882123503628037 33.3600651882452155 28.1128704123049964
 46.5068667223228047 33.3600651882452155 28.1128704123049964
 60.5998003503628055 33.3600651882452155 28.1128704123049964
 23.9580543738006249 52.8878403541712458 28.1128704123049964
 12.6836905597806329 52.8878403541712458 28.1128704123049964
 -1.4093276261993704 52.8878403541712458 28.1128704123049964
 -0.0000424550578693 21.1551507875364884 28.1128704123049964
  2.8186117949951930 35.8010187766509844 28.1128704123049964
 14.0929756090151947 35.8010187766509844 28.1128704123049964
 -18.3209156261993691 52.8878403541712458 28.1128704123049964
 31.0045636090151895 35.8010187766509844 28.1128704123049964
 -26.7767096261993700 52.8878403541712458 28.1128704123049964
 40.8696844902278471 72.4156887494372228 28.1128704123049964
 53.5533756730882544 50.4468867657654769 28.1128704123049964
 45.0975817949951860 35.8010187766509844 28.1128704123049964
 53.5533757949951976 35.8010187766509844 28.1128704123049964
 39.4603574871082543 50.4468867657654769 28.1128704123049964
 -7.0464671323324293 38.2419723650567462 28.1128704123049964
 14.0929754871082551 50.4468867657654769 28.1128704123049964
 18.3209148676675753 38.2419723650567462 28.1128704123049964
 11.2744056730882534 50.4468867657654769 28.1128704123049964
 -22.5487703269117468 50.4468867657654769 28.1128704123049964
 -9.8651216261993682 52.8878403541712458 28.1128704123049964
 -12.6836915214910633 62.6518011664742076 28.1128704123049964
 33.8231756207340979 45.5649063596139996 28.1128704123049964
 57.7812307395214404  8.9502363868277595 28.1128704123049964
 -2.8186544667767790 11.3912632045734714 28.1128704123049964
  9.8651206238536986 67.5337083432857384 28.1128704123049964
  5.6371395332232206 11.3912632045734714 28.1128704123049964
 -40.8696856957521533 72.4156887494372228 28.1128704123049964
 14.0929335332232206 11.3912632045734714 28.1128704123049964
 -32.4138916957521559 72.4156887494372228 28.1128704123049964
 31.0045215332232189 11.3912632045734714 28.1128704123049964
  1.4093266238536943 67.5337083432857384 28.1128704123049964
 45.0975397192032190 11.3912632045734714 28.1128704123049964
 -7.0464673761463033 67.5337083432857384 28.1128704123049964
 56.3719035332232110 11.3912632045734714 28.1128704123049964
 -26.7766675097721567 72.4156887494372228 28.1128704123049964
 46.5068669661366982  4.0683292100162243 28.1128704123049964
 -12.6836915621263024 67.5337083432857384 28.1128704123049964
 67.6463519051832236 11.3912632045734714 28.1128704123049964
 -18.3208735097721558 72.4156887494372228 28.1128704123049964
 47.9161518528290671  6.5092827984219914 28.1128704123049964
 -7.0465092081243990 13.8322167929792403 28.1128704123049964
 -32.4138493761463025 67.5337083432857384 28.1128704123049964
  4.2278546058956001 13.8322167929792403 28.1128704123049964
 33.8231331792213084 65.0927547548799765 28.1128704123049964
 23.9580542518936852 67.5337083432857384 28.1128704123049964
 -5.6372242807967794 11.3912632045734714 28.1128704123049964
 42.2789694175554729 69.9747351610314468 28.1128704123049964
 71.8742489255014476  8.9502363868277595 28.1128704123049964
 14.0929330455954638 69.9747351610314468 28.1128704123049964
 42.2789276668490714  6.5092827984219914 28.1128704123049964
 59.1905156668490591  6.5092827984219914 28.1128704123049964
 76.1021036668490609  6.5092827984219914 28.1128704123049964
  1.4093271114814494  8.9502363868277595 28.1128704123049964
 -2.8186549544045376 69.9747351610314468 28.1128704123049964
 22.5487270455954629 69.9747351610314468 28.1128704123049964
 31.0045638528290759  6.5092827984219914 28.1128704123049964
 21.1394849255014528  8.9502363868277595 28.1128704123049964
 -16.9115885824445336 69.9747351610314468 28.1128704123049964
 15.5022607801566892  4.0683292100162243 28.1128704123049964
 29.5952789255014537  8.9502363868277595 28.1128704123049964
 32.4138487395214483  8.9502363868277595 28.1128704123049964
 46.5068669255014484  8.9502363868277595 28.1128704123049964
 33.8231754175554755 69.9747351610314468 28.1128704123049964
 -19.7302429544045346 69.9747351610314468 28.1128704123049964
 14.0929758528290687  6.5092827984219914 28.1128704123049964
 52.1440064722697443 18.7141971991307194 28.1128704123049964
 -28.1860369544045355 69.9747351610314468 28.1128704123049964
  8.4557516668490695  6.5092827984219914 28.1128704123049964
 63.4184549255014502  8.9502363868277595 28.1128704123049964
 -39.4604007684245346 69.9747351610314468 28.1128704123049964
 25.3673396668490696  6.5092827984219914 28.1128704123049964
 29.5952366058956002 13.8322167929792403 28.1128704123049964
 -18.3209157481063052 67.5337083432857384 28.1128704123049964
 19.7301576785679771 16.2731703813850075 28.1128704123049964
  4.2278968442297478 18.7141971991307194 28.1128704123049964
 -4.2278971557702505 18.7141971991307194 28.1128704123049964
 29.5952361182678381 72.4156887494372228 28.1128704123049964
 56.3719881724349250  1.6273023922705114 28.1128704123049964
 -5.6372243214320203 16.2731703813850075 28.1128704123049964
 50.7347639864549222  1.6273023922705114 28.1128704123049964
 42.2789699864549249  1.6273023922705114 28.1128704123049964
 14.0930180505279825 16.2731703813850075 28.1128704123049964
  7.0464662925289359 62.6518011664742076 28.1128704123049964
 -7.0465515277302488 18.7141971991307194 28.1128704123049964
 25.3673819864549230  1.6273023922705114 28.1128704123049964
 32.4138909778556012 13.8322167929792403 28.1128704123049964
 32.4138482925289324 62.6518011664742076 28.1128704123049964
 39.4604001724349231  1.6273023922705114 28.1128704123049964
 36.6417456785679860 16.2731703813850075 28.1128704123049964
 67.6463518645479809 16.2731703813850075 28.1128704123049964
 29.5952784785089271 62.6518011664742076 28.1128704123049964
 38.0510301182678390 72.4156887494372228 28.1128704123049964
 74.6928609778556023 13.8322167929792403 28.1128704123049964
 31.0046061724349222  1.6273023922705114 28.1128704123049964
  4.2278964785089341 62.6518011664742076 28.1128704123049964
 31.0045633652013137 65.0927547548799765 28.1128704123049964
 40.8696849778556057 13.8322167929792403 28.1128704123049964
 18.3208723042478390 72.4156887494372228 28.1128704123049964
 22.5488121724349213  1.6273023922705114 28.1128704123049964
 15.5023024902278443 72.4156887494372228 28.1128704123049964
 19.7301995511813146 65.0927547548799765 28.1128704123049964
 43.6882124722697469 18.7141971991307194 28.1128704123049964
 23.9580546582497540 18.7141971991307194 28.1128704123049964
  5.6371813652013136 65.0927547548799765 28.1128704123049964
 73.2835761724349197  1.6273023922705114 28.1128704123049964
 32.4138486582497549 18.7141971991307194 28.1128704123049964
 -9.8651217074710615 62.6518011664742076 28.1128704123049964
 14.0930181724349168  1.6273023922705114 28.1128704123049964
 12.6836905868707941 49.6332355696302230 28.6327538495249954
 52.1440485345166493 44.7512551634787386 28.6327538495249954
 21.1394844243286215 69.1610107355562462 28.6327538495249954
 23.9581387962886225 69.1610107355562462 28.6327538495249954
 46.5068665868708067 49.6332355696302230 28.6327538495249954
 15.5022604008907816 49.6332355696302230 28.6327538495249954
 39.4603995899903808 71.6020375533019688 28.6327538495249954
 40.8696424008908039 49.6332355696302230 28.6327538495249954
 -7.0464672271492059 49.6332355696302230 28.6327538495249954
 38.0510725868707951 49.6332355696302230 28.6327538495249954
 46.5069089064766459 44.7512551634787386 28.6327538495249954
 35.2325027728508005 49.6332355696302230 28.6327538495249954
 -2.8185704100096114 71.6020375533019688 28.6327538495249954
 -21.1394854131292078 49.6332355696302230 28.6327538495249954
 31.0046057931690235 47.1922087518845075 28.6327538495249954
 -5.6372247819696195 71.6020375533019688 28.6327538495249954
 19.7302419791490244 47.1922087518845075 28.6327538495249954
 -0.0000005959896168 71.6020375533019688 28.6327538495249954
 -16.9115885959896168 71.6020375533019688 28.6327538495249954
 33.8231756071890288 47.1922087518845075 28.6327538495249954
 16.9115876071890092 47.1922087518845075 28.6327538495249954
 14.0930175899903762 71.6020375533019688 28.6327538495249954
 -25.3673825959896213 71.6020375533019688 28.6327538495249954
 36.6418299791490298 47.1922087518845075 28.6327538495249954
 16.9115874040103833 71.6020375533019688 28.6327538495249954
 -18.3209155991092061 49.6332355696302230 28.6327538495249954
  5.6372237931690181 47.1922087518845075 28.6327538495249954
 -28.1859524100096195 71.6020375533019688 28.6327538495249954
 45.0976239791490272 47.1922087518845075 28.6327538495249954
 19.7301572180303850 71.6020375533019688 28.6327538495249954
 22.5488115899903860 71.6020375533019688 28.6327538495249954
 -8.4557943928109793 47.1922087518845075 28.6327538495249954
 43.6882966103086261 69.1610107355562462 28.6327538495249954
 -11.2743642068309775 47.1922087518845075 28.6327538495249954
 33.8231754040103922 71.6020375533019688 28.6327538495249954
 47.9161937931690360 47.1922087518845075 28.6327538495249954
 -23.9580552271492060 49.6332355696302230 28.6327538495249954
 54.9627029064766432 44.7512551634787386 28.6327538495249954
 42.2789696071890333 47.1922087518845075 28.6327538495249954
 -28.1859945264368292 52.0741891580359919 28.6327538495249954
 -22.5487281427579163 61.8380767409990000 28.6327538495249954
 -25.3673401544768282 52.0741891580359919 28.6327538495249954
 35.2325026509438644 64.2791035587447084 28.6327538495249954
 45.0975393399373274 56.9561695641874692 28.6327538495249954
 32.4138482789838704 64.2791035587447084 28.6327538495249954
 -18.3208734014102959 59.3971231525932382 28.6327538495249954
  7.0464662789838490 64.2791035587447084 28.6327538495249954
 -9.8650794014102949 59.3971231525932382 28.6327538495249954
 -7.0465095873903012 59.3971231525932382 28.6327538495249954
  4.2278964649638544 64.2791035587447084 28.6327538495249954
 -1.4092854014103018 59.3971231525932382 28.6327538495249954
 12.6837327845697061 59.3971231525932382 28.6327538495249954
 -18.3209157210161457 64.2791035587447084 28.6327538495249954
 -26.7767097210161431 64.2791035587447084 28.6327538495249954
 15.5023025985896936 59.3971231525932382 28.6327538495249954
 -29.5952795350361448 64.2791035587447084 28.6327538495249954
 -32.4138493490561430 64.2791035587447084 28.6327538495249954
 18.3208724126097096 59.3971231525932382 28.6327538495249954
 32.4138905985897026 59.3971231525932382 28.6327538495249954
 -11.2743643287379136 61.8380767409990000 28.6327538495249954
 -25.3673825147179137 61.8380767409990000 28.6327538495249954
 -8.4557945147179190 61.8380767409990000 28.6327538495249954
 -28.1859523287379155 61.8380767409990000 28.6327538495249954
 -31.0045221427579136 61.8380767409990000 28.6327538495249954
 14.0930176712620749 61.8380767409990000 28.6327538495249954
 42.2789695259173328 56.9561695641874692 28.6327538495249954
 -33.8231765147179146 61.8380767409990000 28.6327538495249954
 31.0046056712620839 61.8380767409990000 28.6327538495249954
 46.5069087845697027 59.3971231525932382 28.6327538495249954
 43.6882544126097088 59.3971231525932382 28.6327538495249954
 33.8231754852820927 61.8380767409990000 28.6327538495249954
 36.6418298572420866 61.8380767409990000 28.6327538495249954
 47.9161936712620928 61.8380767409990000 28.6327538495249954
 16.9115874852820909 61.8380767409990000 28.6327538495249954
 12.6836904243286224 69.1610107355562462 28.6327538495249954
 -19.7302006483437680 66.7200571471504844 28.6327538495249954
 19.7301573399373318 56.9561695641874692 28.6327538495249954
 -19.7302005264368283 52.0741891580359919 28.6327538495249954
 -2.8186125264368322 52.0741891580359919 28.6327538495249954
 -1.4092432037113782 69.1610107355562462 28.6327538495249954
  0.0000418455231652 52.0741891580359919 28.6327538495249954
 11.2744056595431719 52.0741891580359919 28.6327538495249954
 -4.2278975756713866 69.1610107355562462 28.6327538495249954
 25.3674238455231631 52.0741891580359919 28.6327538495249954
 39.4603574735631781 52.0741891580359919 28.6327538495249954
 53.5533756595431782 52.0741891580359919 28.6327538495249954
 -18.3208312037113821 69.1610107355562462 28.6327538495249954
 -29.5952794537644479 54.5151427464417537 28.6327538495249954
 -23.9580552677844487 54.5151427464417537 28.6327538495249954
 -15.5022612677844460 54.5151427464417537 28.6327538495249954
 -9.8650370818044468 54.5151427464417537 28.6327538495249954
  1.4093267322155492 54.5151427464417537 28.6327538495249954
  4.2278965462355513 54.5151427464417537 28.6327538495249954
 -38.0510735756713814 69.1610107355562462 28.6327538495249954
 -16.9115462763837670 66.7200571471504844 28.6327538495249954
 16.9115875259173158 56.9561695641874692 28.6327538495249954
  5.6372237118973310 56.9561695641874692 28.6327538495249954
 -8.4557522763837714 66.7200571471504844 28.6327538495249954
 -11.2743642881026744 56.9561695641874692 28.6327538495249954
 -2.8186126483437688 66.7200571471504844 28.6327538495249954
 31.0046057118973302 56.9561695641874692 28.6327538495249954
  0.0000417236162395 66.7200571471504844 28.6327538495249954
  8.4558357236162376 66.7200571471504844 28.6327538495249954
 26.7767087322155568 54.5151427464417537 28.6327538495249954
 25.3674237236162377 66.7200571471504844 28.6327538495249954
 23.9581389181955480 54.5151427464417537 28.6327538495249954
 31.0045633516562411 66.7200571471504844 28.6327538495249954
  7.0465509181955595 54.5151427464417537 28.6327538495249954
  2.8186115376362340 66.7200571471504844 28.6327538495249954
 12.6837332721974576  0.8136511961352557 28.6327538495249954
 40.8696425227977400 34.9873675805157234 28.6327538495249954
 23.9580967204966342 44.7512551634787386 28.6327538495249954
 15.5023029643105232 15.4595191852497500 28.6327538495249954
 12.6837331502905215 15.4595191852497500 28.6327538495249954
 -4.2278548497094786 15.4595191852497500 28.6327538495249954
 -7.0465092216694787 15.4595191852497500 28.6327538495249954
 76.1021458916381448 13.0185655968439828 28.6327538495249954
 70.4649217056581421 13.0185655968439828 28.6327538495249954
 67.6463518916381474 13.0185655968439828 28.6327538495249954
 64.8277820776181386 13.0185655968439828 28.6327538495249954
 53.5533337056581473 13.0185655968439828 28.6327538495249954
 21.1395271502905153 15.4595191852497500 28.6327538495249954
 50.7347638916381456 13.0185655968439828 28.6327538495249954
 39.4604000776181465 13.0185655968439828 28.6327538495249954
 31.0046060776181456 13.0185655968439828 28.6327538495249954
 14.0930180776181420 13.0185655968439828 28.6327538495249954
  5.6372240776181393 13.0185655968439828 28.6327538495249954
  2.8185697056581414 13.0185655968439828 28.6327538495249954
 -5.6372242943418591 13.0185655968439828 28.6327538495249954
 77.5114730979363742 10.5775387790982709 28.6327538495249954
 69.0556790979363768 10.5775387790982709 28.6327538495249954
 66.2371092839163680 10.5775387790982709 28.6327538495249954
 42.2789698916381340 13.0185655968439828 28.6327538495249954
 57.7813152839163777 10.5775387790982709 28.6327538495249954
 23.9580969643105171 15.4595191852497500 28.6327538495249954
 40.8696849643105153 15.4595191852497500 28.6327538495249954
 14.0929757173770476 22.7824531798069998 28.6327538495249954
  5.6371817173770493 22.7824531798069998 28.6327538495249954
  2.8186119033570516 22.7824531798069998 28.6327538495249954
  0.0000420893370479 22.7824531798069998 28.6327538495249954
 69.0556790166646692 20.3414995914012344 28.6327538495249954
 52.1440910166646745 20.3414995914012344 28.6327538495249954
 49.3254366447046735 20.3414995914012344 28.6327538495249954
 23.9580546447046672 20.3414995914012344 28.6327538495249954
 21.1394848306846654 20.3414995914012344 28.6327538495249954
 38.0511151502905278 15.4595191852497500 28.6327538495249954
 12.6836908306846716 20.3414995914012344 28.6327538495249954
  1.4093270166646681 20.3414995914012344 28.6327538495249954
 67.6463518510029047 17.9004727736555189 28.6327538495249954
 62.0092122229629013 17.9004727736555189 28.6327538495249954
 31.0046060369829029 17.9004727736555189 28.6327538495249954
 25.3673818510029001 17.9004727736555189 28.6327538495249954
 22.5488120369828984 17.9004727736555189 28.6327538495249954
 14.0930180369829028 17.9004727736555189 28.6327538495249954
 -5.6371397770370981 17.9004727736555189 28.6327538495249954
 69.0556367783305234 15.4595191852497500 28.6327538495249954
  4.2278968306846716 20.3414995914012344 28.6327538495249954
 22.5487697173770485 22.7824531798069998 28.6327538495249954
 54.9626609119563767 10.5775387790982709 28.6327538495249954
 49.3255212839163661 10.5775387790982709 28.6327538495249954
 76.1021459729098524  3.2546047845410229 28.6327538495249954
 64.8277821588898462  3.2546047845410229 28.6327538495249954
 56.3719881588898417  3.2546047845410229 28.6327538495249954
 47.9161941588898301  3.2546047845410229 28.6327538495249954
 45.0976243448698426  3.2546047845410229 28.6327538495249954
 42.2789699729098274  3.2546047845410229 28.6327538495249954
 31.0046061588898354  3.2546047845410229 28.6327538495249954
 16.9115879729098388  3.2546047845410229 28.6327538495249954
 14.0930181588898407  3.2546047845410229 28.6327538495249954
 78.9208003448698463  3.2546047845410229 28.6327538495249954
  5.6372241588898389  3.2546047845410229 28.6327538495249954
 80.3300852721974650  0.8136511961352557 28.6327538495249954
 77.5114309002374711  0.8136511961352557 28.6327538495249954
 74.6928610862174764  0.8136511961352557 28.6327538495249954
 71.8742912721974676  0.8136511961352557 28.6327538495249954
 60.5998429002374621  0.8136511961352557 28.6327538495249954
 57.7812730862174604  0.8136511961352557 28.6327538495249954
 40.8696850862174585  0.8136511961352557 28.6327538495249954
 23.9580970862174638  0.8136511961352557 28.6327538495249954
 15.5023030862174611  0.8136511961352557 28.6327538495249954
  2.8186543448698407  3.2546047845410229 28.6327538495249954
 52.1440910979363750 10.5775387790982709 28.6327538495249954
  4.2278969525916086  5.6956316022867357 28.6327538495249954
 23.9580547666116068  5.6956316022867357 28.6327538495249954
 32.4139332839163785 10.5775387790982709 28.6327538495249954
 29.5952789119563668 10.5775387790982709 28.6327538495249954
  7.0465512839163686 10.5775387790982709 28.6327538495249954
  4.2278969119563712 10.5775387790982709 28.6327538495249954
 -4.2278970880436288 10.5775387790982709 28.6327538495249954
 76.1021882112439840  8.1365851906925037 28.6327538495249954
 67.6463942112439867  8.1365851906925037 28.6327538495249954
 64.8277398392839928  8.1365851906925037 28.6327538495249954
 62.0091700252639910  8.1365851906925037 28.6327538495249954
 15.5022607666116095  5.6956316022867357 28.6327538495249954
 59.1906002112439964  8.1365851906925037 28.6327538495249954
 31.0045638392839891  8.1365851906925037 28.6327538495249954
 22.5487698392839881  8.1365851906925037 28.6327538495249954
 14.0929758392839890  8.1365851906925037 28.6327538495249954
  5.6371818392839907  8.1365851906925037 28.6327538495249954
  2.8186120252639890  8.1365851906925037 28.6327538495249954
 46.5068669525916008  5.6956316022867357 28.6327538495249954
 43.6882971385716132  5.6956316022867357 28.6327538495249954
 40.8696427666115980  5.6956316022867357 28.6327538495249954
 32.4138487666116077  5.6956316022867357 28.6327538495249954
 47.9161518392839980  8.1365851906925037 28.6327538495249954
 36.6417879033570415 22.7824531798069998 28.6327538495249954
 39.4603577173770574 22.7824531798069998 28.6327538495249954
 50.7348060893370558 22.7824531798069998 28.6327538495249954
 42.2790119674301152 37.4283211689214923 28.6327538495249954
 39.4603575954701142 37.4283211689214923 28.6327538495249954
 33.8232179674301037 37.4283211689214923 28.6327538495249954
 31.0045635954701204 37.4283211689214923 28.6327538495249954
 14.0929755954701115 37.4283211689214923 28.6327538495249954
  2.8186117814501150 37.4283211689214923 28.6327538495249954
 -14.0929762185498877 37.4283211689214923 28.6327538495249954
 -16.9115460325698876 37.4283211689214923 28.6327538495249954
 -19.7302004045298887 37.4283211689214923 28.6327538495249954
 45.0975817814501099 37.4283211689214923 28.6327538495249954
 54.9626607087777472 34.9873675805157234 28.6327538495249954
 43.6882968947577410 34.9873675805157234 28.6327538495249954
 38.0510727087777383 34.9873675805157234 28.6327538495249954
 35.2325028947577295 34.9873675805157234 28.6327538495249954
 29.5952787087777267 34.9873675805157234 28.6327538495249954
 18.3209148947577418 34.9873675805157234 28.6327538495249954
 15.5022605227977337 34.9873675805157234 28.6327538495249954
 12.6836907087777320 34.9873675805157234 28.6327538495249954
  4.2278967087777302 34.9873675805157234 28.6327538495249954
  1.4093268947577322 34.9873675805157234 28.6327538495249954
 52.1440908947577384 34.9873675805157234 28.6327538495249954
 -1.4093274772022688 34.9873675805157234 28.6327538495249954
 53.5533757814501215 37.4283211689214923 28.6327538495249954
 -18.3208309598975099 39.8692747573272612 28.6327538495249954
 21.1395269064766467 44.7512551634787386 28.6327538495249954
  4.2279389064766386 44.7512551634787386 28.6327538495249954
  1.4092845345166412 44.7512551634787386 28.6327538495249954
 -7.0465094654833562 44.7512551634787386 28.6327538495249954
 -9.8650792795033553 44.7512551634787386 28.6327538495249954
 -12.6836490935233588 44.7512551634787386 28.6327538495249954
 53.5533334618442680 42.3103015750729767 28.6327538495249954
 28.1859514618442688 42.3103015750729767 28.6327538495249954
 22.5488118338042653 42.3103015750729767 28.6327538495249954
 -21.1394853318575109 39.8692747573272612 28.6327538495249954
 14.0930178338042680 42.3103015750729767 28.6327538495249954
 -5.6372245381557384 42.3103015750729767 28.6327538495249954
 -16.9115883521757375 42.3103015750729767 28.6327538495249954
 -19.7301581661957393 42.3103015750729767 28.6327538495249954
 54.9626606681424974 39.8692747573272612 28.6327538495249954
 52.1440908541225028 39.8692747573272612 28.6327538495249954
 38.0510726681424956 39.8692747573272612 28.6327538495249954
 12.6836906681424875 39.8692747573272612 28.6327538495249954
  9.8651208541224857 39.8692747573272612 28.6327538495249954
 -7.0464671458775081 39.8692747573272612 28.6327538495249954
 -2.8185701661957374 42.3103015750729767 28.6327538495249954
 -12.6836912912222672 34.9873675805157234 28.6327538495249954
 -18.3209154772022664 34.9873675805157234 28.6327538495249954
 62.0092121010559580 32.5463407627700150 28.6327538495249954
 28.1859515837511907 27.6644335859584807 28.6327538495249954
 14.0930179557111952 27.6644335859584807 28.6327538495249954
 -8.4557942302688005 27.6644335859584807 28.6327538495249954
 -11.2743640442888005 27.6644335859584807 28.6327538495249954
 -14.0930184162487979 27.6644335859584807 28.6327538495249954
 69.0556789760294407 25.2234067682127652 28.6327538495249954
 60.5998849760294434 25.2234067682127652 28.6327538495249954
 57.7813151620094345 25.2234067682127652 28.6327538495249954
 43.6882969760294344 25.2234067682127652 28.6327538495249954
 31.0046059557112059 27.6644335859584807 28.6327538495249954
 40.8697271620094256 25.2234067682127652 28.6327538495249954
 15.5023451620094264 25.2234067682127652 28.6327538495249954
 12.6836907900494289 25.2234067682127652 28.6327538495249954
  4.2278967900494315 25.2234067682127652 28.6327538495249954
 -7.0464670239705693 25.2234067682127652 28.6327538495249954
 -12.6836912099505668 25.2234067682127652 28.6327538495249954
 67.6463940893370506 22.7824531798069998 28.6327538495249954
 64.8277397173770566 22.7824531798069998 28.6327538495249954
 59.1906000893370532 22.7824531798069998 28.6327538495249954
 53.5533759033570504 22.7824531798069998 28.6327538495249954
 29.5952787900494201 25.2234067682127652 28.6327538495249954
 45.0975395837512067 27.6644335859584807 28.6327538495249954
 59.1905577697312140 27.6644335859584807 28.6327538495249954
 62.0091275837512086 27.6644335859584807 28.6327538495249954
 59.1905577290959641 32.5463407627700150 28.6327538495249954
 56.3719879150759695 32.5463407627700150 28.6327538495249954
 45.0976241010559633 32.5463407627700150 28.6327538495249954
 31.0046059150759525 32.5463407627700150 28.6327538495249954
 28.1860361010559650 32.5463407627700150 28.6327538495249954
 19.7302421010559677 32.5463407627700150 28.6327538495249954
 16.9115877290959595 32.5463407627700150 28.6327538495249954
 14.0930179150759578 32.5463407627700150 28.6327538495249954
  2.8186541010559618 32.5463407627700150 28.6327538495249954
 -0.0000002709040391 32.5463407627700150 28.6327538495249954
 -5.6371398989440404 32.5463407627700150 28.6327538495249954
 60.5998426564235899 30.1053871743642461 28.6327538495249954
 46.5069090283835891 30.1053871743642461 28.6327538495249954
 29.5953210283835837 30.1053871743642461 28.6327538495249954
 23.9580968424035810 30.1053871743642461 28.6327538495249954
 15.5023028424035783 30.1053871743642461 28.6327538495249954
 12.6837330283835765 30.1053871743642461 28.6327538495249954
  4.2279390283835818 30.1053871743642461 28.6327538495249954
 -4.2278549716164209 30.1053871743642461 28.6327538495249954
 -7.0465093435764183 30.1053871743642461 28.6327538495249954
 -9.8650791575964192 30.1053871743642461 28.6327538495249954
 32.4138907204966458 44.7512551634787386 28.6327538495249954
 42.2789694040103896 71.6020375533019688 28.6327538495249954
