 H  O 
 1.0000000000000000
    84.5579400000000021    0.0000000000000000    0.0000000000000000
   -42.2789706095346958   73.2293399455724767    0.0000000000000000
     0.0000000000000000    0.0000000000000000   46.9039550000000034
 H   O  
 273 249
Cartesian
 -0.0000000135450799  1.6273023922705114 28.1128704123049964
 -7.0465094519382783 43.1239527712082307 28.1128704123049964
 -12.6837336379182783 43.1239527712082307 28.1128704123049964
 -18.3208732659582765 43.1239527712082307 28.1128704123049964
 56.3719032894093317 40.6829991828024689 28.1128704123049964
 53.5533334753893371 40.6829991828024689 28.1128704123049964
 50.7347636613693425 40.6829991828024689 28.1128704123049964
 47.9161092894093343 40.6829991828024689 28.1128704123049964
 45.0975394753893397 40.6829991828024689 28.1128704123049964
 42.2789696613693309 40.6829991828024689 28.1128704123049964
 39.4603152894093299 40.6829991828024689 28.1128704123049964
 22.5487272894093422 40.6829991828024689 28.1128704123049964
 19.7301574753893405 40.6829991828024689 28.1128704123049964
 16.9115876613693388 40.6829991828024689 28.1128704123049964
 14.0929332894093395 40.6829991828024689 28.1128704123049964
 11.2743634753893449 40.6829991828024689 28.1128704123049964
  8.4557936613693432 40.6829991828024689 28.1128704123049964
 -0.0000003386306579 40.6829991828024689 28.1128704123049964
 -19.7302427105906588 40.6829991828024689 28.1128704123049964
 54.9626606816875736 38.2419723650567462 28.1128704123049964
 -1.4092852659582757 43.1239527712082307 28.1128704123049964
  7.0465087340417254 43.1239527712082307 28.1128704123049964
 12.6836483620817209 43.1239527712082307 28.1128704123049964
 15.5023027340417219 43.1239527712082307 28.1128704123049964
 18.3208302284558755 48.0059331773597151 28.1128704123049964
  7.0464664144358764 48.0059331773597151 28.1128704123049964
  1.4092422284558699 48.0059331773597151 28.1128704123049964
 -18.3209155855641299 48.0059331773597151 28.1128704123049964
 -21.1394853995841281 48.0059331773597151 28.1128704123049964
 53.5533334347540944 45.5649063596139996 28.1128704123049964
 47.9161938067141051 45.5649063596139996 28.1128704123049964
 45.0975394347540970 45.5649063596139996 28.1128704123049964
 42.2789696207341024 45.5649063596139996 28.1128704123049964
 49.3254364957075708 38.2419723650567462 28.1128704123049964
 39.4603998067140935 45.5649063596139996 28.1128704123049964
 -5.6372245652458988 45.5649063596139996 28.1128704123049964
 -14.0930185652459006 45.5649063596139996 28.1128704123049964
 -25.3673823792659014 45.5649063596139996 28.1128704123049964
 46.5068243620817157 43.1239527712082307 28.1128704123049964
 40.8696847340417122 43.1239527712082307 28.1128704123049964
 26.7766665480617228 43.1239527712082307 28.1128704123049964
 23.9580967340417281 43.1239527712082307 28.1128704123049964
 21.1394423620817271 43.1239527712082307 28.1128704123049964
 18.3208725480617254 43.1239527712082307 28.1128704123049964
 31.0046058067141033 45.5649063596139996 28.1128704123049964
 21.1394846004158765 48.0059331773597151 28.1128704123049964
 43.6882968676675674 38.2419723650567462 28.1128704123049964
 32.4138484957075690 38.2419723650567462 28.1128704123049964
  7.0464665363428152 33.3600651882452155 28.1128704123049964
  4.2278967223228134 33.3600651882452155 28.1128704123049964
 -15.5023456496371885 33.3600651882452155 28.1128704123049964
 53.5533335566610376 30.9190383704995000 28.1128704123049964
 47.9161939286210341 30.9190383704995000 28.1128704123049964
 36.6417455566610357 30.9190383704995000 28.1128704123049964
 28.1859515566610455 30.9190383704995000 28.1128704123049964
 25.3673817426410437 30.9190383704995000 28.1128704123049964
 16.9115877426410464 30.9190383704995000 28.1128704123049964
 11.2743635566610401 30.9190383704995000 28.1128704123049964
  8.4557937426410454 30.9190383704995000 28.1128704123049964
 -0.0000002573589589 30.9190383704995000 28.1128704123049964
 66.2370668559486688 28.4780847820937346 28.1128704123049964
 57.7812728559486644 28.4780847820937346 28.1128704123049964
 46.5068244839886518 28.4780847820937346 28.1128704123049964
 40.8696848559486625 28.4780847820937346 28.1128704123049964
 38.0510304839886544 28.4780847820937346 28.1128704123049964
 32.4138908559486651 28.4780847820937346 28.1128704123049964
 29.5952364839886641 28.4780847820937346 28.1128704123049964
  9.8650363503628089 33.3600651882452155 28.1128704123049964
 18.3208303503628116 33.3600651882452155 28.1128704123049964
 21.1394847223228126 33.3600651882452155 28.1128704123049964
 32.4138485363428117 33.3600651882452155 28.1128704123049964
 26.7767088676675797 38.2419723650567462 28.1128704123049964
 18.3209148676675753 38.2419723650567462 28.1128704123049964
 15.5022604957075725 38.2419723650567462 28.1128704123049964
 -9.8651215042924267 38.2419723650567462 28.1128704123049964
 62.0091697949951950 35.8010187766509844 28.1128704123049964
 59.1905154230351869 35.8010187766509844 28.1128704123049964
 50.7347214230351895 35.8010187766509844 28.1128704123049964
 47.9161516090151949 35.8010187766509844 28.1128704123049964
 25.3673394230351938 35.8010187766509844 28.1128704123049964
 38.0510726816875717 38.2419723650567462 28.1128704123049964
 19.7301997949951904 35.8010187766509844 28.1128704123049964
 11.2744057949951930 35.8010187766509844 28.1128704123049964
  5.6371816090151947 35.8010187766509844 28.1128704123049964
 -2.8186123909848098 35.8010187766509844 28.1128704123049964
 -16.9116305769648072 35.8010187766509844 28.1128704123049964
 54.9626607223228163 33.3600651882452155 28.1128704123049964
 52.1440063503628082 33.3600651882452155 28.1128704123049964
 49.3254365363428136 33.3600651882452155 28.1128704123049964
 46.5068667223228047 33.3600651882452155 28.1128704123049964
 38.0510727223228145 33.3600651882452155 28.1128704123049964
 14.0929756090151947 35.8010187766509844 28.1128704123049964
 23.9580968559486607 28.4780847820937346 28.1128704123049964
 29.5952786004158739 48.0059331773597151 28.1128704123049964
 -28.1859945128917460 50.4468867657654769 28.1128704123049964
 16.9115451792213065 65.0927547548799765 28.1128704123049964
 11.2744055511813173 65.0927547548799765 28.1128704123049964
  8.4557511792213162 65.0927547548799765 28.1128704123049964
  5.6371813652013136 65.0927547548799765 28.1128704123049964
  2.8186115511813119 65.0927547548799765 28.1128704123049964
 -11.2744066347986838 65.0927547548799765 28.1128704123049964
 -14.0929764488186855 65.0927547548799765 28.1128704123049964
 -31.0045644488186873 65.0927547548799765 28.1128704123049964
 43.6882121065489244 62.6518011664742076 28.1128704123049964
 32.4138482925289324 62.6518011664742076 28.1128704123049964
 15.5022602925289341 62.6518011664742076 28.1128704123049964
  9.8650361065489385 62.6518011664742076 28.1128704123049964
  4.2278964785089341 62.6518011664742076 28.1128704123049964
 -1.4093277074710613 62.6518011664742076 28.1128704123049964
 -4.2278975214910632 62.6518011664742076 28.1128704123049964
 -21.1394855214910677 62.6518011664742076 28.1128704123049964
 -32.4139338934510661 62.6518011664742076 28.1128704123049964
 39.4603996848071645 60.2107743487284921 28.1128704123049964
 36.6417453128471564 60.2107743487284921 28.1128704123049964
 19.7301995511813146 65.0927547548799765 28.1128704123049964
 22.5487693652013093 65.0927547548799765 28.1128704123049964
 -32.4138493761463025 67.5337083432857384 28.1128704123049964
  4.2278964378736958 67.5337083432857384 28.1128704123049964
 -1.4092855097721566 72.4156887494372228 28.1128704123049964
 -7.0465096957521522 72.4156887494372228 28.1128704123049964
 -12.6837338817321594 72.4156887494372228 28.1128704123049964
 -18.3208735097721558 72.4156887494372228 28.1128704123049964
 -26.7766675097721567 72.4156887494372228 28.1128704123049964
 -32.4138916957521559 72.4156887494372228 28.1128704123049964
 -35.2324615097721576 72.4156887494372228 28.1128704123049964
 -38.0511158817321586 72.4156887494372228 28.1128704123049964
 42.2789694175554729 69.9747351610314468 28.1128704123049964
 22.5488116848071662 60.2107743487284921 28.1128704123049964
 33.8231754175554755 69.9747351610314468 28.1128704123049964
  2.8185692315754580 69.9747351610314468 28.1128704123049964
 -14.0930187684245301 69.9747351610314468 28.1128704123049964
 -22.5488127684245363 69.9747351610314468 28.1128704123049964
 -31.0046067684245337 69.9747351610314468 28.1128704123049964
 43.6882966238536952 67.5337083432857384 28.1128704123049964
 32.4138482518936897 67.5337083432857384 28.1128704123049964
 23.9580542518936852 67.5337083432857384 28.1128704123049964
 15.5022602518936878 67.5337083432857384 28.1128704123049964
  9.8651206238536986 67.5337083432857384 28.1128704123049964
 28.1859512315754728 69.9747351610314468 28.1128704123049964
 35.2324182284558631 48.0059331773597151 28.1128704123049964
 16.9115874988271635 60.2107743487284921 28.1128704123049964
 -2.8185703151928343 60.2107743487284921 28.1128704123049964
 14.0929331675024070 55.3288671719169614 28.1128704123049964
 -0.0000004605375943 55.3288671719169614 28.1128704123049964
 -2.8186548324975988 55.3288671719169614 28.1128704123049964
 -5.6372246465175939 55.3288671719169614 28.1128704123049964
 -8.4557944605375948 55.3288671719169614 28.1128704123049964
 -14.0930186465175975 55.3288671719169614 28.1128704123049964
 -25.3673824605375984 55.3288671719169614 28.1128704123049964
 -31.0046066465175976 55.3288671719169614 28.1128704123049964
 35.2325027457606268 52.8878403541712458 28.1128704123049964
 32.4138483738006258 52.8878403541712458 28.1128704123049964
 -1.4093276261993704 52.8878403541712458 28.1128704123049964
 -7.0464672542393672 52.8878403541712458 28.1128704123049964
 50.7347213011282463 50.4468867657654769 28.1128704123049964
 42.2789273011282489 50.4468867657654769 28.1128704123049964
 25.3673393011282471 50.4468867657654769 28.1128704123049964
 14.0929754871082551 50.4468867657654769 28.1128704123049964
  2.8186116730882564 50.4468867657654769 28.1128704123049964
 -0.0000426988717480 50.4468867657654769 28.1128704123049964
 -11.2744065128917477 50.4468867657654769 28.1128704123049964
 25.3673815394624036 55.3288671719169614 28.1128704123049964
 28.1859513534823982 55.3288671719169614 28.1128704123049964
 31.0045211675023928 55.3288671719169614 28.1128704123049964
 39.4603151675024009 55.3288671719169614 28.1128704123049964
 -5.6372246871528393 60.2107743487284921 28.1128704123049964
 -8.4557945011728339 60.2107743487284921 28.1128704123049964
 -11.2743643151928357 60.2107743487284921 28.1128704123049964
 -14.0930186871528367 60.2107743487284921 28.1128704123049964
 -16.9115885011728366 60.2107743487284921 28.1128704123049964
 -25.3673825011728376 60.2107743487284921 28.1128704123049964
 -28.1859523151928357 60.2107743487284921 28.1128704123049964
 49.3254786121347877 57.7698207603227232 28.1128704123049964
 46.5068242401747796 57.7698207603227232 28.1128704123049964
  2.8185693128471621 60.2107743487284921 28.1128704123049964
 43.6882544261547849 57.7698207603227232 28.1128704123049964
 29.5952362401747777 57.7698207603227232 28.1128704123049964
 26.7766664261547831 57.7698207603227232 28.1128704123049964
 23.9580966121347885 57.7698207603227232 28.1128704123049964
  7.0465086121347857 57.7698207603227232 28.1128704123049964
  1.4092844261547897 57.7698207603227232 28.1128704123049964
 -4.2279397598252162 57.7698207603227232 28.1128704123049964
 -7.0465095738452108 57.7698207603227232 28.1128704123049964
 -9.8650793878652134 57.7698207603227232 28.1128704123049964
 -15.5023035738452162 57.7698207603227232 28.1128704123049964
 32.4138906121347787 57.7698207603227232 28.1128704123049964
  9.8650786699686659 28.4780847820937346 28.1128704123049964
 21.1394846816875770 38.2419723650567462 28.1128704123049964
 16.9115456668490722  6.5092827984219914 28.1128704123049964
  8.4557938645479798 16.2731703813850075 28.1128704123049964
 28.1859516785679780 16.2731703813850075 28.1128704123049964
 67.6463096668490635  6.5092827984219914 28.1128704123049964
 31.0046060505279790 16.2731703813850075 28.1128704123049964
 47.9161940505279844 16.2731703813850075 28.1128704123049964
 62.0091276785679781 16.2731703813850075 28.1128704123049964
 64.8277820505279863 16.2731703813850075 28.1128704123049964
 70.4649216785679755 16.2731703813850075 28.1128704123049964
 -4.2278971557702505 18.7141971991307194 28.1128704123049964
 53.5533760388090698  6.5092827984219914 28.1128704123049964
 47.9161518528290671  6.5092827984219914 28.1128704123049964
 39.4603578528290697  6.5092827984219914 28.1128704123049964
 19.7302000388090732  6.5092827984219914 28.1128704123049964
 46.5068668442297550 18.7141971991307194 28.1128704123049964
 54.9626608442297453 18.7141971991307194 28.1128704123049964
 63.4184548442297569 18.7141971991307194 28.1128704123049964
 69.0555944722697461 18.7141971991307194 28.1128704123049964
 71.8742488442297542 18.7141971991307194 28.1128704123049964
 -8.4558364550578684 21.1551507875364884 28.1128704123049964
 14.0929758528290687  6.5092827984219914 28.1128704123049964
  2.8186119169021282 21.1551507875364884 28.1128704123049964
 11.2744059169021327 21.1551507875364884 28.1128704123049964
 11.2744060388090670  6.5092827984219914 28.1128704123049964
 28.1859939169021310 21.1551507875364884 28.1128704123049964
 33.8231335449421309 21.1551507875364884 28.1128704123049964
 45.0975819169021293 21.1551507875364884 28.1128704123049964
 77.5113885941766796  4.0683292100162243 28.1128704123049964
  9.8651211114814483  8.9502363868277595 28.1128704123049964
 71.8742489661366903  4.0683292100162243 28.1128704123049964
 15.5022607395214518  8.9502363868277595 28.1128704123049964
 26.7767091114814519  8.9502363868277595 28.1128704123049964
 50.7347639051832218 11.3912632045734714 28.1128704123049964
 73.2834915332232129 11.3912632045734714 28.1128704123049964
 22.5487275332232180 11.3912632045734714 28.1128704123049964
 19.7301577192032234 11.3912632045734714 28.1128704123049964
 16.9115879051832216 11.3912632045734714 28.1128704123049964
 14.0929335332232206 11.3912632045734714 28.1128704123049964
 11.2743637192032189 11.3912632045734714 28.1128704123049964
  8.4557939051832172 11.3912632045734714 28.1128704123049964
  7.0465089778555976 13.8322167929792403 28.1128704123049964
 23.9580969778556039 13.8322167929792403 28.1128704123049964
  2.8185697192032206 11.3912632045734714 28.1128704123049964
 29.5952366058956002 13.8322167929792403 28.1128704123049964
 77.5114731114814504  8.9502363868277595 28.1128704123049964
 35.2324607918756030 13.8322167929792403 28.1128704123049964
 63.4184549255014502  8.9502363868277595 28.1128704123049964
 60.5998851114814414  8.9502363868277595 28.1128704123049964
 49.3254789778556031 13.8322167929792403 28.1128704123049964
 54.9626609255014458  8.9502363868277595 28.1128704123049964
 52.1440911114814512  8.9502363868277595 28.1128704123049964
 46.5068669255014484  8.9502363868277595 28.1128704123049964
 52.1440487918755977 13.8322167929792403 28.1128704123049964
 57.7812729778555934 13.8322167929792403 28.1128704123049964
 63.4184126058955968 13.8322167929792403 28.1128704123049964
 38.0510729255014510  8.9502363868277595 28.1128704123049964
  2.8185696785679806 16.2731703813850075 28.1128704123049964
  5.6372240505279780 16.2731703813850075 28.1128704123049964
 32.4138487395214483  8.9502363868277595 28.1128704123049964
 21.1394849255014528  8.9502363868277595 28.1128704123049964
 60.5998005941766849  4.0683292100162243 28.1128704123049964
 67.6463519051832236 11.3912632045734714 28.1128704123049964
 21.1394848035945166 23.5961043759422537 28.1128704123049964
 18.3208305941766909  4.0683292100162243 28.1128704123049964
 12.6836909661366875  4.0683292100162243 28.1128704123049964
 12.6836908035945140 23.5961043759422537 28.1128704123049964
 50.7347637832762715 26.0371311936879657 28.1128704123049964
 31.0045214113162864 26.0371311936879657 28.1128704123049964
 81.7393701724349171  1.6273023922705114 28.1128704123049964
 26.7767089895745123 23.5961043759422537 28.1128704123049964
 14.0930181724349168  1.6273023922705114 28.1128704123049964
 29.5952788035945140 23.5961043759422537 28.1128704123049964
 73.2835761724349197  1.6273023922705114 28.1128704123049964
 16.9115877832762855 26.0371311936879657 28.1128704123049964
 50.7347639864549222  1.6273023922705114 28.1128704123049964
 57.7812306176145043 23.5961043759422537 28.1128704123049964
 11.2743635972962863 26.0371311936879657 28.1128704123049964
 56.3719881724349250  1.6273023922705114 28.1128704123049964
 -8.4557942167237172 26.0371311936879657 28.1128704123049964
 35.2325029895745132 23.5961043759422537 28.1128704123049964
 23.9580547801566937  4.0683292100162243 28.1128704123049964
 69.0556789895745169 23.5961043759422537 28.1128704123049964
 29.5952789661366928  4.0683292100162243 28.1128704123049964
 64.8276974113162794 26.0371311936879657 28.1128704123049964
 -1.4092851440513405 28.4780847820937346 28.1128704123049964
 19.7301573399373318 56.9561695641874692 28.6327538495249954
 35.2325030979363731 10.5775387790982709 28.6327538495249954
 38.0510729119563607 10.5775387790982709 28.6327538495249954
 23.9580970862174638  0.8136511961352557 28.6327538495249954
 35.2324609002374558  0.8136511961352557 28.6327538495249954
 38.0511152721974639  0.8136511961352557 28.6327538495249954
 59.1906002112439964  8.1365851906925037 28.6327538495249954
 -18.3208310818044460 54.5151427464417537 28.6327538495249954
 43.6882970979363634 10.5775387790982709 28.6327538495249954
 -26.7766250818044469 54.5151427464417537 28.6327538495249954
 52.1440489002374647  0.8136511961352557 28.6327538495249954
 50.7348058455231694 52.0741891580359919 28.6327538495249954
 42.2790122112439946  8.1365851906925037 28.6327538495249954
 38.0510724243286234 69.1610107355562462 28.6327538495249954
 -32.4138915873902960 59.3971231525932382 28.6327538495249954
 60.5998429002374621  0.8136511961352557 28.6327538495249954
 63.4184972721974631  0.8136511961352557 28.6327538495249954
 47.9161514735631755 52.0741891580359919 28.6327538495249954
 33.8232182112439972  8.1365851906925037 28.6327538495249954
  8.4557935259173256 56.9561695641874692 28.6327538495249954
 22.5488115899903860 71.6020375533019688 28.6327538495249954
 73.2835338392839901  8.1365851906925037 28.6327538495249954
 -16.9115885959896168 71.6020375533019688 28.6327538495249954
 -2.8185704100096114 71.6020375533019688 28.6327538495249954
 21.1394845462355612 54.5151427464417537 28.6327538495249954
  7.0465512839163686 10.5775387790982709 28.6327538495249954
  8.4557934040103735 71.6020375533019688 28.6327538495249954
 43.6882967322155622 54.5151427464417537 28.6327538495249954
  7.0465509181955595 54.5151427464417537 28.6327538495249954
 46.5068665462355568 54.5151427464417537 28.6327538495249954
 49.3255209181955507 54.5151427464417537 28.6327538495249954
  4.2278965462355513 54.5151427464417537 28.6327538495249954
 -5.6372247819696195 71.6020375533019688 28.6327538495249954
 -19.7301582881026789 56.9561695641874692 28.6327538495249954
  4.2278969119563712 10.5775387790982709 28.6327538495249954
 -11.2743642881026744 56.9561695641874692 28.6327538495249954
 15.5023447962886092 69.1610107355562462 28.6327538495249954
 15.5023030862174611  0.8136511961352557 28.6327538495249954
 18.3208729002374611  0.8136511961352557 28.6327538495249954
 -1.4092427160836287 10.5775387790982709 28.6327538495249954
 -5.6372246600626781 56.9561695641874692 28.6327538495249954
 19.7301572180303850 71.6020375533019688 28.6327538495249954
 76.1021882112439840  8.1365851906925037 28.6327538495249954
 23.9581392839163634 10.5775387790982709 28.6327538495249954
  5.6372235899903860 71.6020375533019688 28.6327538495249954
 -36.6417886483437698 66.7200571471504844 28.6327538495249954
 -1.4092854014103018 59.3971231525932382 28.6327538495249954
 12.6836904243286224 69.1610107355562462 28.6327538495249954
 45.0976238572420840 61.8380767409990000 28.6327538495249954
 36.6417875376362474 66.7200571471504844 28.6327538495249954
 -35.2325037210161440 64.2791035587447084 28.6327538495249954
  8.4557939729098397  3.2546047845410229 28.6327538495249954
 28.1859935376362323 66.7200571471504844 28.6327538495249954
 -29.5952795350361448 64.2791035587447084 28.6327538495249954
 -23.9580553490561456 64.2791035587447084 28.6327538495249954
 -21.1394855350361439 64.2791035587447084 28.6327538495249954
 -18.3209157210161457 64.2791035587447084 28.6327538495249954
  7.0464667666116103  5.6956316022867357 28.6327538495249954
  1.4093266509438596 64.2791035587447084 28.6327538495249954
  0.0000417236162395 66.7200571471504844 28.6327538495249954
  4.2278969525916086  5.6956316022867357 28.6327538495249954
  1.4093271385716108  5.6956316022867357 28.6327538495249954
 -2.8186126483437688 66.7200571471504844 28.6327538495249954
  7.0464662789838490 64.2791035587447084 28.6327538495249954
 -5.6371824623637705 66.7200571471504844 28.6327538495249954
 -16.9115462763837670 66.7200571471504844 28.6327538495249954
 -19.7302006483437680 66.7200571471504844 28.6327538495249954
 64.8277821588898462  3.2546047845410229 28.6327538495249954
 -25.3673402763837679 66.7200571471504844 28.6327538495249954
 45.0976243448698426  3.2546047845410229 28.6327538495249954
 35.2325026509438644 64.2791035587447084 28.6327538495249954
 40.8696422789838678 64.2791035587447084 28.6327538495249954
 46.5068664649638706 64.2791035587447084 28.6327538495249954
 15.5022607666116095  5.6956316022867357 28.6327538495249954
 25.3674242112439856  8.1365851906925037 28.6327538495249954
 66.2371092839163680 10.5775387790982709 28.6327538495249954
 31.0046056712620839 61.8380767409990000 28.6327538495249954
  9.8651206103086064 69.1610107355562462 28.6327538495249954
  7.0465507962886189 69.1610107355562462 28.6327538495249954
 66.2370670862174649  0.8136511961352557 28.6327538495249954
 39.4604001588898399  3.2546047845410229 28.6327538495249954
  5.6371818392839907  8.1365851906925037 28.6327538495249954
 12.6837327845697061 59.3971231525932382 28.6327538495249954
  2.8186120252639890  8.1365851906925037 28.6327538495249954
 80.3300429525916257  5.6956316022867357 28.6327538495249954
 35.2324604126097114 59.3971231525932382 28.6327538495249954
 77.5114731385716169  5.6956316022867357 28.6327538495249954
 -4.2278975756713866 69.1610107355562462 28.6327538495249954
 -7.0464673896913883 69.1610107355562462 28.6327538495249954
 40.8696845985897141 59.3971231525932382 28.6327538495249954
 -33.8231765147179146 61.8380767409990000 28.6327538495249954
 -9.8650372037113900 69.1610107355562462 28.6327538495249954
 69.0556369002374737  0.8136511961352557 28.6327538495249954
 63.4184549525916097  5.6956316022867357 28.6327538495249954
 57.7812307666116141  5.6956316022867357 28.6327538495249954
 -19.7301583287379145 61.8380767409990000 28.6327538495249954
 -14.0929341427579153 61.8380767409990000 28.6327538495249954
 -26.7766252037113830 69.1610107355562462 28.6327538495249954
 35.2325031385716159  5.6956316022867357 28.6327538495249954
 45.0975815376362448 66.7200571471504844 28.6327538495249954
 25.3673814852820882 61.8380767409990000 28.6327538495249954
 28.1860358572420893 61.8380767409990000 28.6327538495249954
  2.8186543448698407  3.2546047845410229 28.6327538495249954
 16.9115877697311987 27.6644335859584807 28.6327538495249954
 -2.8185699223818586 13.0185655968439828 28.6327538495249954
 25.3674238455231631 52.0741891580359919 28.6327538495249954
 -16.9115460325698876 37.4283211689214923 28.6327538495249954
 63.4184548306846807 20.3414995914012344 28.6327538495249954
 66.2370246447046753 20.3414995914012344 28.6327538495249954
 -11.2744062826229499 22.7824531798069998 28.6327538495249954
 -5.6371820966429516 22.7824531798069998 28.6327538495249954
 43.6882968947577410 34.9873675805157234 28.6327538495249954
 -11.2744064045298860 37.4283211689214923 28.6327538495249954
 40.8696425227977400 34.9873675805157234 28.6327538495249954
 29.5952787087777267 34.9873675805157234 28.6327538495249954
 -2.8186122826229494 22.7824531798069998 28.6327538495249954
 23.9580545227977240 34.9873675805157234 28.6327538495249954
  0.0000420893370479 22.7824531798069998 28.6327538495249954
 15.5022605227977337 34.9873675805157234 28.6327538495249954
  2.8186119033570516 22.7824531798069998 28.6327538495249954
 35.2325028947577295 34.9873675805157234 28.6327538495249954
  8.4558360893370512 22.7824531798069998 28.6327538495249954
 60.5998850166646719 20.3414995914012344 28.6327538495249954
  2.8186117814501150 37.4283211689214923 28.6327538495249954
 18.3209148541224920 39.8692747573272612 28.6327538495249954
  1.4093270166646681 20.3414995914012344 28.6327538495249954
  4.2278966681424874 39.8692747573272612 28.6327538495249954
 -7.0464671458775081 39.8692747573272612 28.6327538495249954
  4.2278968306846716 20.3414995914012344 28.6327538495249954
 53.5533757814501215 37.4283211689214923 28.6327538495249954
 -8.4557520325698885 37.4283211689214923 28.6327538495249954
 15.5022606447046662 20.3414995914012344 28.6327538495249954
 18.3209150166646637 20.3414995914012344 28.6327538495249954
 33.8232179674301037 37.4283211689214923 28.6327538495249954
 32.4138486447046574 20.3414995914012344 28.6327538495249954
 25.3673814040103807 71.6020375533019688 28.6327538495249954
 52.1440910166646745 20.3414995914012344 28.6327538495249954
  5.6371815954701097 37.4283211689214923 28.6327538495249954
 47.9161515954701187 37.4283211689214923 28.6327538495249954
 59.1905578510029073 17.9004727736555189 28.6327538495249954
  1.4093268947577322 34.9873675805157234 28.6327538495249954
 -9.8651214772022673 34.9873675805157234 28.6327538495249954
 21.1395270283835863 30.1053871743642461 28.6327538495249954
 12.6837330283835765 30.1053871743642461 28.6327538495249954
 18.3209149760294281 25.2234067682127652 28.6327538495249954
 21.1394847900494298 25.2234067682127652 28.6327538495249954
  4.2279390283835818 30.1053871743642461 28.6327538495249954
 -9.8650791575964192 30.1053871743642461 28.6327538495249954
  7.0465511620094325 25.2234067682127652 28.6327538495249954
 -12.6836489716164174 30.1053871743642461 28.6327538495249954
 53.5533335837512112 27.6644335859584807 28.6327538495249954
 50.7347637697312024 27.6644335859584807 28.6327538495249954
 52.1440909760294318 25.2234067682127652 28.6327538495249954
 54.9626607900494406 25.2234067682127652 28.6327538495249954
 63.4184547900494380 25.2234067682127652 28.6327538495249954
 -14.0930184162487979 27.6644335859584807 28.6327538495249954
 43.6882969760294344 25.2234067682127652 28.6327538495249954
 16.9116300893370450 22.7824531798069998 28.6327538495249954
 35.2324606564235907 30.1053871743642461 28.6327538495249954
  1.4093269760294336 25.2234067682127652 28.6327538495249954
 64.8277819150759740 32.5463407627700150 28.6327538495249954
 62.0092121010559580 32.5463407627700150 28.6327538495249954
 22.5487697173770485 22.7824531798069998 28.6327538495249954
 42.2789697290959623 32.5463407627700150 28.6327538495249954
 39.4603577173770574 22.7824531798069998 28.6327538495249954
 42.2790120893370442 22.7824531798069998 28.6327538495249954
  4.2278967900494315 25.2234067682127652 28.6327538495249954
 50.7348060893370558 22.7824531798069998 28.6327538495249954
 59.1906000893370532 22.7824531798069998 28.6327538495249954
 67.6463940893370506 22.7824531798069998 28.6327538495249954
 -5.6371398989440404 32.5463407627700150 28.6327538495249954
 -8.4557942709040379 32.5463407627700150 28.6327538495249954
 60.5998426564235899 30.1053871743642461 28.6327538495249954
 52.1440486564235925 30.1053871743642461 28.6327538495249954
 56.3719457173770593 22.7824531798069998 28.6327538495249954
 23.9581390401024947 39.8692747573272612 28.6327538495249954
 32.4139330401024850 39.8692747573272612 28.6327538495249954
 42.2789698510029055 17.9004727736555189 28.6327538495249954
  2.8185695837512008 27.6644335859584807 28.6327538495249954
  2.8185697056581414 13.0185655968439828 28.6327538495249954
 12.6836905868707941 49.6332355696302230 28.6327538495249954
 -1.4093275991092098 49.6332355696302230 28.6327538495249954
 25.3673818916381357 13.0185655968439828 28.6327538495249954
 -12.6836914131292051 49.6332355696302230 28.6327538495249954
 26.7767087728507853 49.6332355696302230 28.6327538495249954
 -23.9580552271492060 49.6332355696302230 28.6327538495249954
 36.6418299791490298 47.1922087518845075 28.6327538495249954
 33.8231758916381438 13.0185655968439828 28.6327538495249954
 33.8231756071890288 47.1922087518845075 28.6327538495249954
 25.3673816071890279 47.1922087518845075 28.6327538495249954
 39.4604000776181465 13.0185655968439828 28.6327538495249954
 19.7302419791490244 47.1922087518845075 28.6327538495249954
 50.7347636071890307 47.1922087518845075 28.6327538495249954
 42.2789698916381340 13.0185655968439828 28.6327538495249954
 35.2325027728508005 49.6332355696302230 28.6327538495249954
 -5.6372242943418591 13.0185655968439828 28.6327538495249954
 22.5487694735631763 52.0741891580359919 28.6327538495249954
 16.9116298455231728 52.0741891580359919 28.6327538495249954
 11.2744056595431719 52.0741891580359919 28.6327538495249954
  8.4558358455231772 52.0741891580359919 28.6327538495249954
 71.8742489119563714 10.5775387790982709 28.6327538495249954
 -2.8186125264368322 52.0741891580359919 28.6327538495249954
 40.8696424008908039 49.6332355696302230 28.6327538495249954
 -5.6371823404568273 52.0741891580359919 28.6327538495249954
 -19.7302005264368283 52.0741891580359919 28.6327538495249954
 -22.5487703404568300 52.0741891580359919 28.6327538495249954
 -25.3673401544768282 52.0741891580359919 28.6327538495249954
 77.5114730979363742 10.5775387790982709 28.6327538495249954
 49.3254364008908013 49.6332355696302230 28.6327538495249954
 46.5068665868708067 49.6332355696302230 28.6327538495249954
 -16.9115461544768308 52.0741891580359919 28.6327538495249954
 45.0975397056581500 13.0185655968439828 28.6327538495249954
 -2.8185702068309761 47.1922087518845075 28.6327538495249954
 -8.4557943928109793 47.1922087518845075 28.6327538495249954
 36.6417454618442662 42.3103015750729767 28.6327538495249954
 32.4138909643105251 15.4595191852497500 28.6327538495249954
 43.6882547783305313 15.4595191852497500 28.6327538495249954
  2.8185694618442589 42.3103015750729767 28.6327538495249954
 -8.4557941489970982 17.9004727736555189 28.6327538495249954
 -8.4557943521757366 42.3103015750729767 28.6327538495249954
 42.2789696478242618 42.3103015750729767 28.6327538495249954
 14.0930180369829028 17.9004727736555189 28.6327538495249954
 -22.5488125381557367 42.3103015750729767 28.6327538495249954
 60.5998848541225001 39.8692747573272612 28.6327538495249954
 19.7302422229628966 17.9004727736555189 28.6327538495249954
 25.3673818510029001 17.9004727736555189 28.6327538495249954
 33.8231758510028868 17.9004727736555189 28.6327538495249954
 36.6418302229629020 17.9004727736555189 28.6327538495249954
 16.9115878510028992 17.9004727736555189 28.6327538495249954
 18.3208727783305179 15.4595191852497500 28.6327538495249954
 59.1905576478242708 42.3103015750729767 28.6327538495249954
 15.5023029643105232 15.4595191852497500 28.6327538495249954
 -11.2743642068309775 47.1922087518845075 28.6327538495249954
 -16.9115883928109767 47.1922087518845075 28.6327538495249954
 62.0091277056581518 13.0185655968439828 28.6327538495249954
 73.2835760776181360 13.0185655968439828 28.6327538495249954
 -7.0465092216694787 15.4595191852497500 28.6327538495249954
 26.7766665345166501 44.7512551634787386 28.6327538495249954
 21.1395269064766467 44.7512551634787386 28.6327538495249954
 15.5023027204966439 44.7512551634787386 28.6327538495249954
 12.6837329064766493 44.7512551634787386 28.6327538495249954
  9.8650785345166412 44.7512551634787386 28.6327538495249954
  4.2279389064766386 44.7512551634787386 28.6327538495249954
  1.4092845345166412 44.7512551634787386 28.6327538495249954
 -9.8650792795033553 44.7512551634787386 28.6327538495249954
 -12.6836490935233588 44.7512551634787386 28.6327538495249954
 12.6837331502905215 15.4595191852497500 28.6327538495249954
 28.1859936595431719 52.0741891580359919 28.6327538495249954
 36.6417452180303869 71.6020375533019688 28.6327538495249954
