 H  O 
 1.0000000000000000
    84.5579400000000021    0.0000000000000000    0.0000000000000000
   -42.2789706095346958   73.2293399455724767    0.0000000000000000
     0.0000000000000000    0.0000000000000000   46.9039550000000034
 H   O  
 255 337
Cartesian
 -0.0000000135450799  1.6273023922705114 28.1128704123049964
  9.8650785480617262 43.1239527712082307 28.1128704123049964
 -4.2279396379182765 43.1239527712082307 28.1128704123049964
 -7.0465094519382783 43.1239527712082307 28.1128704123049964
 -12.6837336379182783 43.1239527712082307 28.1128704123049964
 45.0975394753893397 40.6829991828024689 28.1128704123049964
 39.4603152894093299 40.6829991828024689 28.1128704123049964
 31.0045212894093325 40.6829991828024689 28.1128704123049964
  8.4557936613693432 40.6829991828024689 28.1128704123049964
 12.6836483620817209 43.1239527712082307 28.1128704123049964
  2.8185694753893440 40.6829991828024689 28.1128704123049964
 -19.7302427105906588 40.6829991828024689 28.1128704123049964
 60.5998848676675763 38.2419723650567462 28.1128704123049964
 57.7812304957075682 38.2419723650567462 28.1128704123049964
 49.3254364957075708 38.2419723650567462 28.1128704123049964
 23.9580544957075787 38.2419723650567462 28.1128704123049964
  9.8651208676675761 38.2419723650567462 28.1128704123049964
 -18.3209155042924259 38.2419723650567462 28.1128704123049964
 59.1905154230351869 35.8010187766509844 28.1128704123049964
 -2.8186547105906588 40.6829991828024689 28.1128704123049964
 56.3719456090151922 35.8010187766509844 28.1128704123049964
 18.3208725480617254 43.1239527712082307 28.1128704123049964
 35.2324605480617166 43.1239527712082307 28.1128704123049964
 -22.5487703269117468 50.4468867657654769 28.1128704123049964
 -25.3674246988717442 50.4468867657654769 28.1128704123049964
 54.9626606004158731 48.0059331773597151 28.1128704123049964
 52.1440062284558650 48.0059331773597151 28.1128704123049964
 29.5952786004158739 48.0059331773597151 28.1128704123049964
 26.7766242284558658 48.0059331773597151 28.1128704123049964
 18.3208302284558755 48.0059331773597151 28.1128704123049964
 12.6836906004158720 48.0059331773597151 28.1128704123049964
 23.9580967340417281 43.1239527712082307 28.1128704123049964
 -18.3209155855641299 48.0059331773597151 28.1128704123049964
 45.0975394347540970 45.5649063596139996 28.1128704123049964
 28.1859514347540951 45.5649063596139996 28.1128704123049964
 16.9115876207341032 45.5649063596139996 28.1128704123049964
 14.0930178067140996 45.5649063596139996 28.1128704123049964
  2.8185694347540982 45.5649063596139996 28.1128704123049964
 -8.4557943792659014 45.5649063596139996 28.1128704123049964
 -11.2743641932859031 45.5649063596139996 28.1128704123049964
 49.3254787340417238 43.1239527712082307 28.1128704123049964
 -21.1394853995841281 48.0059331773597151 28.1128704123049964
 53.5533757949951976 35.8010187766509844 28.1128704123049964
 45.0975817949951860 35.8010187766509844 28.1128704123049964
 39.4603576090151904 35.8010187766509844 28.1128704123049964
 60.5998426699686590 28.4780847820937346 28.1128704123049964
 35.2324606699686598 28.4780847820937346 28.1128704123049964
 23.9580968559486607 28.4780847820937346 28.1128704123049964
 18.3208726699686650 28.4780847820937346 28.1128704123049964
  7.0465088559486642 28.4780847820937346 28.1128704123049964
 -7.0465093300313377 28.4780847820937346 28.1128704123049964
 -12.6837335160113369 28.4780847820937346 28.1128704123049964
 67.6463517832762875 26.0371311936879657 28.1128704123049964
 63.4184124839886536 28.4780847820937346 28.1128704123049964
 53.5533335972962803 26.0371311936879657 28.1128704123049964
 28.1859515972962846 26.0371311936879657 28.1128704123049964
 14.0929334113162810 26.0371311936879657 28.1128704123049964
 11.2743635972962863 26.0371311936879657 28.1128704123049964
 -0.0000002167237204 26.0371311936879657 28.1128704123049964
 60.5998849895745124 23.5961043759422537 28.1128704123049964
 52.1440909895745008 23.5961043759422537 28.1128704123049964
 49.3254366176144998 23.5961043759422537 28.1128704123049964
 46.5068668035945052 23.5961043759422537 28.1128704123049964
 39.4603154113162731 26.0371311936879657 28.1128704123049964
 -14.0930184433389574 30.9190383704995000 28.1128704123049964
 -11.2743640713789581 30.9190383704995000 28.1128704123049964
 39.4603999286210438 30.9190383704995000 28.1128704123049964
 31.0045636090151895 35.8010187766509844 28.1128704123049964
 28.1859937949951949 35.8010187766509844 28.1128704123049964
 19.7301997949951904 35.8010187766509844 28.1128704123049964
  8.4557514230351885 35.8010187766509844 28.1128704123049964
  5.6371816090151947 35.8010187766509844 28.1128704123049964
 -5.6371822050048115 35.8010187766509844 28.1128704123049964
 -11.2744063909848098 35.8010187766509844 28.1128704123049964
 -14.0929762050048097 35.8010187766509844 28.1128704123049964
 60.5998003503628055 33.3600651882452155 28.1128704123049964
 54.9626607223228163 33.3600651882452155 28.1128704123049964
 52.1440063503628082 33.3600651882452155 28.1128704123049964
 40.8696425363428091 33.3600651882452155 28.1128704123049964
 32.4138485363428117 33.3600651882452155 28.1128704123049964
 18.3208303503628116 33.3600651882452155 28.1128704123049964
 12.6836907223228135 33.3600651882452155 28.1128704123049964
  4.2278967223228134 33.3600651882452155 28.1128704123049964
 -1.4093274636571897 33.3600651882452155 28.1128704123049964
 -12.6836912776771893 33.3600651882452155 28.1128704123049964
 50.7347637426410429 30.9190383704995000 28.1128704123049964
 -19.7302005128917450 50.4468867657654769 28.1128704123049964
  2.8186116730882564 50.4468867657654769 28.1128704123049964
  8.4557513011282524 50.4468867657654769 28.1128704123049964
 14.0929754871082551 50.4468867657654769 28.1128704123049964
 -15.5022613761463042 67.5337083432857384 28.1128704123049964
 39.4603573652013111 65.0927547548799765 28.1128704123049964
 33.8231331792213084 65.0927547548799765 28.1128704123049964
 25.3673391792213039 65.0927547548799765 28.1128704123049964
 22.5487693652013093 65.0927547548799765 28.1128704123049964
 19.7301995511813146 65.0927547548799765 28.1128704123049964
 14.0929753652013119 65.0927547548799765 28.1128704123049964
 -5.6371824488186855 65.0927547548799765 28.1128704123049964
 -12.6836915621263024 67.5337083432857384 28.1128704123049964
 -11.2744066347986838 65.0927547548799765 28.1128704123049964
 -16.9116308207786865 65.0927547548799765 28.1128704123049964
 -33.8232188207786848 65.0927547548799765 28.1128704123049964
 40.8696422925289298 62.6518011664742076 28.1128704123049964
 38.0510724785089351 62.6518011664742076 28.1128704123049964
 23.9580542925289315 62.6518011664742076 28.1128704123049964
  9.8650361065489385 62.6518011664742076 28.1128704123049964
  4.2278964785089341 62.6518011664742076 28.1128704123049964
  1.4092421065489333 62.6518011664742076 28.1128704123049964
 -14.0929764488186855 65.0927547548799765 28.1128704123049964
 -7.0464673761463033 67.5337083432857384 28.1128704123049964
  1.4093266238536943 67.5337083432857384 28.1128704123049964
  7.0464662518936976 67.5337083432857384 28.1128704123049964
 29.5952361182678381 72.4156887494372228 28.1128704123049964
  9.8650783042478416 72.4156887494372228 28.1128704123049964
  4.2278541182678469 72.4156887494372228 28.1128704123049964
 -7.0465096957521522 72.4156887494372228 28.1128704123049964
 -26.7766675097721567 72.4156887494372228 28.1128704123049964
 -35.2324615097721576 72.4156887494372228 28.1128704123049964
 33.8231754175554755 69.9747351610314468 28.1128704123049964
 31.0045210455954674 69.9747351610314468 28.1128704123049964
 19.7301572315754683 69.9747351610314468 28.1128704123049964
 14.0929330455954638 69.9747351610314468 28.1128704123049964
 -2.8186549544045376 69.9747351610314468 28.1128704123049964
 -16.9115885824445336 69.9747351610314468 28.1128704123049964
 -22.5488127684245363 69.9747351610314468 28.1128704123049964
 -31.0046067684245337 69.9747351610314468 28.1128704123049964
 -36.6418309544045329 69.9747351610314468 28.1128704123049964
 40.8696422518936870 67.5337083432857384 28.1128704123049964
 29.5952784378736951 67.5337083432857384 28.1128704123049964
 18.3209146238536960 67.5337083432857384 28.1128704123049964
 15.5022602518936878 67.5337083432857384 28.1128704123049964
 -26.7767097074710669 62.6518011664742076 28.1128704123049964
 35.2325029895745132 23.5961043759422537 28.1128704123049964
 47.9161936848071619 60.2107743487284921 28.1128704123049964
 25.3673814988271609 60.2107743487284921 28.1128704123049964
 -31.0046066465175976 55.3288671719169614 28.1128704123049964
 46.5068665597806330 52.8878403541712458 28.1128704123049964
 43.6882967457606384 52.8878403541712458 28.1128704123049964
 38.0510725597806356 52.8878403541712458 28.1128704123049964
 35.2325027457606268 52.8878403541712458 28.1128704123049964
 26.7767087457606330 52.8878403541712458 28.1128704123049964
 23.9580543738006249 52.8878403541712458 28.1128704123049964
  4.2278965597806355 52.8878403541712458 28.1128704123049964
 -14.0930186465175975 55.3288671719169614 28.1128704123049964
  1.4093267457606342 52.8878403541712458 28.1128704123049964
 -18.3209156261993691 52.8878403541712458 28.1128704123049964
 -21.1394854402193673 52.8878403541712458 28.1128704123049964
 53.5533756730882544 50.4468867657654769 28.1128704123049964
 47.9161514871082517 50.4468867657654769 28.1128704123049964
 39.4603574871082543 50.4468867657654769 28.1128704123049964
 36.6417876730882455 50.4468867657654769 28.1128704123049964
 33.8231333011282445 50.4468867657654769 28.1128704123049964
 25.3673393011282471 50.4468867657654769 28.1128704123049964
 -9.8651216261993682 52.8878403541712458 28.1128704123049964
 -11.2744488324975958 55.3288671719169614 28.1128704123049964
 -8.4557944605375948 55.3288671719169614 28.1128704123049964
 -2.8186548324975988 55.3288671719169614 28.1128704123049964
 16.9115874988271635 60.2107743487284921 28.1128704123049964
  2.8185693128471621 60.2107743487284921 28.1128704123049964
 -5.6372246871528393 60.2107743487284921 28.1128704123049964
 -14.0930186871528367 60.2107743487284921 28.1128704123049964
 -22.5488126871528358 60.2107743487284921 28.1128704123049964
 -25.3673825011728376 60.2107743487284921 28.1128704123049964
 -28.1859523151928357 60.2107743487284921 28.1128704123049964
 49.3254786121347877 57.7698207603227232 28.1128704123049964
 46.5068242401747796 57.7698207603227232 28.1128704123049964
 38.0510302401747822 57.7698207603227232 28.1128704123049964
 15.5023026121347893 57.7698207603227232 28.1128704123049964
 12.6836482401747883 57.7698207603227232 28.1128704123049964
  4.2278542401747847 57.7698207603227232 28.1128704123049964
  1.4092844261547897 57.7698207603227232 28.1128704123049964
 -23.9580975738452153 57.7698207603227232 28.1128704123049964
 31.0045211675023928 55.3288671719169614 28.1128704123049964
 25.3673815394624036 55.3288671719169614 28.1128704123049964
 14.0929331675024070 55.3288671719169614 28.1128704123049964
  2.8185693534824074 55.3288671719169614 28.1128704123049964
 31.0046056848071565 60.2107743487284921 28.1128704123049964
 15.5022606176145086 23.5961043759422537 28.1128704123049964
 38.0510301182678390 72.4156887494372228 28.1128704123049964
 12.6836908035945140 23.5961043759422537 28.1128704123049964
 21.1394849255014528  8.9502363868277595 28.1128704123049964
 73.2835761724349197  1.6273023922705114 28.1128704123049964
 -1.4092850221444004 13.8322167929792403 28.1128704123049964
 31.0045637309221327 21.1551507875364884 28.1128704123049964
 70.4649218004749116  1.6273023922705114 28.1128704123049964
 23.9580547395214474  8.9502363868277595 28.1128704123049964
 33.8231335449421309 21.1551507875364884 28.1128704123049964
 53.5533336785679737 16.2731703813850075 28.1128704123049964
 36.6417879169021319 21.1551507875364884 28.1128704123049964
 62.0091700388090601  6.5092827984219914 28.1128704123049964
 69.0555945941766822  4.0683292100162243 28.1128704123049964
 67.6463519864549170  1.6273023922705114 28.1128704123049964
 42.2789275449421211 21.1551507875364884 28.1128704123049964
 -4.2279393941043990 13.8322167929792403 28.1128704123049964
 26.7767091114814519  8.9502363868277595 28.1128704123049964
 66.2370669778556049 13.8322167929792403 28.1128704123049964
 45.0975819169021293 21.1551507875364884 28.1128704123049964
 59.1905578645479835 16.2731703813850075 28.1128704123049964
 47.9161941724349276  1.6273023922705114 28.1128704123049964
 19.7301999169021336 21.1551507875364884 28.1128704123049964
 54.9626609661366956  4.0683292100162243 28.1128704123049964
 40.8696427801566955  4.0683292100162243 28.1128704123049964
  7.0464667395214500  8.9502363868277595 28.1128704123049964
 26.7766244722697486 18.7141971991307194 28.1128704123049964
 35.2324185941766927  4.0683292100162243 28.1128704123049964
 12.6836909255014501  8.9502363868277595 28.1128704123049964
 32.4138486582497549 18.7141971991307194 28.1128704123049964
 15.5023029778556030 13.8322167929792403 28.1128704123049964
 69.0555944722697461 18.7141971991307194 28.1128704123049964
 73.2835760505279836 16.2731703813850075 28.1128704123049964
 71.8742488442297542 18.7141971991307194 28.1128704123049964
 52.1440065941766875  4.0683292100162243 28.1128704123049964
  7.0464667801566900  4.0683292100162243 28.1128704123049964
  7.0465089778555976 13.8322167929792403 28.1128704123049964
 70.4649216785679755 16.2731703813850075 28.1128704123049964
 -0.0000424550578693 21.1551507875364884 28.1128704123049964
  4.2278969661366892  4.0683292100162243 28.1128704123049964
 14.0929757309221344 21.1551507875364884 28.1128704123049964
  4.2278546058956001 13.8322167929792403 28.1128704123049964
 35.2325031114814493  8.9502363868277595 28.1128704123049964
 50.7347639864549222  1.6273023922705114 28.1128704123049964
 -4.2278971964054897 23.5961043759422537 28.1128704123049964
 36.6417457192032217 11.3912632045734714 28.1128704123049964
 47.9161517309221239 21.1551507875364884 28.1128704123049964
 60.5998851114814414  8.9502363868277595 28.1128704123049964
 74.6928609778556023 13.8322167929792403 28.1128704123049964
 33.8231759051832199 11.3912632045734714 28.1128704123049964
 63.4184549255014502  8.9502363868277595 28.1128704123049964
 14.0929758528290687  6.5092827984219914 28.1128704123049964
 31.0045215332232189 11.3912632045734714 28.1128704123049964
 -12.6836911964054888 23.5961043759422537 28.1128704123049964
 22.5488120505279817 16.2731703813850075 28.1128704123049964
 66.2370247395214449  8.9502363868277595 28.1128704123049964
  5.6372241724349186  1.6273023922705114 28.1128704123049964
 22.5487275332232180 11.3912632045734714 28.1128704123049964
  1.4093269895745080 23.5961043759422537 28.1128704123049964
 45.0975820388090725  6.5092827984219914 28.1128704123049964
  9.8651209895745122 23.5961043759422537 28.1128704123049964
 25.3673396668490696  6.5092827984219914 28.1128704123049964
 -5.6372242807967794 11.3912632045734714 28.1128704123049964
 -1.4093273823854895 23.5961043759422537 28.1128704123049964
 71.8742066058955942 13.8322167929792403 28.1128704123049964
 -4.2278970744985491  8.9502363868277595 28.1128704123049964
 62.0091699169021311 21.1551507875364884 28.1128704123049964
 33.8231759864549275  1.6273023922705114 28.1128704123049964
 53.5533760388090698  6.5092827984219914 28.1128704123049964
 36.6417456785679860 16.2731703813850075 28.1128704123049964
 62.0091277192032209 11.3912632045734714 28.1128704123049964
 53.5533759169021195 21.1551507875364884 28.1128704123049964
 31.0046061724349222  1.6273023922705114 28.1128704123049964
 45.0975397192032190 11.3912632045734714 28.1128704123049964
 64.8277397309221328 21.1551507875364884 28.1128704123049964
 42.2789698645479817 16.2731703813850075 28.1128704123049964
 80.3300429661366877  4.0683292100162243 28.1128704123049964
 47.9161095332232136 11.3912632045734714 28.1128704123049964
 31.0046057118973302 56.9561695641874692 28.6327538495249954
 16.9115875259173158 56.9561695641874692 28.6327538495249954
 19.7301573399373318 56.9561695641874692 28.6327538495249954
 -23.9580975873902986 59.3971231525932382 28.6327538495249954
  4.2279387845697078 59.3971231525932382 28.6327538495249954
 63.4184549525916097  5.6956316022867357 28.6327538495249954
 47.9161937118973214 56.9561695641874692 28.6327538495249954
 33.8231755259173212 56.9561695641874692 28.6327538495249954
 -4.2278552154303037 59.3971231525932382 28.6327538495249954
 -15.5023035873902977 59.3971231525932382 28.6327538495249954
 80.3300429525916257  5.6956316022867357 28.6327538495249954
 52.1440911385716035  5.6956316022867357 28.6327538495249954
 46.5068669525916008  5.6956316022867357 28.6327538495249954
 45.0975393399373274 56.9561695641874692 28.6327538495249954
 -12.6836492154302967 59.3971231525932382 28.6327538495249954
 -7.0465095873903012 59.3971231525932382 28.6327538495249954
 77.5114731385716169  5.6956316022867357 28.6327538495249954
 -26.7766674014102968 59.3971231525932382 28.6327538495249954
 60.5998851385716151  5.6956316022867357 28.6327538495249954
 35.2325027322155506 54.5151427464417537 28.6327538495249954
  5.6371818392839907  8.1365851906925037 28.6327538495249954
 -15.5022612677844460 54.5151427464417537 28.6327538495249954
 -23.9580552677844487 54.5151427464417537 28.6327538495249954
 45.0975820252639821  8.1365851906925037 28.6327538495249954
 47.9161514735631755 52.0741891580359919 28.6327538495249954
 47.9161518392839980  8.1365851906925037 28.6327538495249954
 45.0975816595431809 52.0741891580359919 28.6327538495249954
 59.1906002112439964  8.1365851906925037 28.6327538495249954
 42.2790122112439946  8.1365851906925037 28.6327538495249954
 39.4603574735631781 52.0741891580359919 28.6327538495249954
 62.0091700252639910  8.1365851906925037 28.6327538495249954
 25.3674238455231631 52.0741891580359919 28.6327538495249954
 64.8277398392839928  8.1365851906925037 28.6327538495249954
 22.5487694735631763 52.0741891580359919 28.6327538495249954
  2.8186116595431669 52.0741891580359919 28.6327538495249954
 73.2835338392839901  8.1365851906925037 28.6327538495249954
 -5.6371823404568273 52.0741891580359919 28.6327538495249954
 36.6417876595431693 52.0741891580359919 28.6327538495249954
 -12.6836914537644478 54.5151427464417537 28.6327538495249954
 36.6417880252639918  8.1365851906925037 28.6327538495249954
 -7.0464672677844442 54.5151427464417537 28.6327538495249954
  2.8185693399373224 56.9561695641874692 28.6327538495249954
 -5.6372246600626781 56.9561695641874692 28.6327538495249954
 -8.4557944740826727 56.9561695641874692 28.6327538495249954
 -11.2743642881026744 56.9561695641874692 28.6327538495249954
 -14.0930186600626755 56.9561695641874692 28.6327538495249954
 19.7302000252639935  8.1365851906925037 28.6327538495249954
 46.5068665462355568 54.5151427464417537 28.6327538495249954
 43.6882967322155622 54.5151427464417537 28.6327538495249954
 40.8697269181955534 54.5151427464417537 28.6327538495249954
  7.0465085985897025 59.3971231525932382 28.6327538495249954
 26.7767087322155568 54.5151427464417537 28.6327538495249954
 22.5487698392839881  8.1365851906925037 28.6327538495249954
 23.9581389181955480 54.5151427464417537 28.6327538495249954
 12.6836905462355407 54.5151427464417537 28.6327538495249954
  4.2278965462355513 54.5151427464417537 28.6327538495249954
 25.3674242112439856  8.1365851906925037 28.6327538495249954
  1.4093267322155492 54.5151427464417537 28.6327538495249954
 14.0930177118973283 56.9561695641874692 28.6327538495249954
 12.6837327845697061 59.3971231525932382 28.6327538495249954
 36.6418298572420866 61.8380767409990000 28.6327538495249954
 26.7767091385716043  5.6956316022867357 28.6327538495249954
 15.5023447962886092 69.1610107355562462 28.6327538495249954
 35.2324609002374558  0.8136511961352557 28.6327538495249954
 -4.2278975756713866 69.1610107355562462 28.6327538495249954
 -7.0464673896913883 69.1610107355562462 28.6327538495249954
 -15.5022613896913821 69.1610107355562462 28.6327538495249954
 46.5069092721974613  0.8136511961352557 28.6327538495249954
 -18.3208312037113821 69.1610107355562462 28.6327538495249954
 -21.1394855756713831 69.1610107355562462 28.6327538495249954
 18.3209146103086198 69.1610107355562462 28.6327538495249954
 -23.9580553896913813 69.1610107355562462 28.6327538495249954
 52.1440489002374647  0.8136511961352557 28.6327538495249954
 -38.0510735756713814 69.1610107355562462 28.6327538495249954
 39.4603573516562420 66.7200571471504844 28.6327538495249954
 31.0045633516562411 66.7200571471504844 28.6327538495249954
 69.0556369002374737  0.8136511961352557 28.6327538495249954
 19.7301995376362349 66.7200571471504844 28.6327538495249954
 16.9116297236162261 66.7200571471504844 28.6327538495249954
 71.8742912721974676  0.8136511961352557 28.6327538495249954
 -35.2324192037113804 69.1610107355562462 28.6327538495249954
 32.4138910862174541  0.8136511961352557 28.6327538495249954
 29.5952784243286260 69.1610107355562462 28.6327538495249954
 32.4139327962886199 69.1610107355562462 28.6327538495249954
  4.2279392721974602  0.8136511961352557 28.6327538495249954
 28.1859512180303895 71.6020375533019688 28.6327538495249954
 25.3673814040103807 71.6020375533019688 28.6327538495249954
 14.0930175899903762 71.6020375533019688 28.6327538495249954
 11.2743632180303894 71.6020375533019688 28.6327538495249954
  8.4557934040103735 71.6020375533019688 28.6327538495249954
  5.6372235899903860 71.6020375533019688 28.6327538495249954
  7.0465090862174584  0.8136511961352557 28.6327538495249954
  2.8185692180303707 71.6020375533019688 28.6327538495249954
 -5.6372247819696195 71.6020375533019688 28.6327538495249954
  9.8650789002374601  0.8136511961352557 28.6327538495249954
 -8.4557945959896212 71.6020375533019688 28.6327538495249954
 -22.5488127819696196 71.6020375533019688 28.6327538495249954
 -25.3673825959896213 71.6020375533019688 28.6327538495249954
 12.6837332721974576  0.8136511961352557 28.6327538495249954
 -28.1859524100096195 71.6020375533019688 28.6327538495249954
 15.5023030862174611  0.8136511961352557 28.6327538495249954
 -36.6417464100096169 71.6020375533019688 28.6327538495249954
 18.3208729002374611  0.8136511961352557 28.6327538495249954
 14.0929753516562410 66.7200571471504844 28.6327538495249954
  2.8186115376362340 66.7200571471504844 28.6327538495249954
 80.3300852721974650  0.8136511961352557 28.6327538495249954
 -2.8186126483437688 66.7200571471504844 28.6327538495249954
 47.9161936712620928 61.8380767409990000 28.6327538495249954
 42.2789694852820901 61.8380767409990000 28.6327538495249954
 67.6463519729098550  3.2546047845410229 28.6327538495249954
 39.4603996712620955 61.8380767409990000 28.6327538495249954
 -4.2278970880436288 10.5775387790982709 28.6327538495249954
 25.3673814852820882 61.8380767409990000 28.6327538495249954
 78.9208003448698463  3.2546047845410229 28.6327538495249954
  8.4557934852820722 61.8380767409990000 28.6327538495249954
  5.6372236712620847 61.8380767409990000 28.6327538495249954
 81.7393701588898551  3.2546047845410229 28.6327538495249954
  2.8186538572420905 61.8380767409990000 28.6327538495249954
  4.2278969525916086  5.6956316022867357 28.6327538495249954
 -25.3673825147179137 61.8380767409990000 28.6327538495249954
 12.6836909525916113  5.6956316022867357 28.6327538495249954
 -28.1859523287379155 61.8380767409990000 28.6327538495249954
 -31.0045221427579136 61.8380767409990000 28.6327538495249954
 43.6882544126097088 59.3971231525932382 28.6327538495249954
 32.4138905985897026 59.3971231525932382 28.6327538495249954
 23.9580547666116068  5.6956316022867357 28.6327538495249954
 -35.2325037210161440 64.2791035587447084 28.6327538495249954
 15.5023025985896936 59.3971231525932382 28.6327538495249954
 -32.4138493490561430 64.2791035587447084 28.6327538495249954
 -15.5022613490561429 64.2791035587447084 28.6327538495249954
 83.1486550862174738  0.8136511961352557 28.6327538495249954
 -8.4557522763837714 66.7200571471504844 28.6327538495249954
 -11.2744066483437688 66.7200571471504844 28.6327538495249954
 -14.0929764623637634 66.7200571471504844 28.6327538495249954
  5.6372241588898389  3.2546047845410229 28.6327538495249954
 -16.9115462763837670 66.7200571471504844 28.6327538495249954
 -33.8231342763837688 66.7200571471504844 28.6327538495249954
 38.0510724649638732 64.2791035587447084 28.6327538495249954
 35.2325026509438644 64.2791035587447084 28.6327538495249954
 14.0930181588898407  3.2546047845410229 28.6327538495249954
 33.8231759729098371  3.2546047845410229 28.6327538495249954
 23.9580542789838589 64.2791035587447084 28.6327538495249954
 21.1394844649638500 64.2791035587447084 28.6327538495249954
 36.6418303448698452  3.2546047845410229 28.6327538495249954
  4.2278964649638544 64.2791035587447084 28.6327538495249954
 -4.2278975350361501 64.2791035587447084 28.6327538495249954
 45.0976243448698426  3.2546047845410229 28.6327538495249954
 47.9161941588898301  3.2546047845410229 28.6327538495249954
 50.7347639729098461  3.2546047845410229 28.6327538495249954
 -29.5952795350361448 64.2791035587447084 28.6327538495249954
 -19.7302005264368283 52.0741891580359919 28.6327538495249954
 -21.1394854131292078 49.6332355696302230 28.6327538495249954
 -22.5487703404568300 52.0741891580359919 28.6327538495249954
 59.1905578510029073 17.9004727736555189 28.6327538495249954
 70.4650062229628986 17.9004727736555189 28.6327538495249954
 39.4603999150759606 32.5463407627700150 28.6327538495249954
 31.0046059150759525 32.5463407627700150 28.6327538495249954
 19.7302421010559677 32.5463407627700150 28.6327538495249954
 73.2835760369829075 17.9004727736555189 28.6327538495249954
 16.9115877290959595 32.5463407627700150 28.6327538495249954
 -7.0464669833353293 20.3414995914012344 28.6327538495249954
  2.8186541010559618 32.5463407627700150 28.6327538495249954
 -0.0000002709040391 32.5463407627700150 28.6327538495249954
 -11.2743640849240396 32.5463407627700150 28.6327538495249954
 18.3209150166646637 20.3414995914012344 28.6327538495249954
 -14.0929338989440378 32.5463407627700150 28.6327538495249954
 40.8696848424035863 30.1053871743642461 28.6327538495249954
 29.5952788306846699 20.3414995914012344 28.6327538495249954
 38.0511150283835775 30.1053871743642461 28.6327538495249954
 35.2324606564235907 30.1053871743642461 28.6327538495249954
 26.7766666564235685 30.1053871743642461 28.6327538495249954
 21.1395270283835863 30.1053871743642461 28.6327538495249954
 28.1860362229629082 17.9004727736555189 28.6327538495249954
 18.3208726564235782 30.1053871743642461 28.6327538495249954
 -12.6836912912222672 34.9873675805157234 28.6327538495249954
 -1.4093274772022688 34.9873675805157234 28.6327538495249954
 -5.6371822185498859 37.4283211689214923 28.6327538495249954
 -14.0929762185498877 37.4283211689214923 28.6327538495249954
 52.1440487783305286 15.4595191852497500 28.6327538495249954
 -19.7302004045298887 37.4283211689214923 28.6327538495249954
 57.7812305227977419 34.9873675805157234 28.6327538495249954
 54.9627031502905297 15.4595191852497500 28.6327538495249954
 54.9626607087777472 34.9873675805157234 28.6327538495249954
 52.1440908947577384 34.9873675805157234 28.6327538495249954
 69.0556367783305234 15.4595191852497500 28.6327538495249954
 40.8696425227977400 34.9873675805157234 28.6327538495249954
 32.4138485227977426 34.9873675805157234 28.6327538495249954
 71.8742911502905173 15.4595191852497500 28.6327538495249954
 29.5952787087777267 34.9873675805157234 28.6327538495249954
 74.6928609643105261 15.4595191852497500 28.6327538495249954
 18.3209148947577418 34.9873675805157234 28.6327538495249954
  9.8651208947577302 34.9873675805157234 28.6327538495249954
 -0.0000001489970986 17.9004727736555189 28.6327538495249954
  7.0464665227977319 34.9873675805157234 28.6327538495249954
  2.8186542229628988 17.9004727736555189 28.6327538495249954
 14.0930180369829028 17.9004727736555189 28.6327538495249954
 -12.6836489716164174 30.1053871743642461 28.6327538495249954
 32.4138486447046574 20.3414995914012344 28.6327538495249954
 62.0091275837512086 27.6644335859584807 28.6327538495249954
 23.9581391620094379 25.2234067682127652 28.6327538495249954
 15.5023451620094264 25.2234067682127652 28.6327538495249954
 12.6836907900494289 25.2234067682127652 28.6327538495249954
  9.8651209760294343 25.2234067682127652 28.6327538495249954
  7.0465511620094325 25.2234067682127652 28.6327538495249954
  1.4093269760294336 25.2234067682127652 28.6327538495249954
 -2.8186122826229494 22.7824531798069998 28.6327538495249954
 -1.4092428379905699 25.2234067682127652 28.6327538495249954
 -4.2278972099505676 25.2234067682127652 28.6327538495249954
 -12.6836912099505668 25.2234067682127652 28.6327538495249954
 70.4649639033570594 22.7824531798069998 28.6327538495249954
 62.0091699033570620 22.7824531798069998 28.6327538495249954
 53.5533759033570504 22.7824531798069998 28.6327538495249954
  0.0000420893370479 22.7824531798069998 28.6327538495249954
 50.7348060893370558 22.7824531798069998 28.6327538495249954
 47.9161517173770548 22.7824531798069998 28.6327538495249954
 36.6417879033570415 22.7824531798069998 28.6327538495249954
 11.2744059033570529 22.7824531798069998 28.6327538495249954
 33.8232180893370540 22.7824531798069998 28.6327538495249954
 26.7767089760294326 25.2234067682127652 28.6327538495249954
 38.0510727900494388 25.2234067682127652 28.6327538495249954
 63.4184548306846807 20.3414995914012344 28.6327538495249954
 40.8697271620094256 25.2234067682127652 28.6327538495249954
 59.1905577697312140 27.6644335859584807 28.6327538495249954
 53.5533335837512112 27.6644335859584807 28.6327538495249954
 42.2789697697312050 27.6644335859584807 28.6327538495249954
 39.4603999557111962 27.6644335859584807 28.6327538495249954
 25.3673817697312032 27.6644335859584807 28.6327538495249954
 43.6882970166646629 20.3414995914012344 28.6327538495249954
 22.5488119557112086 27.6644335859584807 28.6327538495249954
 19.7301575837512004 27.6644335859584807 28.6327538495249954
  8.4557937697312031 27.6644335859584807 28.6327538495249954
  5.6371815954701097 37.4283211689214923 28.6327538495249954
 46.5068668306846718 20.3414995914012344 28.6327538495249954
 -8.4557942302688005 27.6644335859584807 28.6327538495249954
 -11.2743640442888005 27.6644335859584807 28.6327538495249954
 -14.0930184162487979 27.6644335859584807 28.6327538495249954
 60.5998850166646719 20.3414995914012344 28.6327538495249954
 60.5998849760294434 25.2234067682127652 28.6327538495249954
 57.7813151620094345 25.2234067682127652 28.6327538495249954
 54.9626607900494406 25.2234067682127652 28.6327538495249954
 52.1440909760294318 25.2234067682127652 28.6327538495249954
 49.3255211620094371 25.2234067682127652 28.6327538495249954
  5.6372239557112023 27.6644335859584807 28.6327538495249954
  7.0465512839163686 10.5775387790982709 28.6327538495249954
 31.0046055899903834 71.6020375533019688 28.6327538495249954
 19.7301997814501142 37.4283211689214923 28.6327538495249954
 25.3673816071890279 47.1922087518845075 28.6327538495249954
 -5.6372242943418591 13.0185655968439828 28.6327538495249954
 16.9115876071890092 47.1922087518845075 28.6327538495249954
 14.0930177931690217 47.1922087518845075 28.6327538495249954
  2.8186539791490159 47.1922087518845075 28.6327538495249954
 -8.4557943928109793 47.1922087518845075 28.6327538495249954
 -11.2743642068309775 47.1922087518845075 28.6327538495249954
 -2.8185699223818586 13.0185655968439828 28.6327538495249954
 -19.7301582068309784 47.1922087518845075 28.6327538495249954
 -0.0000001083618602 13.0185655968439828 28.6327538495249954
 38.0511149064766485 44.7512551634787386 28.6327538495249954
 35.2324605345166475 44.7512551634787386 28.6327538495249954
  2.8185697056581414 13.0185655968439828 28.6327538495249954
 18.3208725345166314 44.7512551634787386 28.6327538495249954
 15.5023027204966439 44.7512551634787386 28.6327538495249954
  5.6372240776181393 13.0185655968439828 28.6327538495249954
 12.6837329064766493 44.7512551634787386 28.6327538495249954
  4.2279389064766386 44.7512551634787386 28.6327538495249954
  1.4092845345166412 44.7512551634787386 28.6327538495249954
 63.4184549119563812 10.5775387790982709 28.6327538495249954
 -7.0465094654833562 44.7512551634787386 28.6327538495249954
 28.1860359791490147 47.1922087518845075 28.6327538495249954
 53.5534179791490246 47.1922087518845075 28.6327538495249954
 -25.3673401544768282 52.0741891580359919 28.6327538495249954
 18.3209150979363713 10.5775387790982709 28.6327538495249954
 52.1440907728507952 49.6332355696302230 28.6327538495249954
 49.3254364008908013 49.6332355696302230 28.6327538495249954
 21.1394849119563659 10.5775387790982709 28.6327538495249954
 23.9581392839163634 10.5775387790982709 28.6327538495249954
 35.2325027728508005 49.6332355696302230 28.6327538495249954
 26.7767087728507853 49.6332355696302230 28.6327538495249954
 32.4139332839163785 10.5775387790982709 28.6327538495249954
 23.9580544008907985 49.6332355696302230 28.6327538495249954
 12.6836905868707941 49.6332355696302230 28.6327538495249954
 35.2325030979363731 10.5775387790982709 28.6327538495249954
  4.2278965868707896 49.6332355696302230 28.6327538495249954
  1.4093267728507877 49.6332355696302230 28.6327538495249954
 43.6882970979363634 10.5775387790982709 28.6327538495249954
 14.0929757173770476 22.7824531798069998 28.6327538495249954
 -23.9580552271492060 49.6332355696302230 28.6327538495249954
 46.5068669119563793 10.5775387790982709 28.6327538495249954
 56.3719877931690334 47.1922087518845075 28.6327538495249954
 60.5998850979363723 10.5775387790982709 28.6327538495249954
 14.0930180776181420 13.0185655968439828 28.6327538495249954
 -9.8650792795033553 44.7512551634787386 28.6327538495249954
 -12.6836490935233588 44.7512551634787386 28.6327538495249954
 23.9581390401024947 39.8692747573272612 28.6327538495249954
  9.8651208541224857 39.8692747573272612 28.6327538495249954
 -1.4092850356894804 15.4595191852497500 28.6327538495249954
  1.4092847783305213 15.4595191852497500 28.6327538495249954
 -1.4092429598975091 39.8692747573272612 28.6327538495249954
 12.6837331502905215 15.4595191852497500 28.6327538495249954
 -18.3208309598975099 39.8692747573272612 28.6327538495249954
 15.5023029643105232 15.4595191852497500 28.6327538495249954
 -21.1394853318575109 39.8692747573272612 28.6327538495249954
 62.0091697814501188 37.4283211689214923 28.6327538495249954
 59.1905999674301100 37.4283211689214923 28.6327538495249954
 23.9580969643105171 15.4595191852497500 28.6327538495249954
 56.3719455954701161 37.4283211689214923 28.6327538495249954
 35.2324607783305126 15.4595191852497500 28.6327538495249954
 47.9161515954701187 37.4283211689214923 28.6327538495249954
 45.0975817814501099 37.4283211689214923 28.6327538495249954
 28.1859937814501045 37.4283211689214923 28.6327538495249954
 25.3674239674301170 37.4283211689214923 28.6327538495249954
 22.5487695954701017 37.4283211689214923 28.6327538495249954
 35.2325028541224938 39.8692747573272612 28.6327538495249954
 40.8697270401024966 39.8692747573272612 28.6327538495249954
 43.6882968541224912 39.8692747573272612 28.6327538495249954
 70.4649217056581421 13.0185655968439828 28.6327538495249954
 16.9115878916381419 13.0185655968439828 28.6327538495249954
 47.9161938338042646 42.3103015750729767 28.6327538495249954
 45.0975394618442706 42.3103015750729767 28.6327538495249954
 39.4603998338042672 42.3103015750729767 28.6327538495249954
 36.6417454618442662 42.3103015750729767 28.6327538495249954
 19.7301577056581365 13.0185655968439828 28.6327538495249954
 31.0046060776181456 13.0185655968439828 28.6327538495249954
 33.8231758916381438 13.0185655968439828 28.6327538495249954
 14.0930178338042680 42.3103015750729767 28.6327538495249954
 11.2744057814501097 37.4283211689214923 28.6327538495249954
 42.2789698916381340 13.0185655968439828 28.6327538495249954
 45.0975397056581500 13.0185655968439828 28.6327538495249954
 -2.8185701661957374 42.3103015750729767 28.6327538495249954
 53.5533337056581473 13.0185655968439828 28.6327538495249954
 56.3719880776181483 13.0185655968439828 28.6327538495249954
 -8.4557943521757366 42.3103015750729767 28.6327538495249954
 -19.7301581661957393 42.3103015750729767 28.6327538495249954
 60.5998848541225001 39.8692747573272612 28.6327538495249954
 49.3255210401024939 39.8692747573272612 28.6327538495249954
 46.5068666681425000 39.8692747573272612 28.6327538495249954
 11.2743634618442599 42.3103015750729767 28.6327538495249954
  8.4558359674301080 37.4283211689214923 28.6327538495249954
