 H  O 
 1.0000000000000000
    84.5579400000000021    0.0000000000000000    0.0000000000000000
   -42.2789706095346958   73.2293399455724767    0.0000000000000000
     0.0000000000000000    0.0000000000000000   46.9039550000000034
 H   O  
 216 260
Cartesian
 -0.0000000135450799  1.6273023922705114 28.1128704123049964
 33.8231754988271618 60.2107743487284921 28.1128704123049964
 19.7301574753893405 40.6829991828024689 28.1128704123049964
  9.8651209895745122 23.5961043759422537 28.1128704123049964
 23.9580546176145113 23.5961043759422537 28.1128704123049964
 29.5952788035945140 23.5961043759422537 28.1128704123049964
 32.4138486176145122 23.5961043759422537 28.1128704123049964
 28.1859513128471555 60.2107743487284921 28.1128704123049964
 16.9115876613693388 40.6829991828024689 28.1128704123049964
 11.2743634753893449 40.6829991828024689 28.1128704123049964
 60.5998849895745124 23.5961043759422537 28.1128704123049964
 66.2370246176145088 23.5961043759422537 28.1128704123049964
 28.1859514753893379 40.6829991828024689 28.1128704123049964
 -11.2744485886837182 26.0371311936879657 28.1128704123049964
 -2.8186545886837178 26.0371311936879657 28.1128704123049964
 28.1859936730882552 50.4468867657654769 28.1128704123049964
 31.0045634871082498 50.4468867657654769 28.1128704123049964
 -31.0046066871528367 60.2107743487284921 28.1128704123049964
 29.5952362401747777 57.7698207603227232 28.1128704123049964
 23.9580966121347885 57.7698207603227232 28.1128704123049964
 -16.9115883386306614 40.6829991828024689 28.1128704123049964
 33.8231757832762838 26.0371311936879657 28.1128704123049964
 15.5023026121347893 57.7698207603227232 28.1128704123049964
 39.4603154113162731 26.0371311936879657 28.1128704123049964
 45.0975395972962758 26.0371311936879657 28.1128704123049964
 -5.6372244027037182 26.0371311936879657 28.1128704123049964
 39.4603574871082543 50.4468867657654769 28.1128704123049964
 -9.8651213823854889 23.5961043759422537 28.1128704123049964
 56.3719457309221283 21.1551507875364884 28.1128704123049964
 32.4138482925289324 62.6518011664742076 28.1128704123049964
 -23.9580974519382757 43.1239527712082307 28.1128704123049964
 21.1394845597806302 52.8878403541712458 28.1128704123049964
 35.2324184722697566 18.7141971991307194 28.1128704123049964
 -25.3674246988717442 50.4468867657654769 28.1128704123049964
  7.0464662925289359 62.6518011664742076 28.1128704123049964
 49.3254366582497497 18.7141971991307194 28.1128704123049964
  1.4092421065489333 62.6518011664742076 28.1128704123049964
 -4.2278975214910632 62.6518011664742076 28.1128704123049964
 60.5998004722697488 18.7141971991307194 28.1128704123049964
 63.4184548442297569 18.7141971991307194 28.1128704123049964
 64.8277397309221328 21.1551507875364884 28.1128704123049964
 -7.0465518934510678 62.6518011664742076 28.1128704123049964
 -12.6836915214910633 62.6518011664742076 28.1128704123049964
 -0.0000424550578693 21.1551507875364884 28.1128704123049964
  2.8186119169021282 21.1551507875364884 28.1128704123049964
 11.2744059169021327 21.1551507875364884 28.1128704123049964
 -19.7302005128917450 50.4468867657654769 28.1128704123049964
 -14.0929763269117494 50.4468867657654769 28.1128704123049964
 -8.4558366988717459 50.4468867657654769 28.1128704123049964
 31.0045637309221327 21.1551507875364884 28.1128704123049964
 39.4603152894093299 40.6829991828024689 28.1128704123049964
 47.9161517309221239 21.1551507875364884 28.1128704123049964
  5.6371814871082586 50.4468867657654769 28.1128704123049964
 69.0555944722697461 18.7141971991307194 28.1128704123049964
 56.3719034113162749 26.0371311936879657 28.1128704123049964
 59.1905577832762830 26.0371311936879657 28.1128704123049964
 49.3254364957075708 38.2419723650567462 28.1128704123049964
 -16.9115884605376010 55.3288671719169614 28.1128704123049964
  7.0464665363428152 33.3600651882452155 28.1128704123049964
 15.5022605363428152 33.3600651882452155 28.1128704123049964
 21.1394847223228126 33.3600651882452155 28.1128704123049964
  4.2278966816875769 38.2419723650567462 28.1128704123049964
 29.5952787223228171 33.3600651882452155 28.1128704123049964
 -28.1860368324975958 55.3288671719169614 28.1128704123049964
 38.0510727223228145 33.3600651882452155 28.1128704123049964
 49.3254365363428136 33.3600651882452155 28.1128704123049964
 52.1440063503628082 33.3600651882452155 28.1128704123049964
 -19.7302003909848089 35.8010187766509844 28.1128704123049964
 12.6836906816875779 38.2419723650567462 28.1128704123049964
  9.8651207457606311 52.8878403541712458 28.1128704123049964
 62.0091697949951950 35.8010187766509844 28.1128704123049964
 -5.6371822050048115 35.8010187766509844 28.1128704123049964
 12.6836905597806329 52.8878403541712458 28.1128704123049964
  2.8186117949951930 35.8010187766509844 28.1128704123049964
 56.3719456090151922 35.8010187766509844 28.1128704123049964
 35.2324603042478444 72.4156887494372228 28.1128704123049964
 47.9161516090151949 35.8010187766509844 28.1128704123049964
 28.1859937949951949 35.8010187766509844 28.1128704123049964
 31.0045636090151895 35.8010187766509844 28.1128704123049964
 23.9580543738006249 52.8878403541712458 28.1128704123049964
 42.2789274230351850 35.8010187766509844 28.1128704123049964
 -14.0929762050048097 35.8010187766509844 28.1128704123049964
 -8.4557944605375948 55.3288671719169614 28.1128704123049964
 -0.0000004605375943 55.3288671719169614 28.1128704123049964
 64.8277819286210502 30.9190383704995000 28.1128704123049964
  1.4092844261547897 57.7698207603227232 28.1128704123049964
 43.6882968676675674 38.2419723650567462 28.1128704123049964
 40.8696424957075664 38.2419723650567462 28.1128704123049964
 12.6836484839886605 28.4780847820937346 28.1128704123049964
 18.3208726699686650 28.4780847820937346 28.1128704123049964
 42.2789273011282489 50.4468867657654769 28.1128704123049964
 26.7766666699686624 28.4780847820937346 28.1128704123049964
 -21.1395277598252136 57.7698207603227232 28.1128704123049964
 35.2324606699686598 28.4780847820937346 28.1128704123049964
 52.1440486699686616 28.4780847820937346 28.1128704123049964
 -23.9580975738452153 57.7698207603227232 28.1128704123049964
 38.0510726816875717 38.2419723650567462 28.1128704123049964
 50.7347635394624064 55.3288671719169614 28.1128704123049964
 -14.0930184433389574 30.9190383704995000 28.1128704123049964
 42.2789695394624090 55.3288671719169614 28.1128704123049964
 -8.4557942573589582 30.9190383704995000 28.1128704123049964
 47.9161514871082517 50.4468867657654769 28.1128704123049964
 -2.8185700713789608 30.9190383704995000 28.1128704123049964
 36.6417453534824062 55.3288671719169614 28.1128704123049964
 28.1859513534823982 55.3288671719169614 28.1128704123049964
 -1.4093276261993704 52.8878403541712458 28.1128704123049964
 47.9161939286210341 30.9190383704995000 28.1128704123049964
  2.8185693534824074 55.3288671719169614 28.1128704123049964
 56.3719879286210457 30.9190383704995000 28.1128704123049964
 59.1905577426410403 30.9190383704995000 28.1128704123049964
 -21.1395276379182775 43.1239527712082307 28.1128704123049964
  7.0464666582497495 18.7141971991307194 28.1128704123049964
 15.5022602925289341 62.6518011664742076 28.1128704123049964
 46.5068664785089325 62.6518011664742076 28.1128704123049964
  2.8186120388090696  6.5092827984219914 28.1128704123049964
 19.7302000388090732  6.5092827984219914 28.1128704123049964
 11.2743632315754621 69.9747351610314468 28.1128704123049964
  5.6371390455954664 69.9747351610314468 28.1128704123049964
  2.8185692315754580 69.9747351610314468 28.1128704123049964
 39.4603578528290697  6.5092827984219914 28.1128704123049964
 42.2789276668490714  6.5092827984219914 28.1128704123049964
 -11.2744489544045354 69.9747351610314468 28.1128704123049964
 57.7812727340417212 43.1239527712082307 28.1128704123049964
 52.1440485480617184 43.1239527712082307 28.1128704123049964
 32.4138484144358685 48.0059331773597151 28.1128704123049964
 46.5068243620817157 43.1239527712082307 28.1128704123049964
 -36.6418309544045329 69.9747351610314468 28.1128704123049964
 67.6463096668490635  6.5092827984219914 28.1128704123049964
 43.6882545480617210 43.1239527712082307 28.1128704123049964
 73.2835338528290663  6.5092827984219914 28.1128704123049964
 78.9207580388090690  6.5092827984219914 28.1128704123049964
 38.0510724378736924 67.5337083432857384 28.1128704123049964
  4.2278969255014500  8.9502363868277595 28.1128704123049964
 32.4138482518936897 67.5337083432857384 28.1128704123049964
 23.9580547395214474  8.9502363868277595 28.1128704123049964
 29.5952789255014537  8.9502363868277595 28.1128704123049964
 40.8696422925289298 62.6518011664742076 28.1128704123049964
 46.5068669255014484  8.9502363868277595 28.1128704123049964
 49.3254367395214430  8.9502363868277595 28.1128704123049964
  4.2278966004158747 48.0059331773597151 28.1128704123049964
 57.7812307395214404  8.9502363868277595 28.1128704123049964
 22.5487270455954629 69.9747351610314468 28.1128704123049964
 -29.5953218817321577 72.4156887494372228 28.1128704123049964
 33.8231756207340979 45.5649063596139996 28.1128704123049964
 22.5488121724349213  1.6273023922705114 28.1128704123049964
 21.1394421182678336 72.4156887494372228 28.1128704123049964
 31.0046061724349222  1.6273023922705114 28.1128704123049964
 36.6417458004749221  1.6273023922705114 28.1128704123049964
 42.2789699864549249  1.6273023922705114 28.1128704123049964
 15.5023024902278443 72.4156887494372228 28.1128704123049964
 50.7347639864549222  1.6273023922705114 28.1128704123049964
 53.5533338004749169  1.6273023922705114 28.1128704123049964
 28.1859514347540951 45.5649063596139996 28.1128704123049964
 62.0091278004749142  1.6273023922705114 28.1128704123049964
 -4.2278973995841262 48.0059331773597151 28.1128704123049964
 70.4649218004749116  1.6273023922705114 28.1128704123049964
 78.9207158004749090  1.6273023922705114 28.1128704123049964
  1.4092425941766900  4.0683292100162243 28.1128704123049964
  7.0464667801566900  4.0683292100162243 28.1128704123049964
  1.4092843042478451 72.4156887494372228 28.1128704123049964
 15.5022607801566892  4.0683292100162243 28.1128704123049964
 16.9115876207341032 45.5649063596139996 28.1128704123049964
 23.9580547801566937  4.0683292100162243 28.1128704123049964
  8.4557936207341040 45.5649063596139996 28.1128704123049964
 32.4138487801566981  4.0683292100162243 28.1128704123049964
 -15.5023036957521541 72.4156887494372228 28.1128704123049964
 -23.9580976957521585 72.4156887494372228 28.1128704123049964
 66.2370247801566876  4.0683292100162243 28.1128704123049964
  2.8185694347540982 45.5649063596139996 28.1128704123049964
 63.4184549255014502  8.9502363868277595 28.1128704123049964
 23.9580542518936852 67.5337083432857384 28.1128704123049964
 38.0510303620817112 43.1239527712082307 28.1128704123049964
 74.6928187395214422  8.9502363868277595 28.1128704123049964
 -1.4092852659582757 43.1239527712082307 28.1128704123049964
 25.3673391792213039 65.0927547548799765 28.1128704123049964
 19.7301995511813146 65.0927547548799765 28.1128704123049964
 32.4138909778556012 13.8322167929792403 28.1128704123049964
 38.0510306058956047 13.8322167929792403 28.1128704123049964
 40.8696849778556057 13.8322167929792403 28.1128704123049964
 49.3254789778556031 13.8322167929792403 28.1128704123049964
 -7.0465094519382783 43.1239527712082307 28.1128704123049964
 -11.2744066347986838 65.0927547548799765 28.1128704123049964
 60.5998427918756022 13.8322167929792403 28.1128704123049964
 66.2370669778556049 13.8322167929792403 28.1128704123049964
 12.6836486058956019 13.8322167929792403 28.1128704123049964
 71.8742066058955942 13.8322167929792403 28.1128704123049964
 -19.7302006347986882 65.0927547548799765 28.1128704123049964
 -15.5023034519382783 43.1239527712082307 28.1128704123049964
 11.2743636785679815 16.2731703813850075 28.1128704123049964
 14.0930180505279825 16.2731703813850075 28.1128704123049964
 19.7301576785679771 16.2731703813850075 28.1128704123049964
 -25.3674248207786874 65.0927547548799765 28.1128704123049964
 25.3673818645479834 16.2731703813850075 28.1128704123049964
 53.5533336785679737 16.2731703813850075 28.1128704123049964
 56.3719880505279747 16.2731703813850075 28.1128704123049964
 -28.1859946347986892 65.0927547548799765 28.1128704123049964
 -7.0465515277302488 18.7141971991307194 28.1128704123049964
 -33.8232188207786848 65.0927547548799765 28.1128704123049964
 -9.8650792659582809 43.1239527712082307 28.1128704123049964
  7.0465089778555976 13.8322167929792403 28.1128704123049964
 18.3209147457606356 52.8878403541712458 28.1128704123049964
  9.8651206238536986 67.5337083432857384 28.1128704123049964
  4.2278964378736958 67.5337083432857384 28.1128704123049964
 62.0091277192032209 11.3912632045734714 28.1128704123049964
 -9.8651217481063078 67.5337083432857384 28.1128704123049964
 32.4138907340417219 43.1239527712082307 28.1128704123049964
 28.1859517192032243 11.3912632045734714 28.1128704123049964
 -4.2278975621263015 67.5337083432857384 28.1128704123049964
 16.9115879051832216 11.3912632045734714 28.1128704123049964
 21.1394423620817271 43.1239527712082307 28.1128704123049964
 -7.0465092081243990 13.8322167929792403 28.1128704123049964
 -1.4092850221444004 13.8322167929792403 28.1128704123049964
 -38.0510735621263052 67.5337083432857384 28.1128704123049964
 11.2743637192032189 11.3912632045734714 28.1128704123049964
  4.2278546058956001 13.8322167929792403 28.1128704123049964
 76.1021459051832210 11.3912632045734714 28.1128704123049964
 56.3719877931690334 47.1922087518845075 28.6327538495249954
 36.6418299791490298 47.1922087518845075 28.6327538495249954
 -8.4557943928109793 47.1922087518845075 28.6327538495249954
 39.4603997931690245 47.1922087518845075 28.6327538495249954
 26.7767087728507853 49.6332355696302230 28.6327538495249954
 -5.6371823404568273 52.0741891580359919 28.6327538495249954
 42.2789696071890333 47.1922087518845075 28.6327538495249954
 -0.0000003928109814 47.1922087518845075 28.6327538495249954
  9.8651207728507995 49.6332355696302230 28.6327538495249954
 18.3209147728507951 49.6332355696302230 28.6327538495249954
 15.5022604008907816 49.6332355696302230 28.6327538495249954
 45.0976239791490272 47.1922087518845075 28.6327538495249954
 43.6882967728507978 49.6332355696302230 28.6327538495249954
  5.6371814735631682 52.0741891580359919 28.6327538495249954
 50.7347636071890307 47.1922087518845075 28.6327538495249954
  1.4093267728507877 49.6332355696302230 28.6327538495249954
 31.0046057931690235 47.1922087518845075 28.6327538495249954
 -22.5487703404568300 52.0741891580359919 28.6327538495249954
 23.9580544008907985 49.6332355696302230 28.6327538495249954
 53.5534179791490246 47.1922087518845075 28.6327538495249954
 12.6837327845697061 59.3971231525932382 28.6327538495249954
 39.4603574735631781 52.0741891580359919 28.6327538495249954
  5.6371813516562215 66.7200571471504844 28.6327538495249954
  0.0000417236162395 66.7200571471504844 28.6327538495249954
 -8.4557522763837714 66.7200571471504844 28.6327538495249954
 -14.0929764623637634 66.7200571471504844 28.6327538495249954
 -36.6417886483437698 66.7200571471504844 28.6327538495249954
 35.2325026509438644 64.2791035587447084 28.6327538495249954
  8.4558357236162376 66.7200571471504844 28.6327538495249954
 29.5952784649638616 64.2791035587447084 28.6327538495249954
 -15.5022613490561429 64.2791035587447084 28.6327538495249954
 -23.9580553490561456 64.2791035587447084 28.6327538495249954
 -29.5952795350361448 64.2791035587447084 28.6327538495249954
 36.6418298572420866 61.8380767409990000 28.6327538495249954
 22.5488116712620865 61.8380767409990000 28.6327538495249954
 11.2744478572420874 61.8380767409990000 28.6327538495249954
 -9.8651217210161430 64.2791035587447084 28.6327538495249954
 -16.9115885147179164 61.8380767409990000 28.6327538495249954
 14.0929753516562410 66.7200571471504844 28.6327538495249954
 42.2790117236162359 66.7200571471504844 28.6327538495249954
 31.0046055899903834 71.6020375533019688 28.6327538495249954
 25.3673814040103807 71.6020375533019688 28.6327538495249954
 11.2743632180303894 71.6020375533019688 28.6327538495249954
  8.4557934040103735 71.6020375533019688 28.6327538495249954
  5.6372235899903860 71.6020375533019688 28.6327538495249954
 -2.8185704100096114 71.6020375533019688 28.6327538495249954
 28.1859935376362323 66.7200571471504844 28.6327538495249954
 -8.4557945959896212 71.6020375533019688 28.6327538495249954
 18.3209146103086198 69.1610107355562462 28.6327538495249954
  7.0465507962886189 69.1610107355562462 28.6327538495249954
 -18.3208312037113821 69.1610107355562462 28.6327538495249954
 -21.1394855756713831 69.1610107355562462 28.6327538495249954
 -26.7766252037113830 69.1610107355562462 28.6327538495249954
 -32.4138493896913857 69.1610107355562462 28.6327538495249954
 43.6882966103086261 69.1610107355562462 28.6327538495249954
 33.8232178455231747 52.0741891580359919 28.6327538495249954
 -19.7301583287379145 61.8380767409990000 28.6327538495249954
 -28.1859523287379155 61.8380767409990000 28.6327538495249954
 -19.7301582881026789 56.9561695641874692 28.6327538495249954
 -25.3673824740826745 56.9561695641874692 28.6327538495249954
 46.5068665462355568 54.5151427464417537 28.6327538495249954
 40.8697269181955534 54.5151427464417537 28.6327538495249954
 32.4139329181955560 54.5151427464417537 28.6327538495249954
 23.9581389181955480 54.5151427464417537 28.6327538495249954
 -2.8185702881026811 56.9561695641874692 28.6327538495249954
 18.3209147322155452 54.5151427464417537 28.6327538495249954
 -21.1394854537644470 54.5151427464417537 28.6327538495249954
 -23.9580552677844487 54.5151427464417537 28.6327538495249954
 53.5533756595431782 52.0741891580359919 28.6327538495249954
 47.9161514735631755 52.0741891580359919 28.6327538495249954
 45.0975816595431809 52.0741891580359919 28.6327538495249954
 42.2790118455231720 52.0741891580359919 28.6327538495249954
 -12.6836914537644478 54.5151427464417537 28.6327538495249954
 -25.3673825147179137 61.8380767409990000 28.6327538495249954
 -0.0000004740826793 56.9561695641874692 28.6327538495249954
 14.0930177118973283 56.9561695641874692 28.6327538495249954
 -31.0045221427579136 61.8380767409990000 28.6327538495249954
 49.3254785985897115 59.3971231525932382 28.6327538495249954
 43.6882544126097088 59.3971231525932382 28.6327538495249954
 38.0511147845697053 59.3971231525932382 28.6327538495249954
 32.4138905985897026 59.3971231525932382 28.6327538495249954
 18.3208724126097096 59.3971231525932382 28.6327538495249954
 11.2743633399373131 56.9561695641874692 28.6327538495249954
 -11.2743642068309775 47.1922087518845075 28.6327538495249954
  4.2279387845697078 59.3971231525932382 28.6327538495249954
 -1.4092854014103018 59.3971231525932382 28.6327538495249954
 -9.8650794014102949 59.3971231525932382 28.6327538495249954
 -18.3208734014102959 59.3971231525932382 28.6327538495249954
 -26.7766674014102968 59.3971231525932382 28.6327538495249954
 19.7301573399373318 56.9561695641874692 28.6327538495249954
  9.8650784126096909 59.3971231525932382 28.6327538495249954
 -14.0929340208509810 47.1922087518845075 28.6327538495249954
 52.1440908947577384 34.9873675805157234 28.6327538495249954
 -19.7301582068309784 47.1922087518845075 28.6327538495249954
  8.4557938510029000 17.9004727736555189 28.6327538495249954
  2.8186542229628988 17.9004727736555189 28.6327538495249954
 -0.0000001489970986 17.9004727736555189 28.6327538495249954
 -2.8185699630171004 17.9004727736555189 28.6327538495249954
 74.6928609643105261 15.4595191852497500 28.6327538495249954
 63.4184971502905270 15.4595191852497500 28.6327538495249954
 23.9580969643105171 15.4595191852497500 28.6327538495249954
  9.8650787783305205 15.4595191852497500 28.6327538495249954
  1.4092847783305213 15.4595191852497500 28.6327538495249954
 73.2835760776181360 13.0185655968439828 28.6327538495249954
 56.3719880776181483 13.0185655968439828 28.6327538495249954
 53.5533337056581473 13.0185655968439828 28.6327538495249954
 28.1859517056581375 13.0185655968439828 28.6327538495249954
 25.3673818916381357 13.0185655968439828 28.6327538495249954
 22.5488120776181340 13.0185655968439828 28.6327538495249954
 16.9115878916381419 13.0185655968439828 28.6327538495249954
  2.8185697056581414 13.0185655968439828 28.6327538495249954
 11.2744482229629011 17.9004727736555189 28.6327538495249954
 71.8742489119563714 10.5775387790982709 28.6327538495249954
 31.0046060369829029 17.9004727736555189 28.6327538495249954
 39.4604000369828896 17.9004727736555189 28.6327538495249954
 36.6417879033570415 22.7824531798069998 28.6327538495249954
 33.8232180893370540 22.7824531798069998 28.6327538495249954
  5.6371817173770493 22.7824531798069998 28.6327538495249954
  0.0000420893370479 22.7824531798069998 28.6327538495249954
 -5.6371820966429516 22.7824531798069998 28.6327538495249954
 -8.4557519106629488 22.7824531798069998 28.6327538495249954
 52.1440910166646745 20.3414995914012344 28.6327538495249954
 32.4138486447046574 20.3414995914012344 28.6327538495249954
 26.7767090166646753 20.3414995914012344 28.6327538495249954
 21.1394848306846654 20.3414995914012344 28.6327538495249954
 18.3209150166646637 20.3414995914012344 28.6327538495249954
 12.6836908306846716 20.3414995914012344 28.6327538495249954
 73.2835760369829075 17.9004727736555189 28.6327538495249954
 64.8277820369829101 17.9004727736555189 28.6327538495249954
 59.1905578510029073 17.9004727736555189 28.6327538495249954
 50.7347638510029029 17.9004727736555189 28.6327538495249954
 45.0976242229628923 17.9004727736555189 28.6327538495249954
 33.8231758510028868 17.9004727736555189 28.6327538495249954
 42.2790120893370442 22.7824531798069998 28.6327538495249954
 69.0556790979363768 10.5775387790982709 28.6327538495249954
 52.1440910979363750 10.5775387790982709 28.6327538495249954
 23.9580547666116068  5.6956316022867357 28.6327538495249954
 -1.4093272333883895  5.6956316022867357 28.6327538495249954
 76.1021459729098524  3.2546047845410229 28.6327538495249954
 73.2835761588898578  3.2546047845410229 28.6327538495249954
 70.4650063448698489  3.2546047845410229 28.6327538495249954
 56.3719881588898417  3.2546047845410229 28.6327538495249954
 39.4604001588898399  3.2546047845410229 28.6327538495249954
 28.1860363448698337  3.2546047845410229 28.6327538495249954
 19.7302423448698399  3.2546047845410229 28.6327538495249954
 11.2744483448698372  3.2546047845410229 28.6327538495249954
 74.6928610862174764  0.8136511961352557 28.6327538495249954
 66.2370670862174649  0.8136511961352557 28.6327538495249954
 54.9627032721974516  0.8136511961352557 28.6327538495249954
 46.5069092721974613  0.8136511961352557 28.6327538495249954
 29.5953212721974559  0.8136511961352557 28.6327538495249954
  9.8650789002374601  0.8136511961352557 28.6327538495249954
  4.2279392721974602  0.8136511961352557 28.6327538495249954
 26.7767091385716043  5.6956316022867357 28.6327538495249954
 66.2371092839163680 10.5775387790982709 28.6327538495249954
 29.5952789525916060  5.6956316022867357 28.6327538495249954
 43.6882971385716132  5.6956316022867357 28.6327538495249954
 46.5068669119563793 10.5775387790982709 28.6327538495249954
 43.6882970979363634 10.5775387790982709 28.6327538495249954
 38.0510729119563607 10.5775387790982709 28.6327538495249954
 35.2325030979363731 10.5775387790982709 28.6327538495249954
 32.4139332839163785 10.5775387790982709 28.6327538495249954
 21.1394849119563659 10.5775387790982709 28.6327538495249954
 -4.2278970880436288 10.5775387790982709 28.6327538495249954
 31.0045638392839891  8.1365851906925037 28.6327538495249954
 14.0929758392839890  8.1365851906925037 28.6327538495249954
  8.4558362112439873  8.1365851906925037 28.6327538495249954
  0.0000422112439907  8.1365851906925037 28.6327538495249954
 71.8742489525916284  5.6956316022867357 28.6327538495249954
 63.4184549525916097  5.6956316022867357 28.6327538495249954
 60.5998851385716151  5.6956316022867357 28.6327538495249954
 54.9626609525916123  5.6956316022867357 28.6327538495249954
 52.1440911385716035  5.6956316022867357 28.6327538495249954
 46.5068669525916008  5.6956316022867357 28.6327538495249954
 38.0510729525916105  5.6956316022867357 28.6327538495249954
 -16.9115883928109767 47.1922087518845075 28.6327538495249954
 50.7348060893370558 22.7824531798069998 28.6327538495249954
 70.4649639033570594 22.7824531798069998 28.6327538495249954
 15.5023450401024956 39.8692747573272612 28.6327538495249954
  1.4093268541224926 39.8692747573272612 28.6327538495249954
 -4.2278973318575099 39.8692747573272612 28.6327538495249954
 -7.0464671458775081 39.8692747573272612 28.6327538495249954
 -12.6836913318575100 39.8692747573272612 28.6327538495249954
 -15.5022611458775117 39.8692747573272612 28.6327538495249954
 -21.1394853318575109 39.8692747573272612 28.6327538495249954
 39.4603575954701142 37.4283211689214923 28.6327538495249954
 33.8232179674301037 37.4283211689214923 28.6327538495249954
 31.0045635954701204 37.4283211689214923 28.6327538495249954
 22.5487695954701017 37.4283211689214923 28.6327538495249954
 16.9116299674301196 37.4283211689214923 28.6327538495249954
 14.0929755954701115 37.4283211689214923 28.6327538495249954
  8.4558359674301080 37.4283211689214923 28.6327538495249954
 -16.9115460325698876 37.4283211689214923 28.6327538495249954
 60.5998848947577358 34.9873675805157234 28.6327538495249954
 46.5068667087777357 34.9873675805157234 28.6327538495249954
 23.9581390401024947 39.8692747573272612 28.6327538495249954
 43.6882968947577410 34.9873675805157234 28.6327538495249954
 35.2325028541224938 39.8692747573272612 28.6327538495249954
 46.5068666681425000 39.8692747573272612 28.6327538495249954
 -22.5487280208509766 47.1922087518845075 28.6327538495249954
 -25.3673823928109776 47.1922087518845075 28.6327538495249954
 23.9580967204966342 44.7512551634787386 28.6327538495249954
 18.3208725345166314 44.7512551634787386 28.6327538495249954
 -12.6836490935233588 44.7512551634787386 28.6327538495249954
 -23.9580974654833554 44.7512551634787386 28.6327538495249954
 47.9161938338042646 42.3103015750729767 28.6327538495249954
 42.2789696478242618 42.3103015750729767 28.6327538495249954
 31.0046058338042556 42.3103015750729767 28.6327538495249954
 16.9115876478242626 42.3103015750729767 28.6327538495249954
 14.0930178338042680 42.3103015750729767 28.6327538495249954
 11.2743634618442599 42.3103015750729767 28.6327538495249954
  5.6372238338042564 42.3103015750729767 28.6327538495249954
 -19.7301581661957393 42.3103015750729767 28.6327538495249954
 60.5998848541225001 39.8692747573272612 28.6327538495249954
 54.9626606681424974 39.8692747573272612 28.6327538495249954
 49.3255210401024939 39.8692747573272612 28.6327538495249954
 43.6882968541224912 39.8692747573272612 28.6327538495249954
 56.3719457173770593 22.7824531798069998 28.6327538495249954
 32.4138485227977426 34.9873675805157234 28.6327538495249954
 18.3209148947577418 34.9873675805157234 28.6327538495249954
 62.0091275837512086 27.6644335859584807 28.6327538495249954
 59.1905577697312140 27.6644335859584807 28.6327538495249954
 31.0046059557112059 27.6644335859584807 28.6327538495249954
 22.5488119557112086 27.6644335859584807 28.6327538495249954
 -5.6372244162487979 27.6644335859584807 28.6327538495249954
 -8.4557942302688005 27.6644335859584807 28.6327538495249954
 -11.2743640442888005 27.6644335859584807 28.6327538495249954
 63.4184547900494380 25.2234067682127652 28.6327538495249954
 49.3255211620094371 25.2234067682127652 28.6327538495249954
 35.2325029760294228 25.2234067682127652 28.6327538495249954
 21.1394847900494298 25.2234067682127652 28.6327538495249954
 18.3209149760294281 25.2234067682127652 28.6327538495249954
 15.5023451620094264 25.2234067682127652 28.6327538495249954
  9.8651209760294343 25.2234067682127652 28.6327538495249954
  7.0465511620094325 25.2234067682127652 28.6327538495249954
  4.2278967900494315 25.2234067682127652 28.6327538495249954
 -7.0464670239705693 25.2234067682127652 28.6327538495249954
 64.8277819557112025 27.6644335859584807 28.6327538495249954
 26.7767088947577392 34.9873675805157234 28.6327538495249954
 67.6463517697312113 27.6644335859584807 28.6327538495249954
 -7.0465093435764183 30.1053871743642461 28.6327538495249954
  4.2278967087777302 34.9873675805157234 28.6327538495249954
 -1.4093274772022688 34.9873675805157234 28.6327538495249954
 -9.8651214772022673 34.9873675805157234 28.6327538495249954
 -15.5022611052422672 34.9873675805157234 28.6327538495249954
 33.8231757290959649 32.5463407627700150 28.6327538495249954
 25.3673817290959498 32.5463407627700150 28.6327538495249954
 11.2744481010559561 32.5463407627700150 28.6327538495249954
  2.8186541010559618 32.5463407627700150 28.6327538495249954
 -11.2743640849240396 32.5463407627700150 28.6327538495249954
 -16.9115882709040370 32.5463407627700150 28.6327538495249954
 66.2370668424035927 30.1053871743642461 28.6327538495249954
 52.1440486564235925 30.1053871743642461 28.6327538495249954
 43.6882546564235881 30.1053871743642461 28.6327538495249954
 40.8696848424035863 30.1053871743642461 28.6327538495249954
 18.3208726564235782 30.1053871743642461 28.6327538495249954
  4.2279390283835818 30.1053871743642461 28.6327538495249954
  1.4092846564235810 30.1053871743642461 28.6327538495249954
 -9.8650791575964192 30.1053871743642461 28.6327538495249954
 39.4603995899903808 71.6020375533019688 28.6327538495249954
