 H  O 
 1.0000000000000000
    84.5579400000000021    0.0000000000000000    0.0000000000000000
   -42.2789706095346958   73.2293399455724767    0.0000000000000000
     0.0000000000000000    0.0000000000000000   46.9039550000000034
 H   O  
 177 309
Cartesian
 -0.0000000135450799  1.6273023922705114 28.1128704123049964
 12.6836482401747883 57.7698207603227232 28.1128704123049964
 69.0556789895745169 23.5961043759422537 28.1128704123049964
  4.2278542401747847 57.7698207603227232 28.1128704123049964
 -4.2279397598252162 57.7698207603227232 28.1128704123049964
  5.6371394113162827 26.0371311936879657 28.1128704123049964
 16.9115877832762855 26.0371311936879657 28.1128704123049964
 25.3673817832762829 26.0371311936879657 28.1128704123049964
 -18.3208733878652161 57.7698207603227232 28.1128704123049964
 -32.4138915738452127 57.7698207603227232 28.1128704123049964
 50.7347637832762715 26.0371311936879657 28.1128704123049964
 45.0975393534824036 55.3288671719169614 28.1128704123049964
 60.5998849895745124 23.5961043759422537 28.1128704123049964
 56.3719034113162749 26.0371311936879657 28.1128704123049964
 -1.4092851440513405 28.4780847820937346 28.1128704123049964
  5.6371391675024016 55.3288671719169614 28.1128704123049964
 -0.0000004605375943 55.3288671719169614 28.1128704123049964
 35.2324606699686598 28.4780847820937346 28.1128704123049964
 43.6882546699686571 28.4780847820937346 28.1128704123049964
 46.5068244839886518 28.4780847820937346 28.1128704123049964
 -22.5488126465175966 55.3288671719169614 28.1128704123049964
 -28.1860368324975958 55.3288671719169614 28.1128704123049964
 -14.0930184433389574 30.9190383704995000 28.1128704123049964
 46.5068665597806330 52.8878403541712458 28.1128704123049964
  8.4557937426410454 30.9190383704995000 28.1128704123049964
 -9.8650791440513395 28.4780847820937346 28.1128704123049964
 14.0930179286210446 30.9190383704995000 28.1128704123049964
 21.1394422401747804 57.7698207603227232 28.1128704123049964
 29.5952362401747777 57.7698207603227232 28.1128704123049964
 -15.5023458934510643 62.6518011664742076 28.1128704123049964
 -26.7767097074710669 62.6518011664742076 28.1128704123049964
 -32.4139338934510661 62.6518011664742076 28.1128704123049964
 21.1394848442297523 18.7141971991307194 28.1128704123049964
 29.5952788442297496 18.7141971991307194 28.1128704123049964
 35.2324184722697566 18.7141971991307194 28.1128704123049964
 19.7301573128471581 60.2107743487284921 28.1128704123049964
 60.5998004722697488 18.7141971991307194 28.1128704123049964
 66.2370246582497515 18.7141971991307194 28.1128704123049964
 69.0555944722697461 18.7141971991307194 28.1128704123049964
 -5.6371820830978701 21.1551507875364884 28.1128704123049964
 40.8696426176145025 23.5961043759422537 28.1128704123049964
 -0.0000424550578693 21.1551507875364884 28.1128704123049964
 -28.1859523151928357 60.2107743487284921 28.1128704123049964
 39.4603577309221265 21.1551507875364884 28.1128704123049964
 47.9161517309221239 21.1551507875364884 28.1128704123049964
 53.5533759169021195 21.1551507875364884 28.1128704123049964
 56.3719457309221283 21.1551507875364884 28.1128704123049964
 62.0091699169021311 21.1551507875364884 28.1128704123049964
 -9.8651213823854889 23.5961043759422537 28.1128704123049964
 49.3254786121347877 57.7698207603227232 28.1128704123049964
 35.2324604261547876 57.7698207603227232 28.1128704123049964
 18.3209149895745149 23.5961043759422537 28.1128704123049964
 32.4138486176145122 23.5961043759422537 28.1128704123049964
 -14.0930186871528367 60.2107743487284921 28.1128704123049964
 22.5488119286210420 30.9190383704995000 28.1128704123049964
 40.8696423738006303 52.8878403541712458 28.1128704123049964
 28.1859515566610455 30.9190383704995000 28.1128704123049964
 52.1440062284558650 48.0059331773597151 28.1128704123049964
 18.3209148676675753 38.2419723650567462 28.1128704123049964
 35.2324182284558631 48.0059331773597151 28.1128704123049964
 35.2325028676675771 38.2419723650567462 28.1128704123049964
 43.6882968676675674 38.2419723650567462 28.1128704123049964
 26.7766242284558658 48.0059331773597151 28.1128704123049964
 52.1440908676675789 38.2419723650567462 28.1128704123049964
 57.7812304957075682 38.2419723650567462 28.1128704123049964
 18.3208302284558755 48.0059331773597151 28.1128704123049964
 -14.0930185246106596 40.6829991828024689 28.1128704123049964
  1.4092422284558699 48.0059331773597151 28.1128704123049964
 -9.8651215042924267 38.2419723650567462 28.1128704123049964
 -18.3209155855641299 48.0059331773597151 28.1128704123049964
 33.8231756207340979 45.5649063596139996 28.1128704123049964
 -21.1395276379182775 43.1239527712082307 28.1128704123049964
 -15.5023034519382783 43.1239527712082307 28.1128704123049964
 -8.4557943792659014 45.5649063596139996 28.1128704123049964
 -9.8650792659582809 43.1239527712082307 28.1128704123049964
 -1.4092852659582757 43.1239527712082307 28.1128704123049964
  4.2278543620817208 43.1239527712082307 28.1128704123049964
 12.6836483620817209 43.1239527712082307 28.1128704123049964
 21.1394423620817271 43.1239527712082307 28.1128704123049964
 54.9626183620817130 43.1239527712082307 28.1128704123049964
 29.5952363620817174 43.1239527712082307 28.1128704123049964
 45.0975394347540970 45.5649063596139996 28.1128704123049964
 -25.3674246988717442 50.4468867657654769 28.1128704123049964
 -14.0929763269117494 50.4468867657654769 28.1128704123049964
 -5.6371823269117440 50.4468867657654769 28.1128704123049964
 31.0046059286210465 30.9190383704995000 28.1128704123049964
 32.4138483738006258 52.8878403541712458 28.1128704123049964
 23.9580543738006249 52.8878403541712458 28.1128704123049964
 64.8277819286210502 30.9190383704995000 28.1128704123049964
 -15.5023456496371885 33.3600651882452155 28.1128704123049964
 -9.8651214636571893 33.3600651882452155 28.1128704123049964
 -7.0465516496371885 33.3600651882452155 28.1128704123049964
  1.4092423503628120 33.3600651882452155 28.1128704123049964
 -12.6836914402193699 52.8878403541712458 28.1128704123049964
 -21.1394854402193673 52.8878403541712458 28.1128704123049964
 53.5533756730882544 50.4468867657654769 28.1128704123049964
 38.0510727223228145 33.3600651882452155 28.1128704123049964
 43.6882123503628037 33.3600651882452155 28.1128704123049964
 49.3254365363428136 33.3600651882452155 28.1128704123049964
 54.9626607223228163 33.3600651882452155 28.1128704123049964
 60.5998003503628055 33.3600651882452155 28.1128704123049964
 42.2789273011282489 50.4468867657654769 28.1128704123049964
 -5.6371822050048115 35.8010187766509844 28.1128704123049964
  8.4557514230351885 35.8010187766509844 28.1128704123049964
 14.0929756090151947 35.8010187766509844 28.1128704123049964
 19.7301997949951904 35.8010187766509844 28.1128704123049964
 15.5023024902278443 72.4156887494372228 28.1128704123049964
  8.4557513011282524 50.4468867657654769 28.1128704123049964
 33.8231334230351877 35.8010187766509844 28.1128704123049964
 -0.0000426988717480 50.4468867657654769 28.1128704123049964
 -1.4093277074710613 62.6518011664742076 28.1128704123049964
 -9.8651213417502497 18.7141971991307194 28.1128704123049964
 -4.2278971964054897 23.5961043759422537 28.1128704123049964
 46.5068243620817157 43.1239527712082307 28.1128704123049964
 77.5113885941766796  4.0683292100162243 28.1128704123049964
 -29.5952795621263043 67.5337083432857384 28.1128704123049964
 71.8742489661366903  4.0683292100162243 28.1128704123049964
 -32.4138493761463025 67.5337083432857384 28.1128704123049964
 66.2370247801566876  4.0683292100162243 28.1128704123049964
 33.8231331792213084 65.0927547548799765 28.1128704123049964
 31.0045633652013137 65.0927547548799765 28.1128704123049964
 60.5998005941766849  4.0683292100162243 28.1128704123049964
 39.4603150455954648 69.9747351610314468 28.1128704123049964
 52.1440065941766875  4.0683292100162243 28.1128704123049964
 25.3673391792213039 65.0927547548799765 28.1128704123049964
 50.7347639051832218 11.3912632045734714 28.1128704123049964
 16.9115451792213065 65.0927547548799765 28.1128704123049964
 62.0091277192032209 11.3912632045734714 28.1128704123049964
 64.8276975332232155 11.3912632045734714 28.1128704123049964
 46.5068669661366982  4.0683292100162243 28.1128704123049964
 73.2834915332232129 11.3912632045734714 28.1128704123049964
 77.5114731114814504  8.9502363868277595 28.1128704123049964
 -4.2279393941043990 13.8322167929792403 28.1128704123049964
 28.1859512315754728 69.9747351610314468 28.1128704123049964
 -23.9580553761463051 67.5337083432857384 28.1128704123049964
 -39.4604007684245346 69.9747351610314468 28.1128704123049964
 47.9161518528290671  6.5092827984219914 28.1128704123049964
 42.2789276668490714  6.5092827984219914 28.1128704123049964
 -5.6372247684245327 69.9747351610314468 28.1128704123049964
 -4.2278970744985491  8.9502363868277595 28.1128704123049964
 -1.4093272604785494  8.9502363868277595 28.1128704123049964
 -0.0000005824445366 69.9747351610314468 28.1128704123049964
 31.0045638528290759  6.5092827984219914 28.1128704123049964
 22.5487698528290750  6.5092827984219914 28.1128704123049964
  4.2278964378736958 67.5337083432857384 28.1128704123049964
  9.8651211114814483  8.9502363868277595 28.1128704123049964
 14.0929330455954638 69.9747351610314468 28.1128704123049964
  4.2278964785089341 62.6518011664742076 28.1128704123049964
 46.5068669255014484  8.9502363868277595 28.1128704123049964
 52.1440911114814512  8.9502363868277595 28.1128704123049964
 -12.6836915621263024 67.5337083432857384 28.1128704123049964
 -18.3209157481063052 67.5337083432857384 28.1128704123049964
 69.0556791114814530  8.9502363868277595 28.1128704123049964
  8.4557511792213162 65.0927547548799765 28.1128704123049964
 56.3719035332232110 11.3912632045734714 28.1128704123049964
 40.8696422925289298 62.6518011664742076 28.1128704123049964
 -21.1395278817321568 72.4156887494372228 28.1128704123049964
 71.8742066058955942 13.8322167929792403 28.1128704123049964
  4.2278541182678469 72.4156887494372228 28.1128704123049964
 42.2789699864549249  1.6273023922705114 28.1128704123049964
 -36.6417886347986865 65.0927547548799765 28.1128704123049964
 52.1440487918755977 13.8322167929792403 28.1128704123049964
 39.4604001724349231  1.6273023922705114 28.1128704123049964
  5.6372240505279780 16.2731703813850075 28.1128704123049964
 33.8231759864549275  1.6273023922705114 28.1128704123049964
 38.0510306058956047 13.8322167929792403 28.1128704123049964
 26.7766667918756056 13.8322167929792403 28.1128704123049964
 43.6882547918756003 13.8322167929792403 28.1128704123049964
 56.3719880505279747 16.2731703813850075 28.1128704123049964
 28.1859518004749177  1.6273023922705114 28.1128704123049964
 14.0930181724349168  1.6273023922705114 28.1128704123049964
 -1.4093272198433096  4.0683292100162243 28.1128704123049964
  7.0464667801566900  4.0683292100162243 28.1128704123049964
 62.0091276785679781 16.2731703813850075 28.1128704123049964
 15.5022607801566892  4.0683292100162243 28.1128704123049964
  9.8650361065489385 62.6518011664742076 28.1128704123049964
  9.8650783042478416 72.4156887494372228 28.1128704123049964
 18.3209146103086198 69.1610107355562462 28.6327538495249954
 -11.2743644100096230 71.6020375533019688 28.6327538495249954
 -5.6372247819696195 71.6020375533019688 28.6327538495249954
 23.9580967204966342 44.7512551634787386 28.6327538495249954
 29.5952785868707942 49.6332355696302230 28.6327538495249954
 15.5023447962886092 69.1610107355562462 28.6327538495249954
 38.0510725868707951 49.6332355696302230 28.6327538495249954
 35.2325027728508005 49.6332355696302230 28.6327538495249954
 46.5068665868708067 49.6332355696302230 28.6327538495249954
 49.3254364008908013 49.6332355696302230 28.6327538495249954
  5.6372235899903860 71.6020375533019688 28.6327538495249954
 -12.6836490935233588 44.7512551634787386 28.6327538495249954
  9.8651206103086064 69.1610107355562462 28.6327538495249954
 59.1905576478242708 42.3103015750729767 28.6327538495249954
 -2.8185704100096114 71.6020375533019688 28.6327538495249954
 21.1394845868707826 49.6332355696302230 28.6327538495249954
 -33.8231765959896151 71.6020375533019688 28.6327538495249954
 -16.9115885959896168 71.6020375533019688 28.6327538495249954
 -28.1859524100096195 71.6020375533019688 28.6327538495249954
 -36.6417464100096169 71.6020375533019688 28.6327538495249954
 31.0046057931690235 47.1922087518845075 28.6327538495249954
 -39.4604007819696179 71.6020375533019688 28.6327538495249954
 19.7302419791490244 47.1922087518845075 28.6327538495249954
 39.4603997931690245 47.1922087518845075 28.6327538495249954
 14.0930177931690217 47.1922087518845075 28.6327538495249954
 11.2744479791490271 47.1922087518845075 28.6327538495249954
 -25.3673401544768282 52.0741891580359919 28.6327538495249954
 40.8697267962886173 69.1610107355562462 28.6327538495249954
 47.9161937931690360 47.1922087518845075 28.6327538495249954
  5.6372237931690181 47.1922087518845075 28.6327538495249954
 56.3719877931690334 47.1922087518845075 28.6327538495249954
 -25.3673825959896213 71.6020375533019688 28.6327538495249954
 -15.5022612271492086 49.6332355696302230 28.6327538495249954
 -2.8185702068309761 47.1922087518845075 28.6327538495249954
 -9.8651215991092069 49.6332355696302230 28.6327538495249954
 -11.2743642068309775 47.1922087518845075 28.6327538495249954
 -14.0929340208509810 47.1922087518845075 28.6327538495249954
 35.2325026103086287 69.1610107355562462 28.6327538495249954
  4.2278965868707896 49.6332355696302230 28.6327538495249954
 29.5952784243286260 69.1610107355562462 28.6327538495249954
 22.5488117931690120 47.1922087518845075 28.6327538495249954
 12.6836905868707941 49.6332355696302230 28.6327538495249954
 -22.5487280208509766 47.1922087518845075 28.6327538495249954
 23.9581387962886225 69.1610107355562462 28.6327538495249954
 -26.7766252037113830 69.1610107355562462 28.6327538495249954
  5.6372236712620847 61.8380767409990000 28.6327538495249954
 -35.2324192037113804 69.1610107355562462 28.6327538495249954
 47.9161936712620928 61.8380767409990000 28.6327538495249954
 -29.5952795350361448 64.2791035587447084 28.6327538495249954
 -29.5952372154302985 59.3971231525932382 28.6327538495249954
 50.7347636478242734 42.3103015750729767 28.6327538495249954
 -21.1394855350361439 64.2791035587447084 28.6327538495249954
 42.2789695259173328 56.9561695641874692 28.6327538495249954
 -23.9580975873902986 59.3971231525932382 28.6327538495249954
 39.4603997118973240 56.9561695641874692 28.6327538495249954
 -15.5022613490561429 64.2791035587447084 28.6327538495249954
 31.0046057118973302 56.9561695641874692 28.6327538495249954
 -12.6836915350361448 64.2791035587447084 28.6327538495249954
 -4.2278975350361501 64.2791035587447084 28.6327538495249954
 25.3673815259173274 56.9561695641874692 28.6327538495249954
 16.9115875259173158 56.9561695641874692 28.6327538495249954
 -18.3209157210161457 64.2791035587447084 28.6327538495249954
 -12.6836492154302967 59.3971231525932382 28.6327538495249954
 45.0976238572420840 61.8380767409990000 28.6327538495249954
 -1.4092854014103018 59.3971231525932382 28.6327538495249954
 -2.8185703287379194 61.8380767409990000 28.6327538495249954
 -5.6371401427579215 61.8380767409990000 28.6327538495249954
 -16.9115885147179164 61.8380767409990000 28.6327538495249954
 14.0930176712620749 61.8380767409990000 28.6327538495249954
 16.9115874852820909 61.8380767409990000 28.6327538495249954
 46.5069087845697027 59.3971231525932382 28.6327538495249954
 19.7302418572420777 61.8380767409990000 28.6327538495249954
 22.5488116712620865 61.8380767409990000 28.6327538495249954
 40.8696845985897141 59.3971231525932382 28.6327538495249954
 23.9580965985897052 59.3971231525932382 28.6327538495249954
 28.1860358572420893 61.8380767409990000 28.6327538495249954
 15.5023025985896936 59.3971231525932382 28.6327538495249954
 31.0046056712620839 61.8380767409990000 28.6327538495249954
  1.4092844126096999 59.3971231525932382 28.6327538495249954
 36.6418298572420866 61.8380767409990000 28.6327538495249954
 14.0930177118973283 56.9561695641874692 28.6327538495249954
 -16.9115461544768308 52.0741891580359919 28.6327538495249954
 12.6836904649638509 64.2791035587447084 28.6327538495249954
 -14.0930186600626755 56.9561695641874692 28.6327538495249954
 -8.4557522763837714 66.7200571471504844 28.6327538495249954
 -5.6371824623637705 66.7200571471504844 28.6327538495249954
 45.0975816595431809 52.0741891580359919 28.6327538495249954
  2.8186115376362340 66.7200571471504844 28.6327538495249954
 28.1859935376362323 66.7200571471504844 28.6327538495249954
 28.1859936595431719 52.0741891580359919 28.6327538495249954
 50.7348058455231694 52.0741891580359919 28.6327538495249954
 31.0045633516562411 66.7200571471504844 28.6327538495249954
 14.0929754735631594 52.0741891580359919 28.6327538495249954
 11.2744056595431719 52.0741891580359919 28.6327538495249954
 36.6417875376362474 66.7200571471504844 28.6327538495249954
 42.2790117236162359 66.7200571471504844 28.6327538495249954
  2.8186116595431669 52.0741891580359919 28.6327538495249954
 -2.8186125264368322 52.0741891580359919 28.6327538495249954
 19.7301996595431604 52.0741891580359919 28.6327538495249954
 -18.3208310818044460 54.5151427464417537 28.6327538495249954
 -15.5022612677844460 54.5151427464417537 28.6327538495249954
 -19.7302006483437680 66.7200571471504844 28.6327538495249954
 21.1394844649638500 64.2791035587447084 28.6327538495249954
 -31.0046066600626737 56.9561695641874692 28.6327538495249954
 29.5952784649638616 64.2791035587447084 28.6327538495249954
 52.1440907322155596 54.5151427464417537 28.6327538495249954
 49.3255209181955507 54.5151427464417537 28.6327538495249954
 -33.8231342763837688 66.7200571471504844 28.6327538495249954
 43.6882967322155622 54.5151427464417537 28.6327538495249954
 35.2325027322155506 54.5151427464417537 28.6327538495249954
 29.5952785462355585 54.5151427464417537 28.6327538495249954
 26.7767087322155568 54.5151427464417537 28.6327538495249954
 12.6836905462355407 54.5151427464417537 28.6327538495249954
  9.8651207322155532 54.5151427464417537 28.6327538495249954
  7.0465509181955595 54.5151427464417537 28.6327538495249954
 -28.1859946483437653 66.7200571471504844 28.6327538495249954
 -7.0464672677844442 54.5151427464417537 28.6327538495249954
  8.4557935259173256 56.9561695641874692 28.6327538495249954
 -2.8186126483437688 66.7200571471504844 28.6327538495249954
 21.1394847087777364 34.9873675805157234 28.6327538495249954
 36.6417454618442662 42.3103015750729767 28.6327538495249954
 26.7766667783305188 15.4595191852497500 28.6327538495249954
 23.9580969643105171 15.4595191852497500 28.6327538495249954
 21.1395271502905153 15.4595191852497500 28.6327538495249954
  9.8650787783305205 15.4595191852497500 28.6327538495249954
  4.2279391502905188 15.4595191852497500 28.6327538495249954
 76.1021458916381448 13.0185655968439828 28.6327538495249954
 67.6463518916381474 13.0185655968439828 28.6327538495249954
 53.5533337056581473 13.0185655968439828 28.6327538495249954
 47.9161940776181368 13.0185655968439828 28.6327538495249954
 22.5488120776181340 13.0185655968439828 28.6327538495249954
 14.0930180776181420 13.0185655968439828 28.6327538495249954
  8.4557938916381428 13.0185655968439828 28.6327538495249954
  5.6372240776181393 13.0185655968439828 28.6327538495249954
  2.8185697056581414 13.0185655968439828 28.6327538495249954
 -0.0000001083618602 13.0185655968439828 28.6327538495249954
 66.2371092839163680 10.5775387790982709 28.6327538495249954
 60.5998850979363723 10.5775387790982709 28.6327538495249954
 46.5068669119563793 10.5775387790982709 28.6327538495249954
 40.8697272839163759 10.5775387790982709 28.6327538495249954
 32.4138909643105251 15.4595191852497500 28.6327538495249954
 40.8696849643105153 15.4595191852497500 28.6327538495249954
 57.7812729643105243 15.4595191852497500 28.6327538495249954
 66.2370669643105288 15.4595191852497500 28.6327538495249954
 38.0510728306846602 20.3414995914012344 28.6327538495249954
 21.1394848306846654 20.3414995914012344 28.6327538495249954
 18.3209150166646637 20.3414995914012344 28.6327538495249954
  4.2278968306846716 20.3414995914012344 28.6327538495249954
 -7.0464669833353293 20.3414995914012344 28.6327538495249954
 64.8277820369829101 17.9004727736555189 28.6327538495249954
 50.7347638510029029 17.9004727736555189 28.6327538495249954
 45.0976242229628923 17.9004727736555189 28.6327538495249954
 42.2789698510029055 17.9004727736555189 28.6327538495249954
 35.2325030979363731 10.5775387790982709 28.6327538495249954
 39.4604000369828896 17.9004727736555189 28.6327538495249954
 19.7302422229628966 17.9004727736555189 28.6327538495249954
 16.9115878510028992 17.9004727736555189 28.6327538495249954
  8.4557938510029000 17.9004727736555189 28.6327538495249954
  5.6372240369829028 17.9004727736555189 28.6327538495249954
  2.8186542229628988 17.9004727736555189 28.6327538495249954
 -2.8185699630171004 17.9004727736555189 28.6327538495249954
 -5.6371397770370981 17.9004727736555189 28.6327538495249954
 71.8742911502905173 15.4595191852497500 28.6327538495249954
 69.0556367783305234 15.4595191852497500 28.6327538495249954
 25.3673818510029001 17.9004727736555189 28.6327538495249954
 29.5952789119563668 10.5775387790982709 28.6327538495249954
 26.7767090979363651 10.5775387790982709 28.6327538495249954
 23.9581392839163634 10.5775387790982709 28.6327538495249954
  9.8651211385716078  5.6956316022867357 28.6327538495249954
  1.4093271385716108  5.6956316022867357 28.6327538495249954
 -1.4093272333883895  5.6956316022867357 28.6327538495249954
 81.7393701588898551  3.2546047845410229 28.6327538495249954
 73.2835761588898578  3.2546047845410229 28.6327538495249954
 56.3719881588898417  3.2546047845410229 28.6327538495249954
 50.7347639729098461  3.2546047845410229 28.6327538495249954
 45.0976243448698426  3.2546047845410229 28.6327538495249954
 25.3673819729098362  3.2546047845410229 28.6327538495249954
 12.6836909525916113  5.6956316022867357 28.6327538495249954
 19.7302423448698399  3.2546047845410229 28.6327538495249954
 80.3300852721974650  0.8136511961352557 28.6327538495249954
 74.6928610862174764  0.8136511961352557 28.6327538495249954
 71.8742912721974676  0.8136511961352557 28.6327538495249954
 69.0556369002374737  0.8136511961352557 28.6327538495249954
 63.4184972721974631  0.8136511961352557 28.6327538495249954
 54.9627032721974516  0.8136511961352557 28.6327538495249954
 43.6882549002374461  0.8136511961352557 28.6327538495249954
  9.8650789002374601  0.8136511961352557 28.6327538495249954
  4.2279392721974602  0.8136511961352557 28.6327538495249954
 16.9115879729098388  3.2546047845410229 28.6327538495249954
 57.7812306447046780 20.3414995914012344 28.6327538495249954
 18.3209151385716105  5.6956316022867357 28.6327538495249954
 35.2325031385716159  5.6956316022867357 28.6327538495249954
 21.1394849119563659 10.5775387790982709 28.6327538495249954
  7.0465512839163686 10.5775387790982709 28.6327538495249954
 76.1021882112439840  8.1365851906925037 28.6327538495249954
 64.8277398392839928  8.1365851906925037 28.6327538495249954
 62.0091700252639910  8.1365851906925037 28.6327538495249954
 59.1906002112439964  8.1365851906925037 28.6327538495249954
 53.5533760252639937  8.1365851906925037 28.6327538495249954
 50.7348062112439848  8.1365851906925037 28.6327538495249954
 28.1859940252639873  8.1365851906925037 28.6327538495249954
 26.7767091385716043  5.6956316022867357 28.6327538495249954
 19.7302000252639935  8.1365851906925037 28.6327538495249954
  8.4558362112439873  8.1365851906925037 28.6327538495249954
  5.6371818392839907  8.1365851906925037 28.6327538495249954
  0.0000422112439907  8.1365851906925037 28.6327538495249954
 80.3300429525916257  5.6956316022867357 28.6327538495249954
 77.5114731385716169  5.6956316022867357 28.6327538495249954
 74.6928187666116230  5.6956316022867357 28.6327538495249954
 71.8742489525916284  5.6956316022867357 28.6327538495249954
 63.4184549525916097  5.6956316022867357 28.6327538495249954
 38.0510729525916105  5.6956316022867357 28.6327538495249954
 14.0929758392839890  8.1365851906925037 28.6327538495249954
 42.2789696478242618 42.3103015750729767 28.6327538495249954
 -2.8186122826229494 22.7824531798069998 28.6327538495249954
 14.0929757173770476 22.7824531798069998 28.6327538495249954
 -8.4557520325698885 37.4283211689214923 28.6327538495249954
 -14.0929762185498877 37.4283211689214923 28.6327538495249954
 -16.9115460325698876 37.4283211689214923 28.6327538495249954
 63.4184547087777446 34.9873675805157234 28.6327538495249954
 54.9626607087777472 34.9873675805157234 28.6327538495249954
 52.1440908947577384 34.9873675805157234 28.6327538495249954
 38.0510727087777383 34.9873675805157234 28.6327538495249954
 35.2325028947577295 34.9873675805157234 28.6327538495249954
 32.4138485227977426 34.9873675805157234 28.6327538495249954
 29.5952787087777267 34.9873675805157234 28.6327538495249954
 23.9580545227977240 34.9873675805157234 28.6327538495249954
 18.3209148947577418 34.9873675805157234 28.6327538495249954
  9.8651208947577302 34.9873675805157234 28.6327538495249954
  4.2278967087777302 34.9873675805157234 28.6327538495249954
 -1.4093274772022688 34.9873675805157234 28.6327538495249954
 -18.3209154772022664 34.9873675805157234 28.6327538495249954
 50.7347637290959668 32.5463407627700150 28.6327538495249954
 33.8231757290959649 32.5463407627700150 28.6327538495249954
 19.7302421010559677 32.5463407627700150 28.6327538495249954
 -5.6371822185498859 37.4283211689214923 28.6327538495249954
 22.5487695954701017 37.4283211689214923 28.6327538495249954
 31.0045635954701204 37.4283211689214923 28.6327538495249954
 39.4603575954701142 37.4283211689214923 28.6327538495249954
 25.3673816478242529 42.3103015750729767 28.6327538495249954
  8.4557936478242581 42.3103015750729767 28.6327538495249954
 -5.6372245381557384 42.3103015750729767 28.6327538495249954
 -11.2743641661957401 42.3103015750729767 28.6327538495249954
 -19.7301581661957393 42.3103015750729767 28.6327538495249954
 60.5998848541225001 39.8692747573272612 28.6327538495249954
 32.4139330401024850 39.8692747573272612 28.6327538495249954
 29.5952786681424982 39.8692747573272612 28.6327538495249954
 26.7767088541224823 39.8692747573272612 28.6327538495249954
 16.9115877290959595 32.5463407627700150 28.6327538495249954
 23.9581390401024947 39.8692747573272612 28.6327538495249954
 15.5023450401024956 39.8692747573272612 28.6327538495249954
 12.6836906681424875 39.8692747573272612 28.6327538495249954
  9.8651208541224857 39.8692747573272612 28.6327538495249954
  7.0465510401024849 39.8692747573272612 28.6327538495249954
  1.4093268541224926 39.8692747573272612 28.6327538495249954
 -21.1394853318575109 39.8692747573272612 28.6327538495249954
 62.0091697814501188 37.4283211689214923 28.6327538495249954
 47.9161515954701187 37.4283211689214923 28.6327538495249954
 45.0975817814501099 37.4283211689214923 28.6327538495249954
 18.3209148541224920 39.8692747573272612 28.6327538495249954
 11.2744481010559561 32.5463407627700150 28.6327538495249954
  8.4557937290959586 32.5463407627700150 28.6327538495249954
  5.6372239150759640 32.5463407627700150 28.6327538495249954
 -11.2743640442888005 27.6644335859584807 28.6327538495249954
 -14.0930184162487979 27.6644335859584807 28.6327538495249954
 54.9626607900494406 25.2234067682127652 28.6327538495249954
 49.3255211620094371 25.2234067682127652 28.6327538495249954
 46.5068667900494361 25.2234067682127652 28.6327538495249954
 40.8697271620094256 25.2234067682127652 28.6327538495249954
 38.0510727900494388 25.2234067682127652 28.6327538495249954
 29.5952787900494201 25.2234067682127652 28.6327538495249954
 21.1394847900494298 25.2234067682127652 28.6327538495249954
 -5.6372244162487979 27.6644335859584807 28.6327538495249954
  1.4093269760294336 25.2234067682127652 28.6327538495249954
 70.4649639033570594 22.7824531798069998 28.6327538495249954
 64.8277397173770566 22.7824531798069998 28.6327538495249954
 59.1906000893370532 22.7824531798069998 28.6327538495249954
 56.3719457173770593 22.7824531798069998 28.6327538495249954
 53.5533759033570504 22.7824531798069998 28.6327538495249954
 45.0975819033570531 22.7824531798069998 28.6327538495249954
 36.6417879033570415 22.7824531798069998 28.6327538495249954
 28.1859939033570512 22.7824531798069998 28.6327538495249954
 16.9116300893370450 22.7824531798069998 28.6327538495249954
 -7.0464670239705693 25.2234067682127652 28.6327538495249954
  8.4558360893370512 22.7824531798069998 28.6327538495249954
  2.8185695837512008 27.6644335859584807 28.6327538495249954
 19.7301575837512004 27.6644335859584807 28.6327538495249954
  2.8186541010559618 32.5463407627700150 28.6327538495249954
 -2.8185700849240374 32.5463407627700150 28.6327538495249954
 -11.2743640849240396 32.5463407627700150 28.6327538495249954
 57.7812728424035953 30.1053871743642461 28.6327538495249954
 49.3254788424035837 30.1053871743642461 28.6327538495249954
 46.5069090283835891 30.1053871743642461 28.6327538495249954
 40.8696848424035863 30.1053871743642461 28.6327538495249954
 32.4138908424035748 30.1053871743642461 28.6327538495249954
 26.7766666564235685 30.1053871743642461 28.6327538495249954
 11.2743635837511977 27.6644335859584807 28.6327538495249954
 18.3208726564235782 30.1053871743642461 28.6327538495249954
 -12.6836489716164174 30.1053871743642461 28.6327538495249954
 -15.5023033435764184 30.1053871743642461 28.6327538495249954
 67.6463517697312113 27.6644335859584807 28.6327538495249954
 62.0091275837512086 27.6644335859584807 28.6327538495249954
 47.9161939557112078 27.6644335859584807 28.6327538495249954
 33.8231757697311934 27.6644335859584807 28.6327538495249954
 31.0046059557112059 27.6644335859584807 28.6327538495249954
 28.1859515837511907 27.6644335859584807 28.6327538495249954
 25.3673817697312032 27.6644335859584807 28.6327538495249954
  4.2279390283835818 30.1053871743642461 28.6327538495249954
 42.2789694040103896 71.6020375533019688 28.6327538495249954
