 H  O 
 1.0000000000000000
    84.5579400000000021    0.0000000000000000    0.0000000000000000
   -42.2789706095346958   73.2293399455724767    0.0000000000000000
     0.0000000000000000    0.0000000000000000   46.9039550000000034
 H   O  
 252 334
Cartesian
 -0.0000000135450799  1.6273023922705114 28.1128704123049964
 14.0929332894093395 40.6829991828024689 28.1128704123049964
  8.4557936613693432 40.6829991828024689 28.1128704123049964
 -2.8186547105906588 40.6829991828024689 28.1128704123049964
 -14.0930185246106596 40.6829991828024689 28.1128704123049964
 -22.5488125246106605 40.6829991828024689 28.1128704123049964
 57.7812304957075682 38.2419723650567462 28.1128704123049964
 43.6882968676675674 38.2419723650567462 28.1128704123049964
 38.0510726816875717 38.2419723650567462 28.1128704123049964
 19.7301574753893405 40.6829991828024689 28.1128704123049964
 29.5952786816875744 38.2419723650567462 28.1128704123049964
 21.1394846816875770 38.2419723650567462 28.1128704123049964
  1.4093268676675752 38.2419723650567462 28.1128704123049964
 -1.4093275042924258 38.2419723650567462 28.1128704123049964
 -12.6836913183124267 38.2419723650567462 28.1128704123049964
 -15.5022611323324266 38.2419723650567462 28.1128704123049964
 59.1905154230351869 35.8010187766509844 28.1128704123049964
 56.3719456090151922 35.8010187766509844 28.1128704123049964
 50.7347214230351895 35.8010187766509844 28.1128704123049964
 23.9580544957075787 38.2419723650567462 28.1128704123049964
 25.3673394230351938 35.8010187766509844 28.1128704123049964
 25.3673816613693432 40.6829991828024689 28.1128704123049964
 32.4138907340417219 43.1239527712082307 28.1128704123049964
 -1.4093275855641247 48.0059331773597151 28.1128704123049964
 -7.0465517715441273 48.0059331773597151 28.1128704123049964
 -12.6836913995841307 48.0059331773597151 28.1128704123049964
 -15.5023457715441282 48.0059331773597151 28.1128704123049964
 -23.9581397715441291 48.0059331773597151 28.1128704123049964
 53.5533334347540944 45.5649063596139996 28.1128704123049964
 50.7347636207340997 45.5649063596139996 28.1128704123049964
 45.0975394347540970 45.5649063596139996 28.1128704123049964
 59.1905576613693398 40.6829991828024689 28.1128704123049964
 36.6417454347540925 45.5649063596139996 28.1128704123049964
 22.5488118067141059 45.5649063596139996 28.1128704123049964
 19.7301574347541049 45.5649063596139996 28.1128704123049964
 14.0930178067140996 45.5649063596139996 28.1128704123049964
  8.4557936207341040 45.5649063596139996 28.1128704123049964
  2.8185694347540982 45.5649063596139996 28.1128704123049964
 57.7812727340417212 43.1239527712082307 28.1128704123049964
 49.3254787340417238 43.1239527712082307 28.1128704123049964
 40.8696847340417122 43.1239527712082307 28.1128704123049964
 28.1859514347540951 45.5649063596139996 28.1128704123049964
  4.2278966004158747 48.0059331773597151 28.1128704123049964
 16.9115454230351894 35.8010187766509844 28.1128704123049964
  5.6371816090151947 35.8010187766509844 28.1128704123049964
 52.1440486699686616 28.4780847820937346 28.1128704123049964
 32.4138908559486651 28.4780847820937346 28.1128704123049964
 21.1394424839886597 28.4780847820937346 28.1128704123049964
 15.5023028559486651 28.4780847820937346 28.1128704123049964
 -7.0465093300313377 28.4780847820937346 28.1128704123049964
 47.9161094113162704 26.0371311936879657 28.1128704123049964
 42.2789697832762812 26.0371311936879657 28.1128704123049964
 25.3673817832762829 26.0371311936879657 28.1128704123049964
 57.7812728559486644 28.4780847820937346 28.1128704123049964
 22.5487274113162819 26.0371311936879657 28.1128704123049964
 -2.8186545886837178 26.0371311936879657 28.1128704123049964
 -11.2744485886837182 26.0371311936879657 28.1128704123049964
 66.2370246176145088 23.5961043759422537 28.1128704123049964
 63.4184548035945070 23.5961043759422537 28.1128704123049964
 54.9626608035945097 23.5961043759422537 28.1128704123049964
 43.6882969895745106 23.5961043759422537 28.1128704123049964
 35.2325029895745132 23.5961043759422537 28.1128704123049964
 21.1394848035945166 23.5961043759422537 28.1128704123049964
  8.4557937832762846 26.0371311936879657 28.1128704123049964
 11.2744057949951930 35.8010187766509844 28.1128704123049964
 66.2370668559486688 28.4780847820937346 28.1128704123049964
 11.2743635566610401 30.9190383704995000 28.1128704123049964
 -11.2744063909848098 35.8010187766509844 28.1128704123049964
 -14.0929762050048097 35.8010187766509844 28.1128704123049964
 -16.9116305769648072 35.8010187766509844 28.1128704123049964
 46.5068667223228047 33.3600651882452155 28.1128704123049964
 40.8696425363428091 33.3600651882452155 28.1128704123049964
 32.4138485363428117 33.3600651882452155 28.1128704123049964
 12.6836907223228135 33.3600651882452155 28.1128704123049964
  9.8650363503628089 33.3600651882452155 28.1128704123049964
  2.8185695566610427 30.9190383704995000 28.1128704123049964
 -4.2278972776771910 33.3600651882452155 28.1128704123049964
 -12.6836912776771893 33.3600651882452155 28.1128704123049964
 62.0091275566610349 30.9190383704995000 28.1128704123049964
 53.5533335566610376 30.9190383704995000 28.1128704123049964
 47.9161939286210341 30.9190383704995000 28.1128704123049964
 36.6417455566610357 30.9190383704995000 28.1128704123049964
 33.8231757426410411 30.9190383704995000 28.1128704123049964
 31.0046059286210465 30.9190383704995000 28.1128704123049964
 22.5488119286210420 30.9190383704995000 28.1128704123049964
 -9.8651214636571893 33.3600651882452155 28.1128704123049964
 23.9580544144358711 48.0059331773597151 28.1128704123049964
 26.7766242284558658 48.0059331773597151 28.1128704123049964
 43.6882122284558676 48.0059331773597151 28.1128704123049964
 -28.1860369544045355 69.9747351610314468 28.1128704123049964
 -39.4604007684245346 69.9747351610314468 28.1128704123049964
  1.4093266238536943 67.5337083432857384 28.1128704123049964
 -9.8651217481063078 67.5337083432857384 28.1128704123049964
 -32.4138493761463025 67.5337083432857384 28.1128704123049964
 45.0975815511813138 65.0927547548799765 28.1128704123049964
 36.6417875511813165 65.0927547548799765 28.1128704123049964
 28.1859935511813049 65.0927547548799765 28.1128704123049964
 -22.5488127684245363 69.9747351610314468 28.1128704123049964
 22.5487693652013093 65.0927547548799765 28.1128704123049964
 -16.9116308207786865 65.0927547548799765 28.1128704123049964
 -25.3674248207786874 65.0927547548799765 28.1128704123049964
 32.4138482925289324 62.6518011664742076 28.1128704123049964
  9.8650361065489385 62.6518011664742076 28.1128704123049964
 -12.6836915214910633 62.6518011664742076 28.1128704123049964
 -23.9581398934510652 62.6518011664742076 28.1128704123049964
 -26.7767097074710669 62.6518011664742076 28.1128704123049964
 -35.2325037074710679 62.6518011664742076 28.1128704123049964
 -0.0000428207786890 65.0927547548799765 28.1128704123049964
 36.6417453128471564 60.2107743487284921 28.1128704123049964
 -16.9115885824445336 69.9747351610314468 28.1128704123049964
 -2.8186549544045376 69.9747351610314468 28.1128704123049964
 35.2324603042478444 72.4156887494372228 28.1128704123049964
 29.5952361182678381 72.4156887494372228 28.1128704123049964
 23.9580964902278346 72.4156887494372228 28.1128704123049964
 21.1394421182678336 72.4156887494372228 28.1128704123049964
 12.6836481182678362 72.4156887494372228 28.1128704123049964
  9.8650783042478416 72.4156887494372228 28.1128704123049964
  1.4092843042478451 72.4156887494372228 28.1128704123049964
 -4.2279398817321576 72.4156887494372228 28.1128704123049964
 -14.0930187684245301 69.9747351610314468 28.1128704123049964
 -9.8650795097721549 72.4156887494372228 28.1128704123049964
 -15.5023036957521541 72.4156887494372228 28.1128704123049964
 -32.4138916957521559 72.4156887494372228 28.1128704123049964
 -35.2324615097721576 72.4156887494372228 28.1128704123049964
 19.7301572315754683 69.9747351610314468 28.1128704123049964
 14.0929330455954638 69.9747351610314468 28.1128704123049964
 11.2743632315754621 69.9747351610314468 28.1128704123049964
  2.8185692315754580 69.9747351610314468 28.1128704123049964
 -0.0000005824445366 69.9747351610314468 28.1128704123049964
 -12.6837338817321594 72.4156887494372228 28.1128704123049964
 28.1859513128471555 60.2107743487284921 28.1128704123049964
 22.5488116848071662 60.2107743487284921 28.1128704123049964
 19.7301573128471581 60.2107743487284921 28.1128704123049964
 32.4138483738006258 52.8878403541712458 28.1128704123049964
 26.7767087457606330 52.8878403541712458 28.1128704123049964
 15.5022603738006346 52.8878403541712458 28.1128704123049964
 12.6836905597806329 52.8878403541712458 28.1128704123049964
 -21.1394854402193673 52.8878403541712458 28.1128704123049964
 -23.9580552542393690 52.8878403541712458 28.1128704123049964
 50.7347213011282463 50.4468867657654769 28.1128704123049964
 31.0045634871082498 50.4468867657654769 28.1128704123049964
 40.8696423738006303 52.8878403541712458 28.1128704123049964
 28.1859936730882552 50.4468867657654769 28.1128704123049964
 14.0929754871082551 50.4468867657654769 28.1128704123049964
  2.8186116730882564 50.4468867657654769 28.1128704123049964
 -5.6371823269117440 50.4468867657654769 28.1128704123049964
 -8.4558366988717459 50.4468867657654769 28.1128704123049964
 -19.7302005128917450 50.4468867657654769 28.1128704123049964
 -22.5487703269117468 50.4468867657654769 28.1128704123049964
 49.3254364144358703 48.0059331773597151 28.1128704123049964
 46.5068666004158757 48.0059331773597151 28.1128704123049964
 25.3673393011282471 50.4468867657654769 28.1128704123049964
 -28.1860368324975958 55.3288671719169614 28.1128704123049964
 -14.0930186465175975 55.3288671719169614 28.1128704123049964
  8.4557935394624035 55.3288671719169614 28.1128704123049964
 14.0930176848071671 60.2107743487284921 28.1128704123049964
  5.6372236848071626 60.2107743487284921 28.1128704123049964
  2.8185693128471621 60.2107743487284921 28.1128704123049964
 -5.6372246871528393 60.2107743487284921 28.1128704123049964
 -8.4557945011728339 60.2107743487284921 28.1128704123049964
 -19.7301583151928384 60.2107743487284921 28.1128704123049964
 -25.3673825011728376 60.2107743487284921 28.1128704123049964
 40.8696846121347903 57.7698207603227232 28.1128704123049964
 21.1394422401747804 57.7698207603227232 28.1128704123049964
  7.0465086121347857 57.7698207603227232 28.1128704123049964
  4.2278542401747847 57.7698207603227232 28.1128704123049964
  1.4092844261547897 57.7698207603227232 28.1128704123049964
 -4.2279397598252162 57.7698207603227232 28.1128704123049964
 -7.0465095738452108 57.7698207603227232 28.1128704123049964
 -9.8650793878652134 57.7698207603227232 28.1128704123049964
 -32.4138915738452127 57.7698207603227232 28.1128704123049964
 45.0975393534824036 55.3288671719169614 28.1128704123049964
 36.6417453534824062 55.3288671719169614 28.1128704123049964
 19.7301573534824009 55.3288671719169614 28.1128704123049964
 12.6836908035945140 23.5961043759422537 28.1128704123049964
  1.4093269895745080 23.5961043759422537 28.1128704123049964
 38.0510301182678390 72.4156887494372228 28.1128704123049964
 71.8742489255014476  8.9502363868277595 28.1128704123049964
 22.5488120505279817 16.2731703813850075 28.1128704123049964
 62.0091700388090601  6.5092827984219914 28.1128704123049964
 18.3208305941766909  4.0683292100162243 28.1128704123049964
 52.1440064722697443 18.7141971991307194 28.1128704123049964
 73.2835760505279836 16.2731703813850075 28.1128704123049964
 54.9626608442297453 18.7141971991307194 28.1128704123049964
 38.0510729255014510  8.9502363868277595 28.1128704123049964
  4.2278969661366892  4.0683292100162243 28.1128704123049964
 73.2834915332232129 11.3912632045734714 28.1128704123049964
 -5.6371820830978701 21.1551507875364884 28.1128704123049964
 70.4649217192032182 11.3912632045734714 28.1128704123049964
 56.3719458528290644  6.5092827984219914 28.1128704123049964
 -2.8186122690778692 21.1551507875364884 28.1128704123049964
 64.8276975332232155 11.3912632045734714 28.1128704123049964
 69.0556367918755996 13.8322167929792403 28.1128704123049964
 76.1021459864549144  1.6273023922705114 28.1128704123049964
 -0.0000424550578693 21.1551507875364884 28.1128704123049964
 -9.8651213417502497 18.7141971991307194 28.1128704123049964
 62.0091277192032209 11.3912632045734714 28.1128704123049964
 35.2324184722697566 18.7141971991307194 28.1128704123049964
 18.3208727918756047 13.8322167929792403 28.1128704123049964
  9.8651211114814483  8.9502363868277595 28.1128704123049964
 -1.4093273417502492 18.7141971991307194 28.1128704123049964
 46.5068246058955950 13.8322167929792403 28.1128704123049964
  7.0464666582497495 18.7141971991307194 28.1128704123049964
 54.9626609661366956  4.0683292100162243 28.1128704123049964
 -1.4093272604785494  8.9502363868277595 28.1128704123049964
  9.8650364722697521 18.7141971991307194 28.1128704123049964
 43.6882547918756003 13.8322167929792403 28.1128704123049964
 -7.0465515277302488 18.7141971991307194 28.1128704123049964
 12.6836909255014501  8.9502363868277595 28.1128704123049964
 43.6882125941766972  4.0683292100162243 28.1128704123049964
 12.6836908442297531 18.7141971991307194 28.1128704123049964
 26.7766667918756056 13.8322167929792403 28.1128704123049964
 -4.2278970744985491  8.9502363868277595 28.1128704123049964
 60.5998427918756022 13.8322167929792403 28.1128704123049964
 23.9580546582497540 18.7141971991307194 28.1128704123049964
 23.9580969778556039 13.8322167929792403 28.1128704123049964
 32.4138487395214483  8.9502363868277595 28.1128704123049964
 73.2835761724349197  1.6273023922705114 28.1128704123049964
 -4.2278971557702505 18.7141971991307194 28.1128704123049964
 19.7301576785679771 16.2731703813850075 28.1128704123049964
 33.8231759051832199 11.3912632045734714 28.1128704123049964
 39.4603577309221265 21.1551507875364884 28.1128704123049964
 -0.0000000948167802 11.3912632045734714 28.1128704123049964
 42.2789699051832244 11.3912632045734714 28.1128704123049964
 33.8231336668490670  6.5092827984219914 28.1128704123049964
 33.8231759864549275  1.6273023922705114 28.1128704123049964
  8.4557516668490695  6.5092827984219914 28.1128704123049964
  2.8186119169021282 21.1551507875364884 28.1128704123049964
 42.2789698645479817 16.2731703813850075 28.1128704123049964
 28.1859518004749177  1.6273023922705114 28.1128704123049964
 33.8231335449421309 21.1551507875364884 28.1128704123049964
 45.0975397192032190 11.3912632045734714 28.1128704123049964
 64.8277397309221328 21.1551507875364884 28.1128704123049964
 31.0045215332232189 11.3912632045734714 28.1128704123049964
 33.8231758645479843 16.2731703813850075 28.1128704123049964
 31.0045637309221327 21.1551507875364884 28.1128704123049964
 50.7347216668490617  6.5092827984219914 28.1128704123049964
 64.8277821724349081  1.6273023922705114 28.1128704123049964
  8.4557515449421317 21.1551507875364884 28.1128704123049964
 19.7302000388090732  6.5092827984219914 28.1128704123049964
 71.8742489661366903  4.0683292100162243 28.1128704123049964
 53.5533336785679737 16.2731703813850075 28.1128704123049964
 -0.0000423331509293  6.5092827984219914 28.1128704123049964
 56.3719035332232110 11.3912632045734714 28.1128704123049964
 11.2743638004749194  1.6273023922705114 28.1128704123049964
 16.9115879864549186  1.6273023922705114 28.1128704123049964
 -5.6372243214320203 16.2731703813850075 28.1128704123049964
 67.6463095449421274 21.1551507875364884 28.1128704123049964
 11.2744059169021327 21.1551507875364884 28.1128704123049964
 22.5487275332232180 11.3912632045734714 28.1128704123049964
 50.7347639864549222  1.6273023922705114 28.1128704123049964
 31.0046061724349222  1.6273023922705114 28.1128704123049964
 -4.2278552154303037 59.3971231525932382 28.6327538495249954
  0.0000422112439907  8.1365851906925037 28.6327538495249954
  1.4092844126096999 59.3971231525932382 28.6327538495249954
 -32.4138915873902960 59.3971231525932382 28.6327538495249954
  2.8185693399373224 56.9561695641874692 28.6327538495249954
 71.8742489525916284  5.6956316022867357 28.6327538495249954
 -7.0465095873903012 59.3971231525932382 28.6327538495249954
 19.7301573399373318 56.9561695641874692 28.6327538495249954
 43.6882971385716132  5.6956316022867357 28.6327538495249954
 -9.8650794014102949 59.3971231525932382 28.6327538495249954
 22.5488117118973186 56.9561695641874692 28.6327538495249954
 -21.1394432154303011 59.3971231525932382 28.6327538495249954
 36.6417453399373301 56.9561695641874692 28.6327538495249954
 39.4603997118973240 56.9561695641874692 28.6327538495249954
 50.7347635259173302 56.9561695641874692 28.6327538495249954
 -8.4557944740826727 56.9561695641874692 28.6327538495249954
 54.9626609525916123  5.6956316022867357 28.6327538495249954
 -2.8186121607160102  8.1365851906925037 28.6327538495249954
  2.8186119033570516 22.7824531798069998 28.6327538495249954
 -23.9580552677844487 54.5151427464417537 28.6327538495249954
 46.5068665462355568 54.5151427464417537 28.6327538495249954
 -8.4557521544768282 52.0741891580359919 28.6327538495249954
 -19.7302005264368283 52.0741891580359919 28.6327538495249954
 78.9207580252639929  8.1365851906925037 28.6327538495249954
 -22.5487703404568300 52.0741891580359919 28.6327538495249954
 -4.2278970880436288 10.5775387790982709 28.6327538495249954
 -25.3673401544768282 52.0741891580359919 28.6327538495249954
 52.1440907728507952 49.6332355696302230 28.6327538495249954
 -5.6371823404568273 52.0741891580359919 28.6327538495249954
 -1.4092427160836287 10.5775387790982709 28.6327538495249954
 46.5068665868708067 49.6332355696302230 28.6327538495249954
 40.8696424008908039 49.6332355696302230 28.6327538495249954
 29.5952785868707942 49.6332355696302230 28.6327538495249954
  1.4093270979363695 10.5775387790982709 28.6327538495249954
 26.7767087728507853 49.6332355696302230 28.6327538495249954
  9.8651210979363722 10.5775387790982709 28.6327538495249954
 23.9580544008907985 49.6332355696302230 28.6327538495249954
 49.3254364008908013 49.6332355696302230 28.6327538495249954
  8.4558362112439873  8.1365851906925037 28.6327538495249954
  2.8186116595431669 52.0741891580359919 28.6327538495249954
 14.0929754735631594 52.0741891580359919 28.6327538495249954
 11.2744060252639908  8.1365851906925037 28.6327538495249954
 38.0510725462355595 54.5151427464417537 28.6327538495249954
 35.2325027322155506 54.5151427464417537 28.6327538495249954
 21.1394845462355612 54.5151427464417537 28.6327538495249954
 14.0929758392839890  8.1365851906925037 28.6327538495249954
 15.5023449181955559 54.5151427464417537 28.6327538495249954
 16.9116302112439918  8.1365851906925037 28.6327538495249954
 11.2744056595431719 52.0741891580359919 28.6327538495249954
 -15.5022612677844460 54.5151427464417537 28.6327538495249954
 33.8232182112439972  8.1365851906925037 28.6327538495249954
 50.7348058455231694 52.0741891580359919 28.6327538495249954
 36.6417880252639918  8.1365851906925037 28.6327538495249954
 31.0045634735631737 52.0741891580359919 28.6327538495249954
 28.1859936595431719 52.0741891580359919 28.6327538495249954
 50.7348062112439848  8.1365851906925037 28.6327538495249954
 62.0091700252639910  8.1365851906925037 28.6327538495249954
 -26.7766250818044469 54.5151427464417537 28.6327538495249954
 23.9580547666116068  5.6956316022867357 28.6327538495249954
 -14.0929341427579153 61.8380767409990000 28.6327538495249954
 21.1394849525916122  5.6956316022867357 28.6327538495249954
 63.4184972721974631  0.8136511961352557 28.6327538495249954
  1.4093266103086164 69.1610107355562462 28.6327538495249954
 71.8742912721974676  0.8136511961352557 28.6327538495249954
 74.6928610862174764  0.8136511961352557 28.6327538495249954
 -23.9580553896913813 69.1610107355562462 28.6327538495249954
 77.5114309002374711  0.8136511961352557 28.6327538495249954
 -0.0000000270901599  3.2546047845410229 28.6327538495249954
 45.0975815376362448 66.7200571471504844 28.6327538495249954
 42.2790117236162359 66.7200571471504844 28.6327538495249954
 28.1859935376362323 66.7200571471504844 28.6327538495249954
 22.5487693516562366 66.7200571471504844 28.6327538495249954
  2.8186543448698407  3.2546047845410229 28.6327538495249954
  0.0000417236162395 66.7200571471504844 28.6327538495249954
 -14.0929764623637634 66.7200571471504844 28.6327538495249954
 -25.3673402763837679 66.7200571471504844 28.6327538495249954
 -31.0045644623637671 66.7200571471504844 28.6327538495249954
 -33.8231342763837688 66.7200571471504844 28.6327538495249954
 46.5068664649638706 64.2791035587447084 28.6327538495249954
 19.7302423448698399  3.2546047845410229 28.6327538495249954
 60.5998429002374621  0.8136511961352557 28.6327538495249954
 22.5488121588898416  3.2546047845410229 28.6327538495249954
 52.1440489002374647  0.8136511961352557 28.6327538495249954
 43.6882966103086261 69.1610107355562462 28.6327538495249954
  9.8650789002374601  0.8136511961352557 28.6327538495249954
 22.5488115899903860 71.6020375533019688 28.6327538495249954
 18.3208729002374611  0.8136511961352557 28.6327538495249954
 14.0930175899903762 71.6020375533019688 28.6327538495249954
 11.2743632180303894 71.6020375533019688 28.6327538495249954
 29.5953212721974559  0.8136511961352557 28.6327538495249954
  8.4557934040103735 71.6020375533019688 28.6327538495249954
 32.4138910862174541  0.8136511961352557 28.6327538495249954
 -5.6372247819696195 71.6020375533019688 28.6327538495249954
 -8.4557945959896212 71.6020375533019688 28.6327538495249954
 -11.2743644100096230 71.6020375533019688 28.6327538495249954
 35.2324609002374558  0.8136511961352557 28.6327538495249954
 -14.0930187819696204 71.6020375533019688 28.6327538495249954
 43.6882549002374461  0.8136511961352557 28.6327538495249954
 -22.5488127819696196 71.6020375533019688 28.6327538495249954
 -31.0046067819696169 71.6020375533019688 28.6327538495249954
 46.5069092721974613  0.8136511961352557 28.6327538495249954
 -33.8231765959896151 71.6020375533019688 28.6327538495249954
 49.3254790862174488  0.8136511961352557 28.6327538495249954
 21.1394844243286215 69.1610107355562462 28.6327538495249954
 35.2325026509438644 64.2791035587447084 28.6327538495249954
 32.4138482789838704 64.2791035587447084 28.6327538495249954
 29.5952784649638616 64.2791035587447084 28.6327538495249954
  2.8186538572420905 61.8380767409990000 28.6327538495249954
 -0.0000005147179177 61.8380767409990000 28.6327538495249954
 -2.8185703287379194 61.8380767409990000 28.6327538495249954
 -8.4557945147179190 61.8380767409990000 28.6327538495249954
 -11.2743643287379136 61.8380767409990000 28.6327538495249954
 70.4650063448698489  3.2546047845410229 28.6327538495249954
 15.5022604008907816 49.6332355696302230 28.6327538495249954
 -16.9115885147179164 61.8380767409990000 28.6327538495249954
 -25.3673825147179137 61.8380767409990000 28.6327538495249954
 73.2835761588898578  3.2546047845410229 28.6327538495249954
 -33.8231765147179146 61.8380767409990000 28.6327538495249954
 49.3254785985897115 59.3971231525932382 28.6327538495249954
 38.0511147845697053 59.3971231525932382 28.6327538495249954
  1.4093271385716108  5.6956316022867357 28.6327538495249954
 26.7766664126097069 59.3971231525932382 28.6327538495249954
  9.8651211385716078  5.6956316022867357 28.6327538495249954
 21.1395267845696964 59.3971231525932382 28.6327538495249954
 18.3209151385716105  5.6956316022867357 28.6327538495249954
  7.0465085985897025 59.3971231525932382 28.6327538495249954
  8.4557934852820722 61.8380767409990000 28.6327538495249954
 59.1905579729098434  3.2546047845410229 28.6327538495249954
 11.2744478572420874 61.8380767409990000 28.6327538495249954
 14.0930176712620749 61.8380767409990000 28.6327538495249954
 31.0046061588898354  3.2546047845410229 28.6327538495249954
 26.7767086509438528 64.2791035587447084 28.6327538495249954
 33.8231759729098371  3.2546047845410229 28.6327538495249954
 21.1394844649638500 64.2791035587447084 28.6327538495249954
 12.6836904649638509 64.2791035587447084 28.6327538495249954
  1.4093266509438596 64.2791035587447084 28.6327538495249954
 -12.6836915350361448 64.2791035587447084 28.6327538495249954
 -15.5022613490561429 64.2791035587447084 28.6327538495249954
 45.0976243448698426  3.2546047845410229 28.6327538495249954
  4.2279387845697078 59.3971231525932382 28.6327538495249954
 -23.9580553490561456 64.2791035587447084 28.6327538495249954
 -35.2325037210161440 64.2791035587447084 28.6327538495249954
 47.9161936712620928 61.8380767409990000 28.6327538495249954
 45.0976238572420840 61.8380767409990000 28.6327538495249954
 36.6418298572420866 61.8380767409990000 28.6327538495249954
 33.8231754852820927 61.8380767409990000 28.6327538495249954
 56.3719881588898417  3.2546047845410229 28.6327538495249954
 31.0046056712620839 61.8380767409990000 28.6327538495249954
 28.1860358572420893 61.8380767409990000 28.6327538495249954
 19.7302418572420777 61.8380767409990000 28.6327538495249954
 -26.7767097210161431 64.2791035587447084 28.6327538495249954
 12.6836909119563703 10.5775387790982709 28.6327538495249954
 28.1860359791490147 47.1922087518845075 28.6327538495249954
  7.0464664008907913 49.6332355696302230 28.6327538495249954
 11.2744481010559561 32.5463407627700150 28.6327538495249954
  8.4557937290959586 32.5463407627700150 28.6327538495249954
 -0.0000002709040391 32.5463407627700150 28.6327538495249954
 14.0930180369829028 17.9004727736555189 28.6327538495249954
 22.5488120369828984 17.9004727736555189 28.6327538495249954
 -11.2743640849240396 32.5463407627700150 28.6327538495249954
 -14.0929338989440378 32.5463407627700150 28.6327538495249954
 66.2370668424035927 30.1053871743642461 28.6327538495249954
 11.2744482229629011 17.9004727736555189 28.6327538495249954
 33.8231758510028868 17.9004727736555189 28.6327538495249954
 49.3254788424035837 30.1053871743642461 28.6327538495249954
 36.6418302229629020 17.9004727736555189 28.6327538495249954
 38.0511150283835775 30.1053871743642461 28.6327538495249954
 50.7347638510029029 17.9004727736555189 28.6327538495249954
 35.2324606564235907 30.1053871743642461 28.6327538495249954
 32.4138908424035748 30.1053871743642461 28.6327538495249954
 53.5534182229629039 17.9004727736555189 28.6327538495249954
 21.1395270283835863 30.1053871743642461 28.6327538495249954
 57.7812728424035953 30.1053871743642461 28.6327538495249954
 14.0930179150759578 32.5463407627700150 28.6327538495249954
 31.0046059150759525 32.5463407627700150 28.6327538495249954
 36.6418301010559517 32.5463407627700150 28.6327538495249954
 49.3254365227977445 34.9873675805157234 28.6327538495249954
 40.8696425227977400 34.9873675805157234 28.6327538495249954
 38.0510727087777383 34.9873675805157234 28.6327538495249954
 26.7767088947577392 34.9873675805157234 28.6327538495249954
 74.6928609643105261 15.4595191852497500 28.6327538495249954
 12.6836907087777320 34.9873675805157234 28.6327538495249954
  9.8651208947577302 34.9873675805157234 28.6327538495249954
  7.0464665227977319 34.9873675805157234 28.6327538495249954
 -8.4557941489970982 17.9004727736555189 28.6327538495249954
  4.2278967087777302 34.9873675805157234 28.6327538495249954
  1.4093268947577322 34.9873675805157234 28.6327538495249954
 -12.6836912912222672 34.9873675805157234 28.6327538495249954
 -5.6371397770370981 17.9004727736555189 28.6327538495249954
 -15.5022611052422672 34.9873675805157234 28.6327538495249954
 59.1905577290959641 32.5463407627700150 28.6327538495249954
 56.3719879150759695 32.5463407627700150 28.6327538495249954
 47.9161939150759579 32.5463407627700150 28.6327538495249954
 42.2789697290959623 32.5463407627700150 28.6327538495249954
 39.4603999150759606 32.5463407627700150 28.6327538495249954
 12.6837330283835765 30.1053871743642461 28.6327538495249954
 56.3719880369828985 17.9004727736555189 28.6327538495249954
 -7.0465093435764183 30.1053871743642461 28.6327538495249954
 -9.8650791575964192 30.1053871743642461 28.6327538495249954
  4.2278967900494315 25.2234067682127652 28.6327538495249954
  1.4093269760294336 25.2234067682127652 28.6327538495249954
 35.2325030166646727 20.3414995914012344 28.6327538495249954
 -9.8650368379905675 25.2234067682127652 28.6327538495249954
 38.0510728306846602 20.3414995914012344 28.6327538495249954
 -12.6836912099505668 25.2234067682127652 28.6327538495249954
 67.6463940893370506 22.7824531798069998 28.6327538495249954
 64.8277397173770566 22.7824531798069998 28.6327538495249954
 52.1440910166646745 20.3414995914012344 28.6327538495249954
 54.9626608306846691 20.3414995914012344 28.6327538495249954
 45.0975819033570531 22.7824531798069998 28.6327538495249954
 63.4184548306846807 20.3414995914012344 28.6327538495249954
 42.2790120893370442 22.7824531798069998 28.6327538495249954
 33.8232180893370540 22.7824531798069998 28.6327538495249954
 31.0045637173770388 22.7824531798069998 28.6327538495249954
 66.2370246447046753 20.3414995914012344 28.6327538495249954
 11.2744059033570529 22.7824531798069998 28.6327538495249954
  8.4558360893370512 22.7824531798069998 28.6327538495249954
  5.6371817173770493 22.7824531798069998 28.6327538495249954
 21.1394847900494298 25.2234067682127652 28.6327538495249954
 66.2370669643105288 15.4595191852497500 28.6327538495249954
 32.4138486447046574 20.3414995914012344 28.6327538495249954
 12.6836908306846716 20.3414995914012344 28.6327538495249954
 -4.2278971693153311 20.3414995914012344 28.6327538495249954
 59.1905577697312140 27.6644335859584807 28.6327538495249954
 56.3719879557112051 27.6644335859584807 28.6327538495249954
 53.5533335837512112 27.6644335859584807 28.6327538495249954
 -1.4093273552953294 20.3414995914012344 28.6327538495249954
 50.7347637697312024 27.6644335859584807 28.6327538495249954
 47.9161939557112078 27.6644335859584807 28.6327538495249954
 25.3673817697312032 27.6644335859584807 28.6327538495249954
 22.5488119557112086 27.6644335859584807 28.6327538495249954
 19.7301575837512004 27.6644335859584807 28.6327538495249954
 16.9115877697311987 27.6644335859584807 28.6327538495249954
 -5.6372244162487979 27.6644335859584807 28.6327538495249954
  9.8651210166646699 20.3414995914012344 28.6327538495249954
 -11.2743640442888005 27.6644335859584807 28.6327538495249954
 63.4184547900494380 25.2234067682127652 28.6327538495249954
 60.5998849760294434 25.2234067682127652 28.6327538495249954
 49.3255211620094371 25.2234067682127652 28.6327538495249954
 46.5068667900494361 25.2234067682127652 28.6327538495249954
 43.6882969760294344 25.2234067682127652 28.6327538495249954
 23.9581391620094379 25.2234067682127652 28.6327538495249954
 12.6836905868707941 49.6332355696302230 28.6327538495249954
 63.4184971502905270 15.4595191852497500 28.6327538495249954
 54.9627031502905297 15.4595191852497500 28.6327538495249954
 66.2371092839163680 10.5775387790982709 28.6327538495249954
 -14.0929340208509810 47.1922087518845075 28.6327538495249954
 71.8742489119563714 10.5775387790982709 28.6327538495249954
 52.1440485345166493 44.7512551634787386 28.6327538495249954
 -0.0000001083618602 13.0185655968439828 28.6327538495249954
 49.3254787204966547 44.7512551634787386 28.6327538495249954
  5.6372240776181393 13.0185655968439828 28.6327538495249954
 40.8696847204966431 44.7512551634787386 28.6327538495249954
 -11.2743642068309775 47.1922087518845075 28.6327538495249954
  8.4557938916381428 13.0185655968439828 28.6327538495249954
 32.4138907204966458 44.7512551634787386 28.6327538495249954
 22.5488120776181340 13.0185655968439828 28.6327538495249954
 15.5023027204966439 44.7512551634787386 28.6327538495249954
 25.3673818916381357 13.0185655968439828 28.6327538495249954
 12.6837329064766493 44.7512551634787386 28.6327538495249954
  7.0465087204966403 44.7512551634787386 28.6327538495249954
 42.2789698916381340 13.0185655968439828 28.6327538495249954
 59.1905576478242708 42.3103015750729767 28.6327538495249954
 35.2324605345166475 44.7512551634787386 28.6327538495249954
 63.4184549119563812 10.5775387790982709 28.6327538495249954
  2.8186539791490159 47.1922087518845075 28.6327538495249954
  8.4557936071890190 47.1922087518845075 28.6327538495249954
  4.2278965868707896 49.6332355696302230 28.6327538495249954
 -4.2278974131292042 49.6332355696302230 28.6327538495249954
 -7.0464672271492059 49.6332355696302230 28.6327538495249954
 32.4139332839163785 10.5775387790982709 28.6327538495249954
 -9.8651215991092069 49.6332355696302230 28.6327538495249954
 -21.1394854131292078 49.6332355696302230 28.6327538495249954
 -23.9580552271492060 49.6332355696302230 28.6327538495249954
 50.7347636071890307 47.1922087518845075 28.6327538495249954
 43.6882970979363634 10.5775387790982709 28.6327538495249954
 47.9161937931690360 47.1922087518845075 28.6327538495249954
 45.0976239791490272 47.1922087518845075 28.6327538495249954
 46.5068669119563793 10.5775387790982709 28.6327538495249954
 42.2789696071890333 47.1922087518845075 28.6327538495249954
 39.4603997931690245 47.1922087518845075 28.6327538495249954
 36.6418299791490298 47.1922087518845075 28.6327538495249954
  0.0000420893370479 22.7824531798069998 28.6327538495249954
 25.3673816071890279 47.1922087518845075 28.6327538495249954
 60.5998850979363723 10.5775387790982709 28.6327538495249954
 14.0930177931690217 47.1922087518845075 28.6327538495249954
 45.0975397056581500 13.0185655968439828 28.6327538495249954
 36.6417454618442662 42.3103015750729767 28.6327538495249954
 33.8231756478242644 42.3103015750729767 28.6327538495249954
 56.3719880776181483 13.0185655968439828 28.6327538495249954
 47.9161515954701187 37.4283211689214923 28.6327538495249954
 42.2790119674301152 37.4283211689214923 28.6327538495249954
 39.4603575954701142 37.4283211689214923 28.6327538495249954
 23.9580969643105171 15.4595191852497500 28.6327538495249954
 26.7766667783305188 15.4595191852497500 28.6327538495249954
 28.1859937814501045 37.4283211689214923 28.6327538495249954
 25.3674239674301170 37.4283211689214923 28.6327538495249954
 32.4138909643105251 15.4595191852497500 28.6327538495249954
 22.5487695954701017 37.4283211689214923 28.6327538495249954
 19.7301997814501142 37.4283211689214923 28.6327538495249954
  5.6371815954701097 37.4283211689214923 28.6327538495249954
  2.8186117814501150 37.4283211689214923 28.6327538495249954
  0.0000419674301133 37.4283211689214923 28.6327538495249954
 43.6882547783305313 15.4595191852497500 28.6327538495249954
 -2.8186124045298877 37.4283211689214923 28.6327538495249954
 -11.2744064045298860 37.4283211689214923 28.6327538495249954
 52.1440487783305286 15.4595191852497500 28.6327538495249954
 -14.0929762185498877 37.4283211689214923 28.6327538495249954
 36.6417452180303869 71.6020375533019688 28.6327538495249954
 56.3719455954701161 37.4283211689214923 28.6327538495249954
 57.7812305227977419 34.9873675805157234 28.6327538495249954
 21.1395271502905153 15.4595191852497500 28.6327538495249954
 -21.1394853318575109 39.8692747573272612 28.6327538495249954
 14.0930178338042680 42.3103015750729767 28.6327538495249954
 -2.8185701661957374 42.3103015750729767 28.6327538495249954
 -5.6372245381557384 42.3103015750729767 28.6327538495249954
 -8.4557943521757366 42.3103015750729767 28.6327538495249954
 -22.5488125381557367 42.3103015750729767 28.6327538495249954
 60.5998848541225001 39.8692747573272612 28.6327538495249954
 57.7813150401024913 39.8692747573272612 28.6327538495249954
 43.6882968541224912 39.8692747573272612 28.6327538495249954
 26.7767088541224823 39.8692747573272612 28.6327538495249954
 62.0091277056581518 13.0185655968439828 28.6327538495249954
 23.9581390401024947 39.8692747573272612 28.6327538495249954
 21.1394846681424795 39.8692747573272612 28.6327538495249954
 64.8277820776181386 13.0185655968439828 28.6327538495249954
 67.6463518916381474 13.0185655968439828 28.6327538495249954
  1.4093268541224926 39.8692747573272612 28.6327538495249954
 -1.4092429598975091 39.8692747573272612 28.6327538495249954
 -4.2278973318575099 39.8692747573272612 28.6327538495249954
 -7.0464671458775081 39.8692747573272612 28.6327538495249954
 18.3208727783305179 15.4595191852497500 28.6327538495249954
 59.1905999674301100 37.4283211689214923 28.6327538495249954
 -16.9115460325698876 37.4283211689214923 28.6327538495249954
