 H  O 
 1.0000000000000000
    84.5579400000000021    0.0000000000000000    0.0000000000000000
   -42.2789706095346958   73.2293399455724767    0.0000000000000000
     0.0000000000000000    0.0000000000000000   46.9039550000000034
 H   O  
 192 268
Cartesian
 18.3209148676675753 38.2419723650567462 28.1128704123049964
 35.2324606699686598 28.4780847820937346 28.1128704123049964
 43.6882546699686571 28.4780847820937346 28.1128704123049964
 49.3254788559486528 28.4780847820937346 28.1128704123049964
 52.1440486699686616 28.4780847820937346 28.1128704123049964
 -23.9580975738452153 57.7698207603227232 28.1128704123049964
 -16.9115882573589573 30.9190383704995000 28.1128704123049964
 -11.2743640713789581 30.9190383704995000 28.1128704123049964
 -8.4557942573589582 30.9190383704995000 28.1128704123049964
 -2.8185700713789608 30.9190383704995000 28.1128704123049964
 36.6417453534824062 55.3288671719169614 28.1128704123049964
 19.7301575566610410 30.9190383704995000 28.1128704123049964
 22.5488119286210420 30.9190383704995000 28.1128704123049964
 31.0045211675023928 55.3288671719169614 28.1128704123049964
 19.7301573534824009 55.3288671719169614 28.1128704123049964
  5.6371391675024016 55.3288671719169614 28.1128704123049964
 -2.8186548324975988 55.3288671719169614 28.1128704123049964
 -11.2744488324975958 55.3288671719169614 28.1128704123049964
 -18.3209154636571903 33.3600651882452155 28.1128704123049964
 -12.6836912776771893 33.3600651882452155 28.1128704123049964
 -22.5488126465175966 55.3288671719169614 28.1128704123049964
  1.4092423503628120 33.3600651882452155 28.1128704123049964
  9.8650363503628089 33.3600651882452155 28.1128704123049964
 15.5022605363428152 33.3600651882452155 28.1128704123049964
 46.5068665597806330 52.8878403541712458 28.1128704123049964
 -16.9116305769648072 35.8010187766509844 28.1128704123049964
 -21.1395277598252136 57.7698207603227232 28.1128704123049964
 -12.6837337598252144 57.7698207603227232 28.1128704123049964
 12.6836484839886605 28.4780847820937346 28.1128704123049964
  1.4092846699686612 28.4780847820937346 28.1128704123049964
  2.8186119169021282 21.1551507875364884 28.1128704123049964
 -32.4139338934510661 62.6518011664742076 28.1128704123049964
 11.2744059169021327 21.1551507875364884 28.1128704123049964
 47.9161936848071619 60.2107743487284921 28.1128704123049964
 28.1859513128471555 60.2107743487284921 28.1128704123049964
 25.3673814988271609 60.2107743487284921 28.1128704123049964
 53.5533759169021195 21.1551507875364884 28.1128704123049964
 -12.6836911964054888 23.5961043759422537 28.1128704123049964
 11.2743633128471661 60.2107743487284921 28.1128704123049964
 18.3209149895745149 23.5961043759422537 28.1128704123049964
 23.9580546176145113 23.5961043759422537 28.1128704123049964
 32.4138486176145122 23.5961043759422537 28.1128704123049964
 -14.0929762050048097 35.8010187766509844 28.1128704123049964
 -12.6836913995841307 48.0059331773597151 28.1128704123049964
 60.5998849895745124 23.5961043759422537 28.1128704123049964
 -14.0930184027037182 26.0371311936879657 28.1128704123049964
 -33.8231765011728385 60.2107743487284921 28.1128704123049964
 46.5068242401747796 57.7698207603227232 28.1128704123049964
  8.4557937832762846 26.0371311936879657 28.1128704123049964
 38.0510302401747822 57.7698207603227232 28.1128704123049964
 16.9115877832762855 26.0371311936879657 28.1128704123049964
 35.2324604261547876 57.7698207603227232 28.1128704123049964
 29.5952362401747777 57.7698207603227232 28.1128704123049964
 23.9580966121347885 57.7698207603227232 28.1128704123049964
 53.5533335972962803 26.0371311936879657 28.1128704123049964
 -9.8650791440513395 28.4780847820937346 28.1128704123049964
 49.3254366176144998 23.5961043759422537 28.1128704123049964
 -11.2744063909848098 35.8010187766509844 28.1128704123049964
 -5.6371822050048115 35.8010187766509844 28.1128704123049964
 -2.8186123909848098 35.8010187766509844 28.1128704123049964
 -8.4558366988717459 50.4468867657654769 28.1128704123049964
 -23.9580974519382757 43.1239527712082307 28.1128704123049964
 -12.6837336379182783 43.1239527712082307 28.1128704123049964
  9.8650785480617262 43.1239527712082307 28.1128704123049964
 -25.3674246988717442 50.4468867657654769 28.1128704123049964
 35.2324605480617166 43.1239527712082307 28.1128704123049964
 38.0510303620817112 43.1239527712082307 28.1128704123049964
 49.3254787340417238 43.1239527712082307 28.1128704123049964
 52.1440485480617184 43.1239527712082307 28.1128704123049964
 52.1440062284558650 48.0059331773597151 28.1128704123049964
 40.8696424144358730 48.0059331773597151 28.1128704123049964
 35.2324182284558631 48.0059331773597151 28.1128704123049964
 36.6417454753893352 40.6829991828024689 28.1128704123049964
 -5.6372245652458988 45.5649063596139996 28.1128704123049964
 15.5022604144358738 48.0059331773597151 28.1128704123049964
  8.4557936207341040 45.5649063596139996 28.1128704123049964
 11.2743634347540986 45.5649063596139996 28.1128704123049964
 12.6836906004158720 48.0059331773597151 28.1128704123049964
  9.8650362284558710 48.0059331773597151 28.1128704123049964
 25.3673816207341005 45.5649063596139996 28.1128704123049964
  7.0464664144358764 48.0059331773597151 28.1128704123049964
 33.8231756207340979 45.5649063596139996 28.1128704123049964
 36.6417454347540925 45.5649063596139996 28.1128704123049964
 39.4603998067140935 45.5649063596139996 28.1128704123049964
 45.0975394347540970 45.5649063596139996 28.1128704123049964
 -4.2278973995841262 48.0059331773597151 28.1128704123049964
 29.5952786004158739 48.0059331773597151 28.1128704123049964
 -2.8186122690778692 21.1551507875364884 28.1128704123049964
  5.6371814871082586 50.4468867657654769 28.1128704123049964
  8.4557513011282524 50.4468867657654769 28.1128704123049964
 29.5952785597806276 52.8878403541712458 28.1128704123049964
 14.0929756090151947 35.8010187766509844 28.1128704123049964
 23.9580543738006249 52.8878403541712458 28.1128704123049964
 22.5487696090151921 35.8010187766509844 28.1128704123049964
 28.1859937949951949 35.8010187766509844 28.1128704123049964
 33.8231334230351877 35.8010187766509844 28.1128704123049964
 18.3209147457606356 52.8878403541712458 28.1128704123049964
 39.4603576090151904 35.8010187766509844 28.1128704123049964
 15.5022603738006346 52.8878403541712458 28.1128704123049964
 -9.8651216261993682 52.8878403541712458 28.1128704123049964
 56.3719456090151922 35.8010187766509844 28.1128704123049964
 -21.1394853183124276 38.2419723650567462 28.1128704123049964
 19.7301574753893405 40.6829991828024689 28.1128704123049964
 -1.4093275042924258 38.2419723650567462 28.1128704123049964
 50.7347213011282463 50.4468867657654769 28.1128704123049964
 42.2789273011282489 50.4468867657654769 28.1128704123049964
 36.6417876730882455 50.4468867657654769 28.1128704123049964
 33.8231333011282445 50.4468867657654769 28.1128704123049964
 40.8696424957075664 38.2419723650567462 28.1128704123049964
 54.9626606816875736 38.2419723650567462 28.1128704123049964
 22.5487694871082525 50.4468867657654769 28.1128704123049964
 -16.9115883386306614 40.6829991828024689 28.1128704123049964
 -8.4557943386306622 40.6829991828024689 28.1128704123049964
 14.0929754871082551 50.4468867657654769 28.1128704123049964
 11.2744056730882534 50.4468867657654769 28.1128704123049964
 11.2743634753893449 40.6829991828024689 28.1128704123049964
 53.5533756730882544 50.4468867657654769 28.1128704123049964
 -5.6371820830978701 21.1551507875364884 28.1128704123049964
 -25.3673825011728376 60.2107743487284921 28.1128704123049964
 63.4184548442297569 18.7141971991307194 28.1128704123049964
 40.8696427395214528  8.9502363868277595 28.1128704123049964
 46.5068669255014484  8.9502363868277595 28.1128704123049964
 57.7812307395214404  8.9502363868277595 28.1128704123049964
 66.2370247395214449  8.9502363868277595 28.1128704123049964
 26.7767086238536862 67.5337083432857384 28.1128704123049964
 74.6928187395214422  8.9502363868277595 28.1128704123049964
 77.5114731114814504  8.9502363868277595 28.1128704123049964
 -2.8186544667767790 11.3912632045734714 28.1128704123049964
  9.8651206238536986 67.5337083432857384 28.1128704123049964
  4.2278964378736958 67.5337083432857384 28.1128704123049964
 -29.5952795214910651 62.6518011664742076 28.1128704123049964
 31.0045215332232189 11.3912632045734714 28.1128704123049964
 33.8231759051832199 11.3912632045734714 28.1128704123049964
 -35.2325037481063035 67.5337083432857384 28.1128704123049964
 53.5533337192032164 11.3912632045734714 28.1128704123049964
 64.8276975332232155 11.3912632045734714 28.1128704123049964
 73.2834915332232129 11.3912632045734714 28.1128704123049964
 76.1021459051832210 11.3912632045734714 28.1128704123049964
 45.0975815511813138 65.0927547548799765 28.1128704123049964
 21.1394426058955993 13.8322167929792403 28.1128704123049964
 26.7766667918756056 13.8322167929792403 28.1128704123049964
 23.9580547395214474  8.9502363868277595 28.1128704123049964
 46.5068246058955950 13.8322167929792403 28.1128704123049964
 -28.1860369544045355 69.9747351610314468 28.1128704123049964
 -16.9115885824445336 69.9747351610314468 28.1128704123049964
 14.0930181724349168  1.6273023922705114 28.1128704123049964
 19.7301578004749203  1.6273023922705114 28.1128704123049964
 23.9580964902278346 72.4156887494372228 28.1128704123049964
 42.2789699864549249  1.6273023922705114 28.1128704123049964
  9.8650783042478416 72.4156887494372228 28.1128704123049964
 62.0091278004749142  1.6273023922705114 28.1128704123049964
 70.4649218004749116  1.6273023922705114 28.1128704123049964
 78.9207158004749090  1.6273023922705114 28.1128704123049964
 -18.3208735097721558 72.4156887494372228 28.1128704123049964
 35.2324185941766927  4.0683292100162243 28.1128704123049964
 -29.5953218817321577 72.4156887494372228 28.1128704123049964
 -35.2324615097721576 72.4156887494372228 28.1128704123049964
 63.4184549661366859  4.0683292100162243 28.1128704123049964
 -38.0511158817321586 72.4156887494372228 28.1128704123049964
 42.2789694175554729 69.9747351610314468 28.1128704123049964
 19.7302000388090732  6.5092827984219914 28.1128704123049964
 28.1859940388090742  6.5092827984219914 28.1128704123049964
 36.6417880388090680  6.5092827984219914 28.1128704123049964
 -2.8186549544045376 69.9747351610314468 28.1128704123049964
 53.5533760388090698  6.5092827984219914 28.1128704123049964
 59.1905156668490591  6.5092827984219914 28.1128704123049964
  1.4093271114814494  8.9502363868277595 28.1128704123049964
 22.5487693652013093 65.0927547548799765 28.1128704123049964
 -18.3209155855641299 48.0059331773597151 28.1128704123049964
 23.9580542925289315 62.6518011664742076 28.1128704123049964
  1.4092424722697507 18.7141971991307194 28.1128704123049964
 -9.8651213417502497 18.7141971991307194 28.1128704123049964
  4.2278968442297478 18.7141971991307194 28.1128704123049964
 32.4138482925289324 62.6518011664742076 28.1128704123049964
 70.4649216785679755 16.2731703813850075 28.1128704123049964
 64.8277820505279863 16.2731703813850075 28.1128704123049964
 35.2324181065489270 62.6518011664742076 28.1128704123049964
 53.5533336785679737 16.2731703813850075 28.1128704123049964
 45.0975396785679763 16.2731703813850075 28.1128704123049964
 39.4604000505279870 16.2731703813850075 28.1128704123049964
 36.6417456785679860 16.2731703813850075 28.1128704123049964
 40.8696422925289298 62.6518011664742076 28.1128704123049964
 -31.0045644488186873 65.0927547548799765 28.1128704123049964
  1.4092421065489333 62.6518011664742076 28.1128704123049964
 29.5952784785089271 62.6518011664742076 28.1128704123049964
 -22.5487704488186900 65.0927547548799765 28.1128704123049964
 -18.3209157074710660 62.6518011664742076 28.1128704123049964
 54.9626608442297453 18.7141971991307194 28.1128704123049964
 49.3254366582497497 18.7141971991307194 28.1128704123049964
 -2.8185699494720202 16.2731703813850075 28.1128704123049964
 -14.0929764488186855 65.0927547548799765 28.1128704123049964
 -8.4558368207786891 65.0927547548799765 28.1128704123049964
 19.7301572180303850 71.6020375533019688 28.6327538495249954
 29.5952784243286260 69.1610107355562462 28.6327538495249954
 -16.9115885147179164 61.8380767409990000 28.6327538495249954
 18.3209146103086198 69.1610107355562462 28.6327538495249954
 -1.4093275991092098 49.6332355696302230 28.6327538495249954
  1.4093267728507877 49.6332355696302230 28.6327538495249954
 15.5023447962886092 69.1610107355562462 28.6327538495249954
 -11.2743643287379136 61.8380767409990000 28.6327538495249954
 35.2325026103086287 69.1610107355562462 28.6327538495249954
 12.6836904243286224 69.1610107355562462 28.6327538495249954
 -1.4092854014103018 59.3971231525932382 28.6327538495249954
  7.0465507962886189 69.1610107355562462 28.6327538495249954
  2.8186539791490159 47.1922087518845075 28.6327538495249954
 18.3209147728507951 49.6332355696302230 28.6327538495249954
  1.4093266103086164 69.1610107355562462 28.6327538495249954
 21.1394845868707826 49.6332355696302230 28.6327538495249954
  4.2279387845697078 59.3971231525932382 28.6327538495249954
 28.1859512180303895 71.6020375533019688 28.6327538495249954
 38.0510724243286234 69.1610107355562462 28.6327538495249954
 -15.5022612271492086 49.6332355696302230 28.6327538495249954
 -8.4557945959896212 71.6020375533019688 28.6327538495249954
 16.9115876071890092 47.1922087518845075 28.6327538495249954
 -2.8185703287379194 61.8380767409990000 28.6327538495249954
 -11.2743644100096230 71.6020375533019688 28.6327538495249954
 21.1395267845696964 59.3971231525932382 28.6327538495249954
 36.6418299791490298 47.1922087518845075 28.6327538495249954
 -22.5488127819696196 71.6020375533019688 28.6327538495249954
 47.9161937931690360 47.1922087518845075 28.6327538495249954
 32.4138905985897026 59.3971231525932382 28.6327538495249954
 16.9115874040103833 71.6020375533019688 28.6327538495249954
 -25.3673825959896213 71.6020375533019688 28.6327538495249954
 15.5023025985896936 59.3971231525932382 28.6327538495249954
 16.9115874852820909 61.8380767409990000 28.6327538495249954
 56.3719877931690334 47.1922087518845075 28.6327538495249954
 -7.0465095873903012 59.3971231525932382 28.6327538495249954
 -21.1394854131292078 49.6332355696302230 28.6327538495249954
  9.8650784126096909 59.3971231525932382 28.6327538495249954
  2.8185692180303707 71.6020375533019688 28.6327538495249954
 38.0511147845697053 59.3971231525932382 28.6327538495249954
 -18.3209155991092061 49.6332355696302230 28.6327538495249954
 18.3208724126097096 59.3971231525932382 28.6327538495249954
  7.0464662789838490 64.2791035587447084 28.6327538495249954
 -18.3208312037113821 69.1610107355562462 28.6327538495249954
 29.5952785868707942 49.6332355696302230 28.6327538495249954
 -33.8231342763837688 66.7200571471504844 28.6327538495249954
 19.7301573399373318 56.9561695641874692 28.6327538495249954
 -18.3208310818044460 54.5151427464417537 28.6327538495249954
 14.0930177118973283 56.9561695641874692 28.6327538495249954
 -36.6417886483437698 66.7200571471504844 28.6327538495249954
 -26.7767097210161431 64.2791035587447084 28.6327538495249954
  2.8185693399373224 56.9561695641874692 28.6327538495249954
  9.8651207322155532 54.5151427464417537 28.6327538495249954
 46.5068664649638706 64.2791035587447084 28.6327538495249954
 23.9581389181955480 54.5151427464417537 28.6327538495249954
 -25.3673402763837679 66.7200571471504844 28.6327538495249954
 -0.0000004740826793 56.9561695641874692 28.6327538495249954
 43.6882966509438617 64.2791035587447084 28.6327538495249954
 49.3255209181955507 54.5151427464417537 28.6327538495249954
 40.8696422789838678 64.2791035587447084 28.6327538495249954
 52.1440907322155596 54.5151427464417537 28.6327538495249954
 29.5952784649638616 64.2791035587447084 28.6327538495249954
 -5.6372246600626781 56.9561695641874692 28.6327538495249954
 -28.1859522881026763 56.9561695641874692 28.6327538495249954
 -16.9115884740826736 56.9561695641874692 28.6327538495249954
 18.3209146509438554 64.2791035587447084 28.6327538495249954
  9.8651206509438563 64.2791035587447084 28.6327538495249954
 35.2325027322155506 54.5151427464417537 28.6327538495249954
 26.7767087728507853 49.6332355696302230 28.6327538495249954
 -19.7302006483437680 66.7200571471504844 28.6327538495249954
 -29.5952794537644479 54.5151427464417537 28.6327538495249954
 -7.0464673896913883 69.1610107355562462 28.6327538495249954
 -12.6836915756713875 69.1610107355562462 28.6327538495249954
 -18.3208734014102959 59.3971231525932382 28.6327538495249954
 49.3254364008908013 49.6332355696302230 28.6327538495249954
 -4.2278975350361501 64.2791035587447084 28.6327538495249954
 -21.1394855756713831 69.1610107355562462 28.6327538495249954
 -19.7302005264368283 52.0741891580359919 28.6327538495249954
 -29.5952372154302985 59.3971231525932382 28.6327538495249954
 -14.0929763404568273 52.0741891580359919 28.6327538495249954
 -32.4138915873902960 59.3971231525932382 28.6327538495249954
 -26.7766250818044469 54.5151427464417537 28.6327538495249954
  2.8186116595431669 52.0741891580359919 28.6327538495249954
 -38.0510735756713814 69.1610107355562462 28.6327538495249954
 36.6417875376362474 66.7200571471504844 28.6327538495249954
 31.0045633516562411 66.7200571471504844 28.6327538495249954
 42.2789695259173328 56.9561695641874692 28.6327538495249954
 39.4603574735631781 52.0741891580359919 28.6327538495249954
 45.0975816595431809 52.0741891580359919 28.6327538495249954
 25.3674237236162377 66.7200571471504844 28.6327538495249954
  0.0000417236162395 66.7200571471504844 28.6327538495249954
 42.2789694852820901 61.8380767409990000 28.6327538495249954
 47.9161514735631755 52.0741891580359919 28.6327538495249954
 -32.4138493896913857 69.1610107355562462 28.6327538495249954
 -2.8186126483437688 66.7200571471504844 28.6327538495249954
  1.4092849002374601  0.8136511961352557 28.6327538495249954
 57.7812727204966521 44.7512551634787386 28.6327538495249954
 29.5953211502905269 15.4595191852497500 28.6327538495249954
 23.9580969643105171 15.4595191852497500 28.6327538495249954
 18.3208727783305179 15.4595191852497500 28.6327538495249954
 12.6837331502905215 15.4595191852497500 28.6327538495249954
  9.8650787783305205 15.4595191852497500 28.6327538495249954
  1.4092847783305213 15.4595191852497500 28.6327538495249954
 76.1021458916381448 13.0185655968439828 28.6327538495249954
 67.6463518916381474 13.0185655968439828 28.6327538495249954
 62.0091277056581518 13.0185655968439828 28.6327538495249954
 59.1905578916381430 13.0185655968439828 28.6327538495249954
 56.3719880776181483 13.0185655968439828 28.6327538495249954
 16.9115878916381419 13.0185655968439828 28.6327538495249954
 14.0930180776181420 13.0185655968439828 28.6327538495249954
  5.6372240776181393 13.0185655968439828 28.6327538495249954
  2.8185697056581414 13.0185655968439828 28.6327538495249954
 69.0556790979363768 10.5775387790982709 28.6327538495249954
 40.8697272839163759 10.5775387790982709 28.6327538495249954
 35.2324607783305126 15.4595191852497500 28.6327538495249954
 60.5998427783305331 15.4595191852497500 28.6327538495249954
 74.6928609643105261 15.4595191852497500 28.6327538495249954
 -8.4557941489970982 17.9004727736555189 28.6327538495249954
  0.0000420893370479 22.7824531798069998 28.6327538495249954
 69.0556790166646692 20.3414995914012344 28.6327538495249954
 63.4184548306846807 20.3414995914012344 28.6327538495249954
 43.6882970166646629 20.3414995914012344 28.6327538495249954
 40.8696426447046761 20.3414995914012344 28.6327538495249954
 38.0510728306846602 20.3414995914012344 28.6327538495249954
 35.2325030166646727 20.3414995914012344 28.6327538495249954
 18.3209150166646637 20.3414995914012344 28.6327538495249954
 38.0510729119563607 10.5775387790982709 28.6327538495249954
 15.5022606447046662 20.3414995914012344 28.6327538495249954
 -7.0464669833353293 20.3414995914012344 28.6327538495249954
 59.1905578510029073 17.9004727736555189 28.6327538495249954
 50.7347638510029029 17.9004727736555189 28.6327538495249954
 47.9161940369829011 17.9004727736555189 28.6327538495249954
 33.8231758510028868 17.9004727736555189 28.6327538495249954
 31.0046060369829029 17.9004727736555189 28.6327538495249954
 25.3673818510029001 17.9004727736555189 28.6327538495249954
 14.0930180369829028 17.9004727736555189 28.6327538495249954
  9.8651210166646699 20.3414995914012344 28.6327538495249954
 26.7767090979363651 10.5775387790982709 28.6327538495249954
 23.9581392839163634 10.5775387790982709 28.6327538495249954
 21.1394849119563659 10.5775387790982709 28.6327538495249954
  7.0464667666116103  5.6956316022867357 28.6327538495249954
 -1.4093272333883895  5.6956316022867357 28.6327538495249954
 76.1021459729098524  3.2546047845410229 28.6327538495249954
 73.2835761588898578  3.2546047845410229 28.6327538495249954
 67.6463519729098550  3.2546047845410229 28.6327538495249954
 59.1905579729098434  3.2546047845410229 28.6327538495249954
 50.7347639729098461  3.2546047845410229 28.6327538495249954
 47.9161941588898301  3.2546047845410229 28.6327538495249954
  9.8651211385716078  5.6956316022867357 28.6327538495249954
  8.4557939729098397  3.2546047845410229 28.6327538495249954
 80.3300852721974650  0.8136511961352557 28.6327538495249954
 77.5114309002374711  0.8136511961352557 28.6327538495249954
 57.7812730862174604  0.8136511961352557 28.6327538495249954
 46.5069092721974613  0.8136511961352557 28.6327538495249954
 35.2324609002374558  0.8136511961352557 28.6327538495249954
 32.4138910862174541  0.8136511961352557 28.6327538495249954
 29.5953212721974559  0.8136511961352557 28.6327538495249954
 21.1395272721974621  0.8136511961352557 28.6327538495249954
  2.8186543448698407  3.2546047845410229 28.6327538495249954
  2.8186119033570516 22.7824531798069998 28.6327538495249954
 15.5022607666116095  5.6956316022867357 28.6327538495249954
 32.4138487666116077  5.6956316022867357 28.6327538495249954
 15.5023452839163713 10.5775387790982709 28.6327538495249954
 12.6836909119563703 10.5775387790982709 28.6327538495249954
  7.0465512839163686 10.5775387790982709 28.6327538495249954
 -1.4092427160836287 10.5775387790982709 28.6327538495249954
 -4.2278970880436288 10.5775387790982709 28.6327538495249954
 70.4649640252639955  8.1365851906925037 28.6327538495249954
 67.6463942112439867  8.1365851906925037 28.6327538495249954
 62.0091700252639910  8.1365851906925037 28.6327538495249954
 23.9580547666116068  5.6956316022867357 28.6327538495249954
 50.7348062112439848  8.1365851906925037 28.6327538495249954
 19.7302000252639935  8.1365851906925037 28.6327538495249954
 16.9116302112439918  8.1365851906925037 28.6327538495249954
  5.6371818392839907  8.1365851906925037 28.6327538495249954
 77.5114731385716169  5.6956316022867357 28.6327538495249954
 71.8742489525916284  5.6956316022867357 28.6327538495249954
 66.2370247666116256  5.6956316022867357 28.6327538495249954
 46.5068669525916008  5.6956316022867357 28.6327538495249954
 43.6882971385716132  5.6956316022867357 28.6327538495249954
 47.9161518392839980  8.1365851906925037 28.6327538495249954
 -19.7301582068309784 47.1922087518845075 28.6327538495249954
  5.6371817173770493 22.7824531798069998 28.6327538495249954
 28.1859939033570512 22.7824531798069998 28.6327538495249954
  7.0465510401024849 39.8692747573272612 28.6327538495249954
  1.4093268541224926 39.8692747573272612 28.6327538495249954
 -4.2278973318575099 39.8692747573272612 28.6327538495249954
 -12.6836913318575100 39.8692747573272612 28.6327538495249954
 62.0091697814501188 37.4283211689214923 28.6327538495249954
 50.7348059674301126 37.4283211689214923 28.6327538495249954
 47.9161515954701187 37.4283211689214923 28.6327538495249954
 28.1859937814501045 37.4283211689214923 28.6327538495249954
 22.5487695954701017 37.4283211689214923 28.6327538495249954
 31.0046055899903834 71.6020375533019688 28.6327538495249954
  8.4558359674301080 37.4283211689214923 28.6327538495249954
  5.6371815954701097 37.4283211689214923 28.6327538495249954
  2.8186117814501150 37.4283211689214923 28.6327538495249954
 -16.9115460325698876 37.4283211689214923 28.6327538495249954
 60.5998848947577358 34.9873675805157234 28.6327538495249954
 49.3254365227977445 34.9873675805157234 28.6327538495249954
 46.5068667087777357 34.9873675805157234 28.6327538495249954
 15.5023450401024956 39.8692747573272612 28.6327538495249954
 26.7767088541224823 39.8692747573272612 28.6327538495249954
 29.5952786681424982 39.8692747573272612 28.6327538495249954
 32.4139330401024850 39.8692747573272612 28.6327538495249954
 43.6882545345166520 44.7512551634787386 28.6327538495249954
 29.5953209064766369 44.7512551634787386 28.6327538495249954
 21.1395269064766467 44.7512551634787386 28.6327538495249954
 15.5023027204966439 44.7512551634787386 28.6327538495249954
  4.2279389064766386 44.7512551634787386 28.6327538495249954
  1.4092845345166412 44.7512551634787386 28.6327538495249954
 -1.4092852795033535 44.7512551634787386 28.6327538495249954
 -9.8650792795033553 44.7512551634787386 28.6327538495249954
 43.6882968947577410 34.9873675805157234 28.6327538495249954
 -15.5023034654833562 44.7512551634787386 28.6327538495249954
 -23.9580974654833554 44.7512551634787386 28.6327538495249954
 56.3719878338042619 42.3103015750729767 28.6327538495249954
 28.1859514618442688 42.3103015750729767 28.6327538495249954
 19.7301574618442501 42.3103015750729767 28.6327538495249954
 16.9115876478242626 42.3103015750729767 28.6327538495249954
  5.6372238338042564 42.3103015750729767 28.6327538495249954
 -0.0000003521757358 42.3103015750729767 28.6327538495249954
 46.5068666681425000 39.8692747573272612 28.6327538495249954
 -21.1394430935233544 44.7512551634787386 28.6327538495249954
 38.0510727087777383 34.9873675805157234 28.6327538495249954
 18.3209148947577418 34.9873675805157234 28.6327538495249954
  7.0464665227977319 34.9873675805157234 28.6327538495249954
 25.3673817697312032 27.6644335859584807 28.6327538495249954
 14.0930179557111952 27.6644335859584807 28.6327538495249954
  2.8185695837512008 27.6644335859584807 28.6327538495249954
 -14.0930184162487979 27.6644335859584807 28.6327538495249954
 66.2371091620094319 25.2234067682127652 28.6327538495249954
 49.3255211620094371 25.2234067682127652 28.6327538495249954
 38.0510727900494388 25.2234067682127652 28.6327538495249954
 29.5952787900494201 25.2234067682127652 28.6327538495249954
 28.1859515837511907 27.6644335859584807 28.6327538495249954
 23.9581391620094379 25.2234067682127652 28.6327538495249954
 12.6836907900494289 25.2234067682127652 28.6327538495249954
  1.4093269760294336 25.2234067682127652 28.6327538495249954
 -1.4092428379905699 25.2234067682127652 28.6327538495249954
 -7.0464670239705693 25.2234067682127652 28.6327538495249954
 67.6463940893370506 22.7824531798069998 28.6327538495249954
 59.1906000893370532 22.7824531798069998 28.6327538495249954
 45.0975819033570531 22.7824531798069998 28.6327538495249954
 42.2790120893370442 22.7824531798069998 28.6327538495249954
 21.1394847900494298 25.2234067682127652 28.6327538495249954
 14.0929757173770476 22.7824531798069998 28.6327538495249954
 59.1905577697312140 27.6644335859584807 28.6327538495249954
 -4.2278549716164209 30.1053871743642461 28.6327538495249954
  1.4093268947577322 34.9873675805157234 28.6327538495249954
 -1.4093274772022688 34.9873675805157234 28.6327538495249954
 62.0092121010559580 32.5463407627700150 28.6327538495249954
 53.5534181010559607 32.5463407627700150 28.6327538495249954
 47.9161939150759579 32.5463407627700150 28.6327538495249954
 42.2789697290959623 32.5463407627700150 28.6327538495249954
 -8.4557942709040379 32.5463407627700150 28.6327538495249954
 -14.0929338989440378 32.5463407627700150 28.6327538495249954
 67.6463517697312113 27.6644335859584807 28.6327538495249954
 63.4184970283835838 30.1053871743642461 28.6327538495249954
 57.7812728424035953 30.1053871743642461 28.6327538495249954
 40.8696848424035863 30.1053871743642461 28.6327538495249954
 38.0511150283835775 30.1053871743642461 28.6327538495249954
 29.5953210283835837 30.1053871743642461 28.6327538495249954
 26.7766666564235685 30.1053871743642461 28.6327538495249954
 15.5023028424035783 30.1053871743642461 28.6327538495249954
 12.6837330283835765 30.1053871743642461 28.6327538495249954
  7.0465088424035836 30.1053871743642461 28.6327538495249954
 60.5998426564235899 30.1053871743642461 28.6327538495249954
 33.8231754040103922 71.6020375533019688 28.6327538495249954
