 H  O 
 1.0000000000000000
    84.5579400000000021    0.0000000000000000    0.0000000000000000
   -42.2789706095346958   73.2293399455724767    0.0000000000000000
     0.0000000000000000    0.0000000000000000   46.9039550000000034
 H   O  
 239 399
Cartesian
 62.0091699169021311 21.1551507875364884 28.1128704123049964
 28.1859515972962846 26.0371311936879657 28.1128704123049964
 42.2789695394624090 55.3288671719169614 28.1128704123049964
 25.3673817832762829 26.0371311936879657 28.1128704123049964
 50.7347635394624064 55.3288671719169614 28.1128704123049964
 22.5487274113162819 26.0371311936879657 28.1128704123049964
  2.8185695972962814 26.0371311936879657 28.1128704123049964
 39.4603154113162731 26.0371311936879657 28.1128704123049964
 -2.8186545886837178 26.0371311936879657 28.1128704123049964
 -11.2744485886837182 26.0371311936879657 28.1128704123049964
  9.8650784261547866 57.7698207603227232 28.1128704123049964
 -14.0930184027037182 26.0371311936879657 28.1128704123049964
 69.0556789895745169 23.5961043759422537 28.1128704123049964
 63.4184548035945070 23.5961043759422537 28.1128704123049964
 57.7812306176145043 23.5961043759422537 28.1128704123049964
 -1.4092853878652121 57.7698207603227232 28.1128704123049964
 53.5533335972962803 26.0371311936879657 28.1128704123049964
 36.6417453534824062 55.3288671719169614 28.1128704123049964
 16.9115875394624062 55.3288671719169614 28.1128704123049964
 -2.8185700713789608 30.9190383704995000 28.1128704123049964
 -5.6372244433389582 30.9190383704995000 28.1128704123049964
 66.2370668559486688 28.4780847820937346 28.1128704123049964
 -22.5488126465175966 55.3288671719169614 28.1128704123049964
 -16.9115884605376010 55.3288671719169614 28.1128704123049964
 54.9626184839886562 28.4780847820937346 28.1128704123049964
 49.3254788559486528 28.4780847820937346 28.1128704123049964
 40.8696848559486625 28.4780847820937346 28.1128704123049964
 -5.6372246465175939 55.3288671719169614 28.1128704123049964
 38.0510304839886544 28.4780847820937346 28.1128704123049964
 29.5952364839886641 28.4780847820937346 28.1128704123049964
 -2.8186548324975988 55.3288671719169614 28.1128704123049964
 26.7766666699686624 28.4780847820937346 28.1128704123049964
 18.3208726699686650 28.4780847820937346 28.1128704123049964
 12.6836484839886605 28.4780847820937346 28.1128704123049964
 26.7766664261547831 57.7698207603227232 28.1128704123049964
 54.9626608035945097 23.5961043759422537 28.1128704123049964
 29.5952788035945140 23.5961043759422537 28.1128704123049964
 46.5068242401747796 57.7698207603227232 28.1128704123049964
 -0.0000424550578693 21.1551507875364884 28.1128704123049964
 -2.8186122690778692 21.1551507875364884 28.1128704123049964
 -11.2744062690778684 21.1551507875364884 28.1128704123049964
 66.2370246582497515 18.7141971991307194 28.1128704123049964
 63.4184548442297569 18.7141971991307194 28.1128704123049964
 -21.1394855214910677 62.6518011664742076 28.1128704123049964
 57.7812306582497541 18.7141971991307194 28.1128704123049964
 49.3254366582497497 18.7141971991307194 28.1128704123049964
 46.5068668442297550 18.7141971991307194 28.1128704123049964
 -9.8651217074710615 62.6518011664742076 28.1128704123049964
 38.0510728442297577 18.7141971991307194 28.1128704123049964
 35.2324184722697566 18.7141971991307194 28.1128704123049964
 -1.4093277074710613 62.6518011664742076 28.1128704123049964
 32.4138486582497549 18.7141971991307194 28.1128704123049964
 21.1394848442297523 18.7141971991307194 28.1128704123049964
  5.6371817309221299 21.1551507875364884 28.1128704123049964
  5.6372239286210437 30.9190383704995000 28.1128704123049964
  8.4557515449421317 21.1551507875364884 28.1128704123049964
 19.7301999169021336 21.1551507875364884 28.1128704123049964
 26.7767089895745123 23.5961043759422537 28.1128704123049964
 -33.8231765011728385 60.2107743487284921 28.1128704123049964
 -25.3673825011728376 60.2107743487284921 28.1128704123049964
 -4.2278971964054897 23.5961043759422537 28.1128704123049964
 -16.9115885011728366 60.2107743487284921 28.1128704123049964
 -7.0464670104254905 23.5961043759422537 28.1128704123049964
 -2.8185703151928343 60.2107743487284921 28.1128704123049964
 -5.6372245652458988 45.5649063596139996 28.1128704123049964
 53.5533759169021195 21.1551507875364884 28.1128704123049964
 50.7347215449421185 21.1551507875364884 28.1128704123049964
 -0.0000005011728327 60.2107743487284921 28.1128704123049964
 11.2743633128471661 60.2107743487284921 28.1128704123049964
 22.5488116848071662 60.2107743487284921 28.1128704123049964
 36.6417879169021319 21.1551507875364884 28.1128704123049964
 25.3673814988271609 60.2107743487284921 28.1128704123049964
 28.1859513128471555 60.2107743487284921 28.1128704123049964
 -28.1860368324975958 55.3288671719169614 28.1128704123049964
 38.0510725597806356 52.8878403541712458 28.1128704123049964
 35.2325027457606268 52.8878403541712458 28.1128704123049964
 22.5487272894093422 40.6829991828024689 28.1128704123049964
 26.7766242284558658 48.0059331773597151 28.1128704123049964
 19.7301574753893405 40.6829991828024689 28.1128704123049964
 16.9115876613693388 40.6829991828024689 28.1128704123049964
  5.6371392894093386 40.6829991828024689 28.1128704123049964
 46.5068666004158757 48.0059331773597151 28.1128704123049964
 -5.6372245246106605 40.6829991828024689 28.1128704123049964
 49.3254364144358703 48.0059331773597151 28.1128704123049964
 60.5998848676675763 38.2419723650567462 28.1128704123049964
 -25.3674246988717442 50.4468867657654769 28.1128704123049964
 -19.7302005128917450 50.4468867657654769 28.1128704123049964
 52.1440908676675789 38.2419723650567462 28.1128704123049964
 40.8696424957075664 38.2419723650567462 28.1128704123049964
 -14.0929763269117494 50.4468867657654769 28.1128704123049964
 26.7767088676675797 38.2419723650567462 28.1128704123049964
 36.6417454753893352 40.6829991828024689 28.1128704123049964
 23.9580544957075787 38.2419723650567462 28.1128704123049964
 15.5022604144358738 48.0059331773597151 28.1128704123049964
 56.3719032894093317 40.6829991828024689 28.1128704123049964
 -19.7301581932858987 45.5649063596139996 28.1128704123049964
 31.0046058067141033 45.5649063596139996 28.1128704123049964
 42.2789696207341024 45.5649063596139996 28.1128704123049964
 38.0510303620817112 43.1239527712082307 28.1128704123049964
 35.2324605480617166 43.1239527712082307 28.1128704123049964
 47.9161938067141051 45.5649063596139996 28.1128704123049964
 15.5023027340417219 43.1239527712082307 28.1128704123049964
 56.3719878067141025 45.5649063596139996 28.1128704123049964
 12.6836483620817209 43.1239527712082307 28.1128704123049964
 -21.1394853995841281 48.0059331773597151 28.1128704123049964
  1.4092845480617260 43.1239527712082307 28.1128704123049964
 -18.3209155855641299 48.0059331773597151 28.1128704123049964
 -9.8650792659582809 43.1239527712082307 28.1128704123049964
 -15.5023457715441282 48.0059331773597151 28.1128704123049964
 -12.6836913995841307 48.0059331773597151 28.1128704123049964
  4.2278966004158747 48.0059331773597151 28.1128704123049964
 18.3208304722697477 18.7141971991307194 28.1128704123049964
 -5.6371823269117440 50.4468867657654769 28.1128704123049964
 15.5022604957075725 38.2419723650567462 28.1128704123049964
 36.6417876730882455 50.4468867657654769 28.1128704123049964
 -14.0929762050048097 35.8010187766509844 28.1128704123049964
 57.7812305363428109 33.3600651882452155 28.1128704123049964
 49.3254365363428136 33.3600651882452155 28.1128704123049964
 -29.5952794402193682 52.8878403541712458 28.1128704123049964
 -26.7767096261993700 52.8878403541712458 28.1128704123049964
 29.5952787223228171 33.3600651882452155 28.1128704123049964
 -7.0464672542393672 52.8878403541712458 28.1128704123049964
 12.6836907223228135 33.3600651882452155 28.1128704123049964
 -4.2278974402193654 52.8878403541712458 28.1128704123049964
 -4.2278972776771910 33.3600651882452155 28.1128704123049964
  7.0464663738006301 52.8878403541712458 28.1128704123049964
 62.0091275566610349 30.9190383704995000 28.1128704123049964
 23.9580543738006249 52.8878403541712458 28.1128704123049964
 36.6417455566610357 30.9190383704995000 28.1128704123049964
 -11.2744063909848098 35.8010187766509844 28.1128704123049964
 21.1394846816875770 38.2419723650567462 28.1128704123049964
 -8.4558365769648098 35.8010187766509844 28.1128704123049964
  2.8186117949951930 35.8010187766509844 28.1128704123049964
  7.0464664957075716 38.2419723650567462 28.1128704123049964
  2.8186116730882564 50.4468867657654769 28.1128704123049964
  4.2278966816875769 38.2419723650567462 28.1128704123049964
  5.6371814871082586 50.4468867657654769 28.1128704123049964
 -12.6836913183124267 38.2419723650567462 28.1128704123049964
 -15.5022611323324266 38.2419723650567462 28.1128704123049964
  8.4557513011282524 50.4468867657654769 28.1128704123049964
 -18.3209155042924259 38.2419723650567462 28.1128704123049964
 14.0929754871082551 50.4468867657654769 28.1128704123049964
 47.9161516090151949 35.8010187766509844 28.1128704123049964
 19.7301996730882578 50.4468867657654769 28.1128704123049964
 33.8231334230351877 35.8010187766509844 28.1128704123049964
 22.5487694871082525 50.4468867657654769 28.1128704123049964
 25.3673394230351938 35.8010187766509844 28.1128704123049964
  5.6371816090151947 35.8010187766509844 28.1128704123049964
 33.8231333011282445 50.4468867657654769 28.1128704123049964
 12.6836908442297531 18.7141971991307194 28.1128704123049964
 16.9115876207341032 45.5649063596139996 28.1128704123049964
  7.0464662925289359 62.6518011664742076 28.1128704123049964
  2.8185692315754580 69.9747351610314468 28.1128704123049964
 -1.4093272604785494  8.9502363868277595 28.1128704123049964
 -2.8186549544045376 69.9747351610314468 28.1128704123049964
 -11.2744489544045354 69.9747351610314468 28.1128704123049964
  9.8651211114814483  8.9502363868277595 28.1128704123049964
 12.6836909255014501  8.9502363868277595 28.1128704123049964
 -33.8231765824445318 69.9747351610314468 28.1128704123049964
 21.1394849255014528  8.9502363868277595 28.1128704123049964
 29.5952789255014537  8.9502363868277595 28.1128704123049964
 -36.6418309544045329 69.9747351610314468 28.1128704123049964
 43.6882966238536952 67.5337083432857384 28.1128704123049964
  7.0464666582497495 18.7141971991307194 28.1128704123049964
 57.7812307395214404  8.9502363868277595 28.1128704123049964
 70.4649640388090717  6.5092827984219914 28.1128704123049964
 60.5998851114814414  8.9502363868277595 28.1128704123049964
 69.0556791114814530  8.9502363868277595 28.1128704123049964
 71.8742489255014476  8.9502363868277595 28.1128704123049964
 -5.6372242807967794 11.3912632045734714 28.1128704123049964
 -2.8186544667767790 11.3912632045734714 28.1128704123049964
 -9.8651217481063078 67.5337083432857384 28.1128704123049964
  8.4557939051832172 11.3912632045734714 28.1128704123049964
 -21.1394855621263069 67.5337083432857384 28.1128704123049964
 -26.7767097481063061 67.5337083432857384 28.1128704123049964
 33.8231759051832199 11.3912632045734714 28.1128704123049964
 -38.0510735621263052 67.5337083432857384 28.1128704123049964
 36.6417457192032217 11.3912632045734714 28.1128704123049964
 42.2789699051832244 11.3912632045734714 28.1128704123049964
 36.6417875511813165 65.0927547548799765 28.1128704123049964
 12.6836904378736932 67.5337083432857384 28.1128704123049964
 11.2743632315754621 69.9747351610314468 28.1128704123049964
 62.0091700388090601  6.5092827984219914 28.1128704123049964
 56.3719458528290644  6.5092827984219914 28.1128704123049964
 19.7301578004749203  1.6273023922705114 28.1128704123049964
 32.4138904902278497 72.4156887494372228 28.1128704123049964
 25.3673819864549230  1.6273023922705114 28.1128704123049964
 42.2789699864549249  1.6273023922705114 28.1128704123049964
 45.0975398004749266  1.6273023922705114 28.1128704123049964
 15.5023024902278443 72.4156887494372228 28.1128704123049964
  7.0465084902278479 72.4156887494372228 28.1128704123049964
  4.2278541182678469 72.4156887494372228 28.1128704123049964
 -1.4093272198433096  4.0683292100162243 28.1128704123049964
 21.1394849661366919  4.0683292100162243 28.1128704123049964
 29.5952789661366928  4.0683292100162243 28.1128704123049964
 -29.5953218817321577 72.4156887494372228 28.1128704123049964
 35.2324185941766927  4.0683292100162243 28.1128704123049964
 43.6882125941766972  4.0683292100162243 28.1128704123049964
 -32.4138916957521559 72.4156887494372228 28.1128704123049964
 46.5068669661366982  4.0683292100162243 28.1128704123049964
 57.7812307801566902  4.0683292100162243 28.1128704123049964
 69.0555945941766822  4.0683292100162243 28.1128704123049964
 71.8742489661366903  4.0683292100162243 28.1128704123049964
 -2.8186121471709296  6.5092827984219914 28.1128704123049964
 36.6417452315754701 69.9747351610314468 28.1128704123049964
 -0.0000423331509293  6.5092827984219914 28.1128704123049964
  8.4557516668490695  6.5092827984219914 28.1128704123049964
 11.2744060388090670  6.5092827984219914 28.1128704123049964
 16.9115456668490722  6.5092827984219914 28.1128704123049964
 28.1859512315754728 69.9747351610314468 28.1128704123049964
 19.7301572315754683 69.9747351610314468 28.1128704123049964
 42.2789276668490714  6.5092827984219914 28.1128704123049964
 45.0975820388090725  6.5092827984219914 28.1128704123049964
 56.3719035332232110 11.3912632045734714 28.1128704123049964
 19.7301995511813146 65.0927547548799765 28.1128704123049964
 52.1440911114814512  8.9502363868277595 28.1128704123049964
 -5.6372243214320203 16.2731703813850075 28.1128704123049964
 21.1394426058955993 13.8322167929792403 28.1128704123049964
 33.8231758645479843 16.2731703813850075 28.1128704123049964
 -2.8186126347986837 65.0927547548799765 28.1128704123049964
 47.9161940505279844 16.2731703813850075 28.1128704123049964
 73.2835760505279836 16.2731703813850075 28.1128704123049964
 15.5022602925289341 62.6518011664742076 28.1128704123049964
 23.9580542925289315 62.6518011664742076 28.1128704123049964
 57.7812729778555934 13.8322167929792403 28.1128704123049964
 19.7301576785679771 16.2731703813850075 28.1128704123049964
 15.5023029778556030 13.8322167929792403 28.1128704123049964
 25.3673818645479834 16.2731703813850075 28.1128704123049964
  5.6372240505279780 16.2731703813850075 28.1128704123049964
  1.4092424722697507 18.7141971991307194 28.1128704123049964
  4.2278968442297478 18.7141971991307194 28.1128704123049964
  1.4092847918756004 13.8322167929792403 28.1128704123049964
 69.0556367918755996 13.8322167929792403 28.1128704123049964
 21.1394844785089369 62.6518011664742076 28.1128704123049964
 38.0510306058956047 13.8322167929792403 28.1128704123049964
 35.2324181065489270 62.6518011664742076 28.1128704123049964
 63.4184126058955968 13.8322167929792403 28.1128704123049964
 36.6417456785679860 16.2731703813850075 28.1128704123049964
 38.0510724785089351 62.6518011664742076 28.1128704123049964
 22.5488116712620865 61.8380767409990000 28.6327538495249954
 -33.8231765959896151 71.6020375533019688 28.6327538495249954
 43.6882966103086261 69.1610107355562462 28.6327538495249954
 -15.5022612271492086 49.6332355696302230 28.6327538495249954
 -22.5487281427579163 61.8380767409990000 28.6327538495249954
 -36.6417464100096169 71.6020375533019688 28.6327538495249954
 -18.3209155991092061 49.6332355696302230 28.6327538495249954
 -7.0464672271492059 49.6332355696302230 28.6327538495249954
 -25.3673825147179137 61.8380767409990000 28.6327538495249954
 29.5952784243286260 69.1610107355562462 28.6327538495249954
 -33.8231765147179146 61.8380767409990000 28.6327538495249954
 29.5953207845697079 59.3971231525932382 28.6327538495249954
 15.5023447962886092 69.1610107355562462 28.6327538495249954
 21.1394845868707826 49.6332355696302230 28.6327538495249954
 43.6882544126097088 59.3971231525932382 28.6327538495249954
 18.3209146103086198 69.1610107355562462 28.6327538495249954
 15.5022604008907816 49.6332355696302230 28.6327538495249954
  1.4093267728507877 49.6332355696302230 28.6327538495249954
  9.8651207728507995 49.6332355696302230 28.6327538495249954
 46.5069087845697027 59.3971231525932382 28.6327538495249954
  7.0464664008907913 49.6332355696302230 28.6327538495249954
 25.3673814852820882 61.8380767409990000 28.6327538495249954
  4.2278965868707896 49.6332355696302230 28.6327538495249954
 32.4139327962886199 69.1610107355562462 28.6327538495249954
 49.3254785985897115 59.3971231525932382 28.6327538495249954
 26.7767086103086172 69.1610107355562462 28.6327538495249954
 -19.7301583287379145 61.8380767409990000 28.6327538495249954
  4.2278964649638544 64.2791035587447084 28.6327538495249954
 50.7347636071890307 47.1922087518845075 28.6327538495249954
 14.0930175899903762 71.6020375533019688 28.6327538495249954
 -19.7301582068309784 47.1922087518845075 28.6327538495249954
  8.4557934852820722 61.8380767409990000 28.6327538495249954
 -0.0000005147179177 61.8380767409990000 28.6327538495249954
 16.9115874040103833 71.6020375533019688 28.6327538495249954
 19.7301572180303850 71.6020375533019688 28.6327538495249954
 49.3254787204966547 44.7512551634787386 28.6327538495249954
 28.1859512180303895 71.6020375533019688 28.6327538495249954
 46.5069089064766459 44.7512551634787386 28.6327538495249954
 31.0046055899903834 71.6020375533019688 28.6327538495249954
 43.6882545345166520 44.7512551634787386 28.6327538495249954
  2.8186538572420905 61.8380767409990000 28.6327538495249954
 35.2324605345166475 44.7512551634787386 28.6327538495249954
 32.4138907204966458 44.7512551634787386 28.6327538495249954
 36.6417452180303869 71.6020375533019688 28.6327538495249954
  5.6372236712620847 61.8380767409990000 28.6327538495249954
 29.5953209064766369 44.7512551634787386 28.6327538495249954
 -16.9115883928109767 47.1922087518845075 28.6327538495249954
 -26.7767095991092070 49.6332355696302230 28.6327538495249954
  5.6372235899903860 71.6020375533019688 28.6327538495249954
 11.2744478572420874 61.8380767409990000 28.6327538495249954
 47.9161937931690360 47.1922087518845075 28.6327538495249954
 -31.0046067819696169 71.6020375533019688 28.6327538495249954
 23.9580544008907985 49.6332355696302230 28.6327538495249954
 45.0976239791490272 47.1922087518845075 28.6327538495249954
 42.2789696071890333 47.1922087518845075 28.6327538495249954
 31.0046057931690235 47.1922087518845075 28.6327538495249954
 -28.1859524100096195 71.6020375533019688 28.6327538495249954
 28.1860359791490147 47.1922087518845075 28.6327538495249954
 19.7302418572420777 61.8380767409990000 28.6327538495249954
 -14.0930187819696204 71.6020375533019688 28.6327538495249954
 25.3673816071890279 47.1922087518845075 28.6327538495249954
 -11.2743644100096230 71.6020375533019688 28.6327538495249954
 -8.4557945147179190 61.8380767409990000 28.6327538495249954
  8.4557936071890190 47.1922087518845075 28.6327538495249954
  5.6372237931690181 47.1922087518845075 28.6327538495249954
 -8.4557945959896212 71.6020375533019688 28.6327538495249954
  2.8185692180303707 71.6020375533019688 28.6327538495249954
 -14.0929340208509810 47.1922087518845075 28.6327538495249954
 -11.2743643287379136 61.8380767409990000 28.6327538495249954
 35.2325027728508005 49.6332355696302230 28.6327538495249954
  7.0465507962886189 69.1610107355562462 28.6327538495249954
 35.2325027322155506 54.5151427464417537 28.6327538495249954
 26.7767087322155568 54.5151427464417537 28.6327538495249954
 23.9581389181955480 54.5151427464417537 28.6327538495249954
 15.5023449181955559 54.5151427464417537 28.6327538495249954
 12.6836905462355407 54.5151427464417537 28.6327538495249954
  9.8651207322155532 54.5151427464417537 28.6327538495249954
 -11.2744066483437688 66.7200571471504844 28.6327538495249954
 -1.4092430818044526 54.5151427464417537 28.6327538495249954
 -21.1394432154303011 59.3971231525932382 28.6327538495249954
 -8.4557522763837714 66.7200571471504844 28.6327538495249954
 -18.3208734014102959 59.3971231525932382 28.6327538495249954
 -4.2278974537644496 54.5151427464417537 28.6327538495249954
  5.6371813516562215 66.7200571471504844 28.6327538495249954
 -9.8651217210161430 64.2791035587447084 28.6327538495249954
 -12.6836915350361448 64.2791035587447084 28.6327538495249954
 11.2744055376362251 66.7200571471504844 28.6327538495249954
 -7.0464672677844442 54.5151427464417537 28.6327538495249954
 -22.5487704623637697 66.7200571471504844 28.6327538495249954
 -21.1394855350361439 64.2791035587447084 28.6327538495249954
 -25.3673402763837679 66.7200571471504844 28.6327538495249954
 40.8697269181955534 54.5151427464417537 28.6327538495249954
  9.8651206509438563 64.2791035587447084 28.6327538495249954
 15.5022602789838597 64.2791035587447084 28.6327538495249954
 18.3209146509438554 64.2791035587447084 28.6327538495249954
 31.0046057118973302 56.9561695641874692 28.6327538495249954
 42.2789695259173328 56.9561695641874692 28.6327538495249954
 21.1394844649638500 64.2791035587447084 28.6327538495249954
 -0.0000004740826793 56.9561695641874692 28.6327538495249954
 35.2325026509438644 64.2791035587447084 28.6327538495249954
 45.0975393399373274 56.9561695641874692 28.6327538495249954
 -2.8185702881026811 56.9561695641874692 28.6327538495249954
 -19.7301582881026789 56.9561695641874692 28.6327538495249954
 -22.5488126600626764 56.9561695641874692 28.6327538495249954
 38.0510724649638732 64.2791035587447084 28.6327538495249954
 -1.4093277210161486 64.2791035587447084 28.6327538495249954
 47.9161937118973214 56.9561695641874692 28.6327538495249954
 -36.6417886483437698 66.7200571471504844 28.6327538495249954
 50.7347635259173302 56.9561695641874692 28.6327538495249954
 38.0510725462355595 54.5151427464417537 28.6327538495249954
 -15.5023035873902977 59.3971231525932382 28.6327538495249954
 16.9116297236162261 66.7200571471504844 28.6327538495249954
 -12.6836492154302967 59.3971231525932382 28.6327538495249954
 39.4603996712620955 61.8380767409990000 28.6327538495249954
 -5.6371823404568273 52.0741891580359919 28.6327538495249954
  9.8650784126096909 59.3971231525932382 28.6327538495249954
 -32.4138493896913857 69.1610107355562462 28.6327538495249954
 -8.4557521544768282 52.0741891580359919 28.6327538495249954
 -14.0929763404568273 52.0741891580359919 28.6327538495249954
 -25.3673401544768282 52.0741891580359919 28.6327538495249954
 -21.1394855756713831 69.1610107355562462 28.6327538495249954
 -28.1859945264368292 52.0741891580359919 28.6327538495249954
 -9.8650372037113900 69.1610107355562462 28.6327538495249954
 54.9626605868708040 49.6332355696302230 28.6327538495249954
 49.3254364008908013 49.6332355696302230 28.6327538495249954
 23.9580965985897052 59.3971231525932382 28.6327538495249954
  1.4093266103086164 69.1610107355562462 28.6327538495249954
  1.4093266509438596 64.2791035587447084 28.6327538495249954
 26.7766664126097069 59.3971231525932382 28.6327538495249954
 36.6418298572420866 61.8380767409990000 28.6327538495249954
 -29.5952795350361448 64.2791035587447084 28.6327538495249954
 -2.8186125264368322 52.0741891580359919 28.6327538495249954
  5.6371814735631682 52.0741891580359919 28.6327538495249954
 -35.2324192037113804 69.1610107355562462 28.6327538495249954
 -23.9580552677844487 54.5151427464417537 28.6327538495249954
 19.7301995376362349 66.7200571471504844 28.6327538495249954
 -23.9580553490561456 64.2791035587447084 28.6327538495249954
 -26.7766250818044469 54.5151427464417537 28.6327538495249954
 31.0045633516562411 66.7200571471504844 28.6327538495249954
 42.2790117236162359 66.7200571471504844 28.6327538495249954
 53.5533756595431782 52.0741891580359919 28.6327538495249954
 39.4603574735631781 52.0741891580359919 28.6327538495249954
 26.7767087728507853 49.6332355696302230 28.6327538495249954
 36.6417876595431693 52.0741891580359919 28.6327538495249954
 45.0975815376362448 66.7200571471504844 28.6327538495249954
 25.3674238455231631 52.0741891580359919 28.6327538495249954
 -38.0510735756713814 69.1610107355562462 28.6327538495249954
 22.5487694735631763 52.0741891580359919 28.6327538495249954
 19.7301996595431604 52.0741891580359919 28.6327538495249954
 11.2744056595431719 52.0741891580359919 28.6327538495249954
  8.4558358455231772 52.0741891580359919 28.6327538495249954
 -1.4092854014103018 59.3971231525932382 28.6327538495249954
 -26.7767097210161431 64.2791035587447084 28.6327538495249954
  9.8650789002374601  0.8136511961352557 28.6327538495249954
 57.7812305227977419 34.9873675805157234 28.6327538495249954
 -4.2278550935233552 44.7512551634787386 28.6327538495249954
 49.3254789643105269 15.4595191852497500 28.6327538495249954
 38.0511151502905278 15.4595191852497500 28.6327538495249954
 35.2324607783305126 15.4595191852497500 28.6327538495249954
 21.1395271502905153 15.4595191852497500 28.6327538495249954
  4.2279391502905188 15.4595191852497500 28.6327538495249954
 76.1021458916381448 13.0185655968439828 28.6327538495249954
 73.2835760776181360 13.0185655968439828 28.6327538495249954
 56.3719880776181483 13.0185655968439828 28.6327538495249954
 50.7347638916381456 13.0185655968439828 28.6327538495249954
 39.4604000776181465 13.0185655968439828 28.6327538495249954
 36.6417457056581313 13.0185655968439828 28.6327538495249954
 28.1859517056581375 13.0185655968439828 28.6327538495249954
 63.4184971502905270 15.4595191852497500 28.6327538495249954
 25.3673818916381357 13.0185655968439828 28.6327538495249954
 19.7301577056581365 13.0185655968439828 28.6327538495249954
  5.6372240776181393 13.0185655968439828 28.6327538495249954
 -2.8185699223818586 13.0185655968439828 28.6327538495249954
 -5.6372242943418591 13.0185655968439828 28.6327538495249954
 77.5114730979363742 10.5775387790982709 28.6327538495249954
 63.4184549119563812 10.5775387790982709 28.6327538495249954
 60.5998850979363723 10.5775387790982709 28.6327538495249954
 57.7813152839163777 10.5775387790982709 28.6327538495249954
 54.9626609119563767 10.5775387790982709 28.6327538495249954
 52.1440910979363750 10.5775387790982709 28.6327538495249954
 49.3255212839163661 10.5775387790982709 28.6327538495249954
 38.0510729119563607 10.5775387790982709 28.6327538495249954
 22.5488120776181340 13.0185655968439828 28.6327538495249954
 69.0556367783305234 15.4595191852497500 28.6327538495249954
 71.8742911502905173 15.4595191852497500 28.6327538495249954
 74.6928609643105261 15.4595191852497500 28.6327538495249954
 63.4184548306846807 20.3414995914012344 28.6327538495249954
 52.1440910166646745 20.3414995914012344 28.6327538495249954
 49.3254366447046735 20.3414995914012344 28.6327538495249954
 46.5068668306846718 20.3414995914012344 28.6327538495249954
 40.8696426447046761 20.3414995914012344 28.6327538495249954
 38.0510728306846602 20.3414995914012344 28.6327538495249954
 29.5952788306846699 20.3414995914012344 28.6327538495249954
 26.7767090166646753 20.3414995914012344 28.6327538495249954
 21.1394848306846654 20.3414995914012344 28.6327538495249954
 12.6836908306846716 20.3414995914012344 28.6327538495249954
  9.8651210166646699 20.3414995914012344 28.6327538495249954
  7.0464666447046698 20.3414995914012344 28.6327538495249954
 -1.4093273552953294 20.3414995914012344 28.6327538495249954
 -4.2278971693153311 20.3414995914012344 28.6327538495249954
 70.4650062229628986 17.9004727736555189 28.6327538495249954
 67.6463518510029047 17.9004727736555189 28.6327538495249954
 64.8277820369829101 17.9004727736555189 28.6327538495249954
 62.0092122229629013 17.9004727736555189 28.6327538495249954
 50.7347638510029029 17.9004727736555189 28.6327538495249954
 47.9161940369829011 17.9004727736555189 28.6327538495249954
 45.0976242229628923 17.9004727736555189 28.6327538495249954
 36.6418302229629020 17.9004727736555189 28.6327538495249954
 33.8231758510028868 17.9004727736555189 28.6327538495249954
 28.1860362229629082 17.9004727736555189 28.6327538495249954
 19.7302422229628966 17.9004727736555189 28.6327538495249954
 14.0930180369829028 17.9004727736555189 28.6327538495249954
  5.6372240369829028 17.9004727736555189 28.6327538495249954
 35.2325030979363731 10.5775387790982709 28.6327538495249954
 -11.2744062826229499 22.7824531798069998 28.6327538495249954
 26.7767090979363651 10.5775387790982709 28.6327538495249954
 21.1394849119563659 10.5775387790982709 28.6327538495249954
 18.3209151385716105  5.6956316022867357 28.6327538495249954
 15.5022607666116095  5.6956316022867357 28.6327538495249954
 12.6836909525916113  5.6956316022867357 28.6327538495249954
 -1.4093272333883895  5.6956316022867357 28.6327538495249954
 81.7393701588898551  3.2546047845410229 28.6327538495249954
 70.4650063448698489  3.2546047845410229 28.6327538495249954
 47.9161941588898301  3.2546047845410229 28.6327538495249954
 45.0976243448698426  3.2546047845410229 28.6327538495249954
 36.6418303448698452  3.2546047845410229 28.6327538495249954
 33.8231759729098371  3.2546047845410229 28.6327538495249954
 31.0046061588898354  3.2546047845410229 28.6327538495249954
 19.7302423448698399  3.2546047845410229 28.6327538495249954
 21.1394849525916122  5.6956316022867357 28.6327538495249954
 -0.0000000270901599  3.2546047845410229 28.6327538495249954
 74.6928610862174764  0.8136511961352557 28.6327538495249954
 71.8742912721974676  0.8136511961352557 28.6327538495249954
 69.0556369002374737  0.8136511961352557 28.6327538495249954
 60.5998429002374621  0.8136511961352557 28.6327538495249954
 57.7812730862174604  0.8136511961352557 28.6327538495249954
 46.5069092721974613  0.8136511961352557 28.6327538495249954
 43.6882549002374461  0.8136511961352557 28.6327538495249954
 38.0511152721974639  0.8136511961352557 28.6327538495249954
 32.4138910862174541  0.8136511961352557 28.6327538495249954
 26.7766669002374584  0.8136511961352557 28.6327538495249954
 23.9580970862174638  0.8136511961352557 28.6327538495249954
 21.1395272721974621  0.8136511961352557 28.6327538495249954
 83.1486550862174738  0.8136511961352557 28.6327538495249954
 35.2325031385716159  5.6956316022867357 28.6327538495249954
 43.6882971385716132  5.6956316022867357 28.6327538495249954
 57.7812307666116141  5.6956316022867357 28.6327538495249954
 12.6836909119563703 10.5775387790982709 28.6327538495249954
  9.8651210979363722 10.5775387790982709 28.6327538495249954
  7.0465512839163686 10.5775387790982709 28.6327538495249954
  4.2278969119563712 10.5775387790982709 28.6327538495249954
 -1.4092427160836287 10.5775387790982709 28.6327538495249954
 -4.2278970880436288 10.5775387790982709 28.6327538495249954
 70.4649640252639955  8.1365851906925037 28.6327538495249954
 67.6463942112439867  8.1365851906925037 28.6327538495249954
 62.0091700252639910  8.1365851906925037 28.6327538495249954
 59.1906002112439964  8.1365851906925037 28.6327538495249954
 56.3719458392839954  8.1365851906925037 28.6327538495249954
 53.5533760252639937  8.1365851906925037 28.6327538495249954
 50.7348062112439848  8.1365851906925037 28.6327538495249954
 47.9161518392839980  8.1365851906925037 28.6327538495249954
 36.6417880252639918  8.1365851906925037 28.6327538495249954
 33.8232182112439972  8.1365851906925037 28.6327538495249954
 31.0045638392839891  8.1365851906925037 28.6327538495249954
 19.7302000252639935  8.1365851906925037 28.6327538495249954
 14.0929758392839890  8.1365851906925037 28.6327538495249954
 11.2744060252639908  8.1365851906925037 28.6327538495249954
  8.4558362112439873  8.1365851906925037 28.6327538495249954
  5.6371818392839907  8.1365851906925037 28.6327538495249954
  0.0000422112439907  8.1365851906925037 28.6327538495249954
 -2.8186121607160102  8.1365851906925037 28.6327538495249954
 71.8742489525916284  5.6956316022867357 28.6327538495249954
 69.0556791385716195  5.6956316022867357 28.6327538495249954
 63.4184549525916097  5.6956316022867357 28.6327538495249954
 23.9581392839163634 10.5775387790982709 28.6327538495249954
 -8.4557519106629488 22.7824531798069998 28.6327538495249954
 -5.6371820966429516 22.7824531798069998 28.6327538495249954
 -2.8186122826229494 22.7824531798069998 28.6327538495249954
 -21.1394853318575109 39.8692747573272612 28.6327538495249954
 56.3719455954701161 37.4283211689214923 28.6327538495249954
 53.5533757814501215 37.4283211689214923 28.6327538495249954
 50.7348059674301126 37.4283211689214923 28.6327538495249954
 47.9161515954701187 37.4283211689214923 28.6327538495249954
 28.1859937814501045 37.4283211689214923 28.6327538495249954
 25.3674239674301170 37.4283211689214923 28.6327538495249954
 22.5487695954701017 37.4283211689214923 28.6327538495249954
 19.7301997814501142 37.4283211689214923 28.6327538495249954
  5.6371815954701097 37.4283211689214923 28.6327538495249954
  2.8186117814501150 37.4283211689214923 28.6327538495249954
 -11.2744064045298860 37.4283211689214923 28.6327538495249954
 -18.3208309598975099 39.8692747573272612 28.6327538495249954
 -14.0929762185498877 37.4283211689214923 28.6327538495249954
 -19.7302004045298887 37.4283211689214923 28.6327538495249954
 39.4603995899903808 71.6020375533019688 28.6327538495249954
 49.3254365227977445 34.9873675805157234 28.6327538495249954
 46.5068667087777357 34.9873675805157234 28.6327538495249954
 35.2325028947577295 34.9873675805157234 28.6327538495249954
 29.5952787087777267 34.9873675805157234 28.6327538495249954
  7.0464665227977319 34.9873675805157234 28.6327538495249954
  4.2278967087777302 34.9873675805157234 28.6327538495249954
  1.4093268947577322 34.9873675805157234 28.6327538495249954
 -9.8651214772022673 34.9873675805157234 28.6327538495249954
 -12.6836912912222672 34.9873675805157234 28.6327538495249954
 62.0092121010559580 32.5463407627700150 28.6327538495249954
 -16.9115460325698876 37.4283211689214923 28.6327538495249954
 -15.5022611458775117 39.8692747573272612 28.6327538495249954
 -7.0464671458775081 39.8692747573272612 28.6327538495249954
 -4.2278973318575099 39.8692747573272612 28.6327538495249954
 -7.0465094654833562 44.7512551634787386 28.6327538495249954
 -21.1394430935233544 44.7512551634787386 28.6327538495249954
 59.1905576478242708 42.3103015750729767 28.6327538495249954
 56.3719878338042619 42.3103015750729767 28.6327538495249954
 39.4603998338042672 42.3103015750729767 28.6327538495249954
 36.6417454618442662 42.3103015750729767 28.6327538495249954
 33.8231756478242644 42.3103015750729767 28.6327538495249954
 19.7301574618442501 42.3103015750729767 28.6327538495249954
 16.9115876478242626 42.3103015750729767 28.6327538495249954
 14.0930178338042680 42.3103015750729767 28.6327538495249954
 11.2743634618442599 42.3103015750729767 28.6327538495249954
 -0.0000003521757358 42.3103015750729767 28.6327538495249954
 -5.6372245381557384 42.3103015750729767 28.6327538495249954
 -8.4557943521757366 42.3103015750729767 28.6327538495249954
 -19.7301581661957393 42.3103015750729767 28.6327538495249954
 60.5998848541225001 39.8692747573272612 28.6327538495249954
 57.7813150401024913 39.8692747573272612 28.6327538495249954
 54.9626606681424974 39.8692747573272612 28.6327538495249954
 52.1440908541225028 39.8692747573272612 28.6327538495249954
 40.8697270401024966 39.8692747573272612 28.6327538495249954
 38.0510726681424956 39.8692747573272612 28.6327538495249954
 23.9581390401024947 39.8692747573272612 28.6327538495249954
 21.1394846681424795 39.8692747573272612 28.6327538495249954
 18.3209148541224920 39.8692747573272612 28.6327538495249954
 15.5023450401024956 39.8692747573272612 28.6327538495249954
  7.0465510401024849 39.8692747573272612 28.6327538495249954
 -1.4092429598975091 39.8692747573272612 28.6327538495249954
 59.1905577290959641 32.5463407627700150 28.6327538495249954
 47.9161939150759579 32.5463407627700150 28.6327538495249954
 42.2789697290959623 32.5463407627700150 28.6327538495249954
 33.8231757290959649 32.5463407627700150 28.6327538495249954
 14.0930179557111952 27.6644335859584807 28.6327538495249954
  2.8185695837512008 27.6644335859584807 28.6327538495249954
 -11.2743640442888005 27.6644335859584807 28.6327538495249954
 -14.0930184162487979 27.6644335859584807 28.6327538495249954
 69.0556789760294407 25.2234067682127652 28.6327538495249954
 57.7813151620094345 25.2234067682127652 28.6327538495249954
 54.9626607900494406 25.2234067682127652 28.6327538495249954
 43.6882969760294344 25.2234067682127652 28.6327538495249954
 40.8697271620094256 25.2234067682127652 28.6327538495249954
 26.7767089760294326 25.2234067682127652 28.6327538495249954
 23.9581391620094379 25.2234067682127652 28.6327538495249954
 12.6836907900494289 25.2234067682127652 28.6327538495249954
  7.0465511620094325 25.2234067682127652 28.6327538495249954
 -1.4092428379905699 25.2234067682127652 28.6327538495249954
 -4.2278972099505676 25.2234067682127652 28.6327538495249954
 -9.8650368379905675 25.2234067682127652 28.6327538495249954
 -12.6836912099505668 25.2234067682127652 28.6327538495249954
 56.3719457173770593 22.7824531798069998 28.6327538495249954
 53.5533759033570504 22.7824531798069998 28.6327538495249954
 42.2790120893370442 22.7824531798069998 28.6327538495249954
 39.4603577173770574 22.7824531798069998 28.6327538495249954
 28.1859939033570512 22.7824531798069998 28.6327538495249954
 25.3674240893370566 22.7824531798069998 28.6327538495249954
 14.0929757173770476 22.7824531798069998 28.6327538495249954
 11.2744059033570529 22.7824531798069998 28.6327538495249954
  8.4558360893370512 22.7824531798069998 28.6327538495249954
  5.6371817173770493 22.7824531798069998 28.6327538495249954
 16.9115877697311987 27.6644335859584807 28.6327538495249954
 15.5023027204966439 44.7512551634787386 28.6327538495249954
 19.7301575837512004 27.6644335859584807 28.6327538495249954
 36.6417455837512094 27.6644335859584807 28.6327538495249954
 31.0046059150759525 32.5463407627700150 28.6327538495249954
 28.1860361010559650 32.5463407627700150 28.6327538495249954
 16.9115877290959595 32.5463407627700150 28.6327538495249954
 14.0930179150759578 32.5463407627700150 28.6327538495249954
  5.6372239150759640 32.5463407627700150 28.6327538495249954
 -2.8185700849240374 32.5463407627700150 28.6327538495249954
 -5.6371398989440404 32.5463407627700150 28.6327538495249954
 66.2370668424035927 30.1053871743642461 28.6327538495249954
 63.4184970283835838 30.1053871743642461 28.6327538495249954
 60.5998426564235899 30.1053871743642461 28.6327538495249954
 57.7812728424035953 30.1053871743642461 28.6327538495249954
 49.3254788424035837 30.1053871743642461 28.6327538495249954
 46.5069090283835891 30.1053871743642461 28.6327538495249954
 40.8696848424035863 30.1053871743642461 28.6327538495249954
 38.0511150283835775 30.1053871743642461 28.6327538495249954
 35.2324606564235907 30.1053871743642461 28.6327538495249954
 32.4138908424035748 30.1053871743642461 28.6327538495249954
 21.1395270283835863 30.1053871743642461 28.6327538495249954
 18.3208726564235782 30.1053871743642461 28.6327538495249954
 15.5023028424035783 30.1053871743642461 28.6327538495249954
  7.0465088424035836 30.1053871743642461 28.6327538495249954
  4.2279390283835818 30.1053871743642461 28.6327538495249954
 67.6463517697312113 27.6644335859584807 28.6327538495249954
 64.8277819557112025 27.6644335859584807 28.6327538495249954
 62.0091275837512086 27.6644335859584807 28.6327538495249954
 50.7347637697312024 27.6644335859584807 28.6327538495249954
 39.4603999557111962 27.6644335859584807 28.6327538495249954
 28.1859515837511907 27.6644335859584807 28.6327538495249954
 42.2789694040103896 71.6020375533019688 28.6327538495249954
