 H  O 
 1.0000000000000000
    84.5579400000000021    0.0000000000000000    0.0000000000000000
   -42.2789706095346958   73.2293399455724767    0.0000000000000000
     0.0000000000000000    0.0000000000000000   46.9039550000000034
 H   O  
 237 354
Cartesian
 45.0975817949951860 35.8010187766509844 28.1128704123049964
 16.9115876613693388 40.6829991828024689 28.1128704123049964
 52.1440908676675789 38.2419723650567462 28.1128704123049964
 43.6882968676675674 38.2419723650567462 28.1128704123049964
 35.2325028676675771 38.2419723650567462 28.1128704123049964
 26.7767088676675797 38.2419723650567462 28.1128704123049964
 15.5022604957075725 38.2419723650567462 28.1128704123049964
  7.0464664957075716 38.2419723650567462 28.1128704123049964
  1.4093268676675752 38.2419723650567462 28.1128704123049964
 -1.4093275042924258 38.2419723650567462 28.1128704123049964
 -7.0464671323324293 38.2419723650567462 28.1128704123049964
 -21.1394853183124276 38.2419723650567462 28.1128704123049964
 59.1905154230351869 35.8010187766509844 28.1128704123049964
 50.7347214230351895 35.8010187766509844 28.1128704123049964
 39.4603576090151904 35.8010187766509844 28.1128704123049964
 33.8231334230351877 35.8010187766509844 28.1128704123049964
 31.0045636090151895 35.8010187766509844 28.1128704123049964
 19.7301997949951904 35.8010187766509844 28.1128704123049964
 25.3673816613693432 40.6829991828024689 28.1128704123049964
 33.8231756613693406 40.6829991828024689 28.1128704123049964
 47.9161092894093343 40.6829991828024689 28.1128704123049964
 -23.9580974519382757 43.1239527712082307 28.1128704123049964
  4.2278966004158747 48.0059331773597151 28.1128704123049964
 -9.8651215855641290 48.0059331773597151 28.1128704123049964
 -12.6836913995841307 48.0059331773597151 28.1128704123049964
 -15.5023457715441282 48.0059331773597151 28.1128704123049964
 -21.1394853995841281 48.0059331773597151 28.1128704123049964
 33.8231756207340979 45.5649063596139996 28.1128704123049964
 31.0046058067141033 45.5649063596139996 28.1128704123049964
 25.3673816207341005 45.5649063596139996 28.1128704123049964
 -0.0000425769648080 35.8010187766509844 28.1128704123049964
 19.7301574347541049 45.5649063596139996 28.1128704123049964
  5.6372238067141032 45.5649063596139996 28.1128704123049964
  2.8185694347540982 45.5649063596139996 28.1128704123049964
 52.1440485480617184 43.1239527712082307 28.1128704123049964
 38.0510303620817112 43.1239527712082307 28.1128704123049964
  4.2278543620817208 43.1239527712082307 28.1128704123049964
 -1.4092852659582757 43.1239527712082307 28.1128704123049964
 -9.8650792659582809 43.1239527712082307 28.1128704123049964
 -18.3208732659582765 43.1239527712082307 28.1128704123049964
 16.9115876207341032 45.5649063596139996 28.1128704123049964
 -5.6371822050048115 35.8010187766509844 28.1128704123049964
 -19.7302003909848089 35.8010187766509844 28.1128704123049964
 35.2324183503628063 33.3600651882452155 28.1128704123049964
 26.7766666699686624 28.4780847820937346 28.1128704123049964
  9.8650786699686659 28.4780847820937346 28.1128704123049964
  7.0465088559486642 28.4780847820937346 28.1128704123049964
 -7.0465093300313377 28.4780847820937346 28.1128704123049964
 59.1905577832762830 26.0371311936879657 28.1128704123049964
 53.5533335972962803 26.0371311936879657 28.1128704123049964
 31.0045214113162864 26.0371311936879657 28.1128704123049964
 22.5487274113162819 26.0371311936879657 28.1128704123049964
 29.5952364839886641 28.4780847820937346 28.1128704123049964
 14.0929334113162810 26.0371311936879657 28.1128704123049964
 -11.2744485886837182 26.0371311936879657 28.1128704123049964
 63.4184548035945070 23.5961043759422537 28.1128704123049964
 35.2325029895745132 23.5961043759422537 28.1128704123049964
 29.5952788035945140 23.5961043759422537 28.1128704123049964
 21.1394848035945166 23.5961043759422537 28.1128704123049964
 15.5022606176145086 23.5961043759422537 28.1128704123049964
 -1.4093273823854895 23.5961043759422537 28.1128704123049964
 -9.8651213823854889 23.5961043759422537 28.1128704123049964
 11.2743635972962863 26.0371311936879657 28.1128704123049964
 49.3254364144358703 48.0059331773597151 28.1128704123049964
 32.4138908559486651 28.4780847820937346 28.1128704123049964
 43.6882546699686571 28.4780847820937346 28.1128704123049964
 15.5022605363428152 33.3600651882452155 28.1128704123049964
  4.2278967223228134 33.3600651882452155 28.1128704123049964
 -9.8651214636571893 33.3600651882452155 28.1128704123049964
 64.8277819286210502 30.9190383704995000 28.1128704123049964
 56.3719879286210457 30.9190383704995000 28.1128704123049964
 50.7347637426410429 30.9190383704995000 28.1128704123049964
 45.0975395566610331 30.9190383704995000 28.1128704123049964
 28.1859515566610455 30.9190383704995000 28.1128704123049964
 38.0510304839886544 28.4780847820937346 28.1128704123049964
 25.3673817426410437 30.9190383704995000 28.1128704123049964
 11.2743635566610401 30.9190383704995000 28.1128704123049964
  2.8185695566610427 30.9190383704995000 28.1128704123049964
 -5.6372244433389582 30.9190383704995000 28.1128704123049964
 -11.2743640713789581 30.9190383704995000 28.1128704123049964
 66.2370668559486688 28.4780847820937346 28.1128704123049964
 63.4184124839886536 28.4780847820937346 28.1128704123049964
 57.7812728559486644 28.4780847820937346 28.1128704123049964
 49.3254788559486528 28.4780847820937346 28.1128704123049964
 22.5488119286210420 30.9190383704995000 28.1128704123049964
 -28.1859945128917460 50.4468867657654769 28.1128704123049964
 -22.5487703269117468 50.4468867657654769 28.1128704123049964
 -14.0929763269117494 50.4468867657654769 28.1128704123049964
 31.0045633652013137 65.0927547548799765 28.1128704123049964
 28.1859935511813049 65.0927547548799765 28.1128704123049964
 19.7301995511813146 65.0927547548799765 28.1128704123049964
 16.9115451792213065 65.0927547548799765 28.1128704123049964
  5.6371813652013136 65.0927547548799765 28.1128704123049964
 -5.6371824488186855 65.0927547548799765 28.1128704123049964
 -8.4558368207786891 65.0927547548799765 28.1128704123049964
 -14.0929764488186855 65.0927547548799765 28.1128704123049964
 -35.2325037481063035 67.5337083432857384 28.1128704123049964
 -25.3674248207786874 65.0927547548799765 28.1128704123049964
 40.8696422925289298 62.6518011664742076 28.1128704123049964
 35.2324181065489270 62.6518011664742076 28.1128704123049964
 29.5952784785089271 62.6518011664742076 28.1128704123049964
 12.6836904785089395 62.6518011664742076 28.1128704123049964
  1.4092421065489333 62.6518011664742076 28.1128704123049964
 -7.0465518934510678 62.6518011664742076 28.1128704123049964
 -18.3209157074710660 62.6518011664742076 28.1128704123049964
 -21.1394855214910677 62.6518011664742076 28.1128704123049964
 43.6882121065489244 62.6518011664742076 28.1128704123049964
 -32.4139338934510661 62.6518011664742076 28.1128704123049964
 -23.9580553761463051 67.5337083432857384 28.1128704123049964
  1.4093266238536943 67.5337083432857384 28.1128704123049964
 12.6836481182678362 72.4156887494372228 28.1128704123049964
  4.2278541182678469 72.4156887494372228 28.1128704123049964
 -9.8650795097721549 72.4156887494372228 28.1128704123049964
 39.4603150455954648 69.9747351610314468 28.1128704123049964
 36.6417452315754701 69.9747351610314468 28.1128704123049964
 31.0045210455954674 69.9747351610314468 28.1128704123049964
 25.3673814175554639 69.9747351610314468 28.1128704123049964
 16.9115874175554666 69.9747351610314468 28.1128704123049964
 -18.3209157481063052 67.5337083432857384 28.1128704123049964
  2.8185692315754580 69.9747351610314468 28.1128704123049964
 -11.2744489544045354 69.9747351610314468 28.1128704123049964
 -16.9115885824445336 69.9747351610314468 28.1128704123049964
 -28.1860369544045355 69.9747351610314468 28.1128704123049964
 -31.0046067684245337 69.9747351610314468 28.1128704123049964
 -36.6418309544045329 69.9747351610314468 28.1128704123049964
 40.8696422518936870 67.5337083432857384 28.1128704123049964
 12.6836904378736932 67.5337083432857384 28.1128704123049964
  9.8651206238536986 67.5337083432857384 28.1128704123049964
 -5.6372247684245327 69.9747351610314468 28.1128704123049964
 70.4649639169021356 21.1551507875364884 28.1128704123049964
 31.0046056848071565 60.2107743487284921 28.1128704123049964
 22.5488116848071662 60.2107743487284921 28.1128704123049964
 -25.3673824605375984 55.3288671719169614 28.1128704123049964
 -31.0046066465175976 55.3288671719169614 28.1128704123049964
 52.1440907457606357 52.8878403541712458 28.1128704123049964
 49.3254363738006276 52.8878403541712458 28.1128704123049964
 38.0510725597806356 52.8878403541712458 28.1128704123049964
 35.2325027457606268 52.8878403541712458 28.1128704123049964
  9.8651207457606311 52.8878403541712458 28.1128704123049964
  4.2278965597806355 52.8878403541712458 28.1128704123049964
 -14.0930186465175975 55.3288671719169614 28.1128704123049964
 -1.4093276261993704 52.8878403541712458 28.1128704123049964
 50.7347213011282463 50.4468867657654769 28.1128704123049964
 42.2789273011282489 50.4468867657654769 28.1128704123049964
 39.4603574871082543 50.4468867657654769 28.1128704123049964
 31.0045634871082498 50.4468867657654769 28.1128704123049964
 28.1859936730882552 50.4468867657654769 28.1128704123049964
 19.7301996730882578 50.4468867657654769 28.1128704123049964
 16.9115453011282568 50.4468867657654769 28.1128704123049964
 -5.6371823269117440 50.4468867657654769 28.1128704123049964
 -9.8651216261993682 52.8878403541712458 28.1128704123049964
 25.3673814988271609 60.2107743487284921 28.1128704123049964
 -11.2744488324975958 55.3288671719169614 28.1128704123049964
 16.9115875394624062 55.3288671719169614 28.1128704123049964
 14.0930176848071671 60.2107743487284921 28.1128704123049964
 -0.0000005011728327 60.2107743487284921 28.1128704123049964
 -2.8185703151928343 60.2107743487284921 28.1128704123049964
 -5.6372246871528393 60.2107743487284921 28.1128704123049964
 -16.9115885011728366 60.2107743487284921 28.1128704123049964
 -22.5488126871528358 60.2107743487284921 28.1128704123049964
 49.3254786121347877 57.7698207603227232 28.1128704123049964
 46.5068242401747796 57.7698207603227232 28.1128704123049964
 -8.4557944605375948 55.3288671719169614 28.1128704123049964
 43.6882544261547849 57.7698207603227232 28.1128704123049964
 26.7766664261547831 57.7698207603227232 28.1128704123049964
 23.9580966121347885 57.7698207603227232 28.1128704123049964
 21.1394422401747804 57.7698207603227232 28.1128704123049964
 15.5023026121347893 57.7698207603227232 28.1128704123049964
  1.4092844261547897 57.7698207603227232 28.1128704123049964
 45.0975393534824036 55.3288671719169614 28.1128704123049964
 39.4603151675024009 55.3288671719169614 28.1128704123049964
 31.0045211675023928 55.3288671719169614 28.1128704123049964
 40.8696846121347903 57.7698207603227232 28.1128704123049964
 62.0091699169021311 21.1551507875364884 28.1128704123049964
 40.8696844902278471 72.4156887494372228 28.1128704123049964
 50.7347216668490617  6.5092827984219914 28.1128704123049964
 70.4649217192032182 11.3912632045734714 28.1128704123049964
 70.4649218004749116  1.6273023922705114 28.1128704123049964
 59.1905578645479835 16.2731703813850075 28.1128704123049964
 39.4604000505279870 16.2731703813850075 28.1128704123049964
 46.5068668442297550 18.7141971991307194 28.1128704123049964
 43.6882124722697469 18.7141971991307194 28.1128704123049964
 66.2370247395214449  8.9502363868277595 28.1128704123049964
 76.1021459051832210 11.3912632045734714 28.1128704123049964
  1.4093271114814494  8.9502363868277595 28.1128704123049964
 40.8696849778556057 13.8322167929792403 28.1128704123049964
 32.4138486582497549 18.7141971991307194 28.1128704123049964
 -7.0465092081243990 13.8322167929792403 28.1128704123049964
 81.7393701724349171  1.6273023922705114 28.1128704123049964
  4.2278969661366892  4.0683292100162243 28.1128704123049964
 18.3208304722697477 18.7141971991307194 28.1128704123049964
 15.5022606582497549 18.7141971991307194 28.1128704123049964
 -1.4092850221444004 13.8322167929792403 28.1128704123049964
 63.4184549661366859  4.0683292100162243 28.1128704123049964
 12.6836486058956019 13.8322167929792403 28.1128704123049964
 18.3209151114814510  8.9502363868277595 28.1128704123049964
 50.7347638645479790 16.2731703813850075 28.1128704123049964
 66.2370247801566876  4.0683292100162243 28.1128704123049964
  7.0465089778555976 13.8322167929792403 28.1128704123049964
 57.7812306582497541 18.7141971991307194 28.1128704123049964
 70.4649216785679755 16.2731703813850075 28.1128704123049964
 43.6882971114814538  8.9502363868277595 28.1128704123049964
 32.4138487801566981  4.0683292100162243 28.1128704123049964
 46.5068669255014484  8.9502363868277595 28.1128704123049964
  9.8651211114814483  8.9502363868277595 28.1128704123049964
 35.2324607918756030 13.8322167929792403 28.1128704123049964
 -2.8186121471709296  6.5092827984219914 28.1128704123049964
 40.8696427801566955  4.0683292100162243 28.1128704123049964
 62.0091277192032209 11.3912632045734714 28.1128704123049964
 57.7812307801566902  4.0683292100162243 28.1128704123049964
 56.3719035332232110 11.3912632045734714 28.1128704123049964
 28.1859517192032243 11.3912632045734714 28.1128704123049964
  8.4557938645479798 16.2731703813850075 28.1128704123049964
 -0.0000001354520196 16.2731703813850075 28.1128704123049964
 19.7301577192032234 11.3912632045734714 28.1128704123049964
 31.0045638528290759  6.5092827984219914 28.1128704123049964
 36.6417457192032217 11.3912632045734714 28.1128704123049964
 -5.6372243214320203 16.2731703813850075 28.1128704123049964
 19.7301999169021336 21.1551507875364884 28.1128704123049964
 14.0929335332232206 11.3912632045734714 28.1128704123049964
 11.2744059169021327 21.1551507875364884 28.1128704123049964
 39.4603155332232234 11.3912632045734714 28.1128704123049964
 16.9115456668490722  6.5092827984219914 28.1128704123049964
 22.5488121724349213  1.6273023922705114 28.1128704123049964
 -2.8186544667767790 11.3912632045734714 28.1128704123049964
  2.8186119169021282 21.1551507875364884 28.1128704123049964
 22.5487698528290750  6.5092827984219914 28.1128704123049964
 28.1859518004749177  1.6273023922705114 28.1128704123049964
 73.2835338528290663  6.5092827984219914 28.1128704123049964
 53.5533337192032164 11.3912632045734714 28.1128704123049964
 70.4649640388090717  6.5092827984219914 28.1128704123049964
 69.0556367918755996 13.8322167929792403 28.1128704123049964
 47.9161095332232136 11.3912632045734714 28.1128704123049964
 42.2789699864549249  1.6273023922705114 28.1128704123049964
 42.2789699051832244 11.3912632045734714 28.1128704123049964
 71.8742066058955942 13.8322167929792403 28.1128704123049964
 66.2370246582497515 18.7141971991307194 28.1128704123049964
 -32.4138915873902960 59.3971231525932382 28.6327538495249954
 14.0929758392839890  8.1365851906925037 28.6327538495249954
  0.0000422112439907  8.1365851906925037 28.6327538495249954
 77.5114731385716169  5.6956316022867357 28.6327538495249954
 23.9581389181955480 54.5151427464417537 28.6327538495249954
 -2.8186121607160102  8.1365851906925037 28.6327538495249954
 26.7767087322155568 54.5151427464417537 28.6327538495249954
 11.2743633399373131 56.9561695641874692 28.6327538495249954
 54.9626609525916123  5.6956316022867357 28.6327538495249954
 69.0556791385716195  5.6956316022867357 28.6327538495249954
 63.4184549525916097  5.6956316022867357 28.6327538495249954
 -2.8185702881026811 56.9561695641874692 28.6327538495249954
 43.6882967322155622 54.5151427464417537 28.6327538495249954
  5.6371818392839907  8.1365851906925037 28.6327538495249954
 46.5068665462355568 54.5151427464417537 28.6327538495249954
 19.7301573399373318 56.9561695641874692 28.6327538495249954
 -0.0000004740826793 56.9561695641874692 28.6327538495249954
 49.3255209181955507 54.5151427464417537 28.6327538495249954
 -8.4557944740826727 56.9561695641874692 28.6327538495249954
 35.2325027322155506 54.5151427464417537 28.6327538495249954
  5.6372237118973310 56.9561695641874692 28.6327538495249954
 60.5998850166646719 20.3414995914012344 28.6327538495249954
 -4.2278974537644496 54.5151427464417537 28.6327538495249954
 -22.5487703404568300 52.0741891580359919 28.6327538495249954
 -25.3673401544768282 52.0741891580359919 28.6327538495249954
 -28.1859945264368292 52.0741891580359919 28.6327538495249954
 52.1440907728507952 49.6332355696302230 28.6327538495249954
 78.9207580252639929  8.1365851906925037 28.6327538495249954
 46.5068665868708067 49.6332355696302230 28.6327538495249954
 43.6882967728507978 49.6332355696302230 28.6327538495249954
 -4.2278970880436288 10.5775387790982709 28.6327538495249954
 -19.7302005264368283 52.0741891580359919 28.6327538495249954
 32.4138484008907994 49.6332355696302230 28.6327538495249954
 26.7767087728507853 49.6332355696302230 28.6327538495249954
 23.9580544008907985 49.6332355696302230 28.6327538495249954
 21.1394845868707826 49.6332355696302230 28.6327538495249954
 15.5023452839163713 10.5775387790982709 28.6327538495249954
 15.5022604008907816 49.6332355696302230 28.6327538495249954
 12.6836905868707941 49.6332355696302230 28.6327538495249954
  9.8651207728507995 49.6332355696302230 28.6327538495249954
  7.0464664008907913 49.6332355696302230 28.6327538495249954
 12.6836909119563703 10.5775387790982709 28.6327538495249954
 12.6836905462355407 54.5151427464417537 28.6327538495249954
 -16.9115461544768308 52.0741891580359919 28.6327538495249954
 -8.4557521544768282 52.0741891580359919 28.6327538495249954
 22.5487698392839881  8.1365851906925037 28.6327538495249954
 25.3674242112439856  8.1365851906925037 28.6327538495249954
 28.1859940252639873  8.1365851906925037 28.6327538495249954
 -21.1394854537644470 54.5151427464417537 28.6327538495249954
 39.4603578392839793  8.1365851906925037 28.6327538495249954
 -26.7766250818044469 54.5151427464417537 28.6327538495249954
 42.2790122112439946  8.1365851906925037 28.6327538495249954
 45.0975816595431809 52.0741891580359919 28.6327538495249954
 -14.0929763404568273 52.0741891580359919 28.6327538495249954
 42.2790118455231720 52.0741891580359919 28.6327538495249954
 50.7348062112439848  8.1365851906925037 28.6327538495249954
 25.3674238455231631 52.0741891580359919 28.6327538495249954
 22.5487694735631763 52.0741891580359919 28.6327538495249954
 19.7301996595431604 52.0741891580359919 28.6327538495249954
 14.0929754735631594 52.0741891580359919 28.6327538495249954
 53.5533760252639937  8.1365851906925037 28.6327538495249954
 56.3719458392839954  8.1365851906925037 28.6327538495249954
 59.1906002112439964  8.1365851906925037 28.6327538495249954
 -26.7766674014102968 59.3971231525932382 28.6327538495249954
 47.9161518392839980  8.1365851906925037 28.6327538495249954
 15.5022607666116095  5.6956316022867357 28.6327538495249954
 46.5068669525916008  5.6956316022867357 28.6327538495249954
 60.5998429002374621  0.8136511961352557 28.6327538495249954
 -12.6836915756713875 69.1610107355562462 28.6327538495249954
 63.4184972721974631  0.8136511961352557 28.6327538495249954
 -26.7766252037113830 69.1610107355562462 28.6327538495249954
 66.2370670862174649  0.8136511961352557 28.6327538495249954
 -32.4138493896913857 69.1610107355562462 28.6327538495249954
 74.6928610862174764  0.8136511961352557 28.6327538495249954
 45.0975815376362448 66.7200571471504844 28.6327538495249954
 80.3300852721974650  0.8136511961352557 28.6327538495249954
 43.6882549002374461  0.8136511961352557 28.6327538495249954
 36.6417875376362474 66.7200571471504844 28.6327538495249954
 31.0045633516562411 66.7200571471504844 28.6327538495249954
 28.1859935376362323 66.7200571471504844 28.6327538495249954
 25.3674237236162377 66.7200571471504844 28.6327538495249954
 22.5487693516562366 66.7200571471504844 28.6327538495249954
 14.0929753516562410 66.7200571471504844 28.6327538495249954
 -0.0000000270901599  3.2546047845410229 28.6327538495249954
 -8.4557522763837714 66.7200571471504844 28.6327538495249954
 -11.2744066483437688 66.7200571471504844 28.6327538495249954
 -14.0929764623637634 66.7200571471504844 28.6327538495249954
 33.8232177236162386 66.7200571471504844 28.6327538495249954
 -1.4092432037113782 69.1610107355562462 28.6327538495249954
  7.0465507962886189 69.1610107355562462 28.6327538495249954
  9.8651206103086064 69.1610107355562462 28.6327538495249954
  9.8650789002374601  0.8136511961352557 28.6327538495249954
  8.4557934040103735 71.6020375533019688 28.6327538495249954
 15.5023030862174611  0.8136511961352557 28.6327538495249954
  2.8185692180303707 71.6020375533019688 28.6327538495249954
 -0.0000005959896168 71.6020375533019688 28.6327538495249954
 18.3208729002374611  0.8136511961352557 28.6327538495249954
 -16.9115885959896168 71.6020375533019688 28.6327538495249954
 -19.7301584100096186 71.6020375533019688 28.6327538495249954
 -22.5488127819696196 71.6020375533019688 28.6327538495249954
 -25.3673825959896213 71.6020375533019688 28.6327538495249954
 -28.1859524100096195 71.6020375533019688 28.6327538495249954
 -31.0046067819696169 71.6020375533019688 28.6327538495249954
 -33.8231765959896151 71.6020375533019688 28.6327538495249954
 -36.6417464100096169 71.6020375533019688 28.6327538495249954
 -39.4604007819696179 71.6020375533019688 28.6327538495249954
 23.9580970862174638  0.8136511961352557 28.6327538495249954
 32.4138910862174541  0.8136511961352557 28.6327538495249954
 23.9581387962886225 69.1610107355562462 28.6327538495249954
 21.1394844243286215 69.1610107355562462 28.6327538495249954
 38.0511152721974639  0.8136511961352557 28.6327538495249954
 15.5023447962886092 69.1610107355562462 28.6327538495249954
 19.7302423448698399  3.2546047845410229 28.6327538495249954
 -18.3208734014102959 59.3971231525932382 28.6327538495249954
 -22.5487704623637697 66.7200571471504844 28.6327538495249954
 -28.1859946483437653 66.7200571471504844 28.6327538495249954
 -1.4093272333883895  5.6956316022867357 28.6327538495249954
 -2.8185703287379194 61.8380767409990000 28.6327538495249954
  1.4093271385716108  5.6956316022867357 28.6327538495249954
  4.2278969525916086  5.6956316022867357 28.6327538495249954
  7.0464667666116103  5.6956316022867357 28.6327538495249954
 -22.5487281427579163 61.8380767409990000 28.6327538495249954
 -28.1859523287379155 61.8380767409990000 28.6327538495249954
 -31.0045221427579136 61.8380767409990000 28.6327538495249954
 12.6836909525916113  5.6956316022867357 28.6327538495249954
  2.8186538572420905 61.8380767409990000 28.6327538495249954
 43.6882544126097088 59.3971231525932382 28.6327538495249954
  4.2278965868707896 49.6332355696302230 28.6327538495249954
 29.5953207845697079 59.3971231525932382 28.6327538495249954
 26.7766664126097069 59.3971231525932382 28.6327538495249954
 26.7767091385716043  5.6956316022867357 28.6327538495249954
 12.6837327845697061 59.3971231525932382 28.6327538495249954
  9.8650784126096909 59.3971231525932382 28.6327538495249954
 35.2325031385716159  5.6956316022867357 28.6327538495249954
 43.6882971385716132  5.6956316022867357 28.6327538495249954
 -12.6836492154302967 59.3971231525932382 28.6327538495249954
 38.0511147845697053 59.3971231525932382 28.6327538495249954
  8.4557934852820722 61.8380767409990000 28.6327538495249954
 16.9115874852820909 61.8380767409990000 28.6327538495249954
 19.7302418572420777 61.8380767409990000 28.6327538495249954
 -31.0045644623637671 66.7200571471504844 28.6327538495249954
 32.4138482789838704 64.2791035587447084 28.6327538495249954
 36.6418303448698452  3.2546047845410229 28.6327538495249954
 26.7767086509438528 64.2791035587447084 28.6327538495249954
 21.1394844649638500 64.2791035587447084 28.6327538495249954
 45.0976243448698426  3.2546047845410229 28.6327538495249954
 47.9161941588898301  3.2546047845410229 28.6327538495249954
 15.5022602789838597 64.2791035587447084 28.6327538495249954
  9.8651206509438563 64.2791035587447084 28.6327538495249954
  7.0464662789838490 64.2791035587447084 28.6327538495249954
 53.5534183448698329  3.2546047845410229 28.6327538495249954
 56.3719881588898417  3.2546047845410229 28.6327538495249954
 -9.8651217210161430 64.2791035587447084 28.6327538495249954
 -18.3209157210161457 64.2791035587447084 28.6327538495249954
 -29.5952795350361448 64.2791035587447084 28.6327538495249954
 47.9161936712620928 61.8380767409990000 28.6327538495249954
 67.6463519729098550  3.2546047845410229 28.6327538495249954
 73.2835761588898578  3.2546047845410229 28.6327538495249954
 39.4603996712620955 61.8380767409990000 28.6327538495249954
 76.1021459729098524  3.2546047845410229 28.6327538495249954
 78.9208003448698463  3.2546047845410229 28.6327538495249954
 31.0046061588898354  3.2546047845410229 28.6327538495249954
  1.4093267728507877 49.6332355696302230 28.6327538495249954
 -8.4557943928109793 47.1922087518845075 28.6327538495249954
 23.9581392839163634 10.5775387790982709 28.6327538495249954
 63.4184971502905270 15.4595191852497500 28.6327538495249954
 40.8696848424035863 30.1053871743642461 28.6327538495249954
 38.0511150283835775 30.1053871743642461 28.6327538495249954
 35.2324606564235907 30.1053871743642461 28.6327538495249954
 32.4138908424035748 30.1053871743642461 28.6327538495249954
 69.0556367783305234 15.4595191852497500 28.6327538495249954
 74.6928609643105261 15.4595191852497500 28.6327538495249954
 18.3208726564235782 30.1053871743642461 28.6327538495249954
 12.6837330283835765 30.1053871743642461 28.6327538495249954
 -8.4557941489970982 17.9004727736555189 28.6327538495249954
 -5.6371397770370981 17.9004727736555189 28.6327538495249954
 -1.4092851575964171 30.1053871743642461 28.6327538495249954
 -2.8185699630171004 17.9004727736555189 28.6327538495249954
 -0.0000001489970986 17.9004727736555189 28.6327538495249954
 -12.6836489716164174 30.1053871743642461 28.6327538495249954
 -15.5023033435764184 30.1053871743642461 28.6327538495249954
  5.6372240369829028 17.9004727736555189 28.6327538495249954
 14.0930180369829028 17.9004727736555189 28.6327538495249954
 62.0091275837512086 27.6644335859584807 28.6327538495249954
 60.5998427783305331 15.4595191852497500 28.6327538495249954
 52.1440486564235925 30.1053871743642461 28.6327538495249954
 60.5998426564235899 30.1053871743642461 28.6327538495249954
 54.9627031502905297 15.4595191852497500 28.6327538495249954
 -18.3209154772022664 34.9873675805157234 28.6327538495249954
 64.8277819150759740 32.5463407627700150 28.6327538495249954
 62.0092121010559580 32.5463407627700150 28.6327538495249954
 59.1905577290959641 32.5463407627700150 28.6327538495249954
 56.3719879150759695 32.5463407627700150 28.6327538495249954
 53.5534181010559607 32.5463407627700150 28.6327538495249954
 50.7347637290959668 32.5463407627700150 28.6327538495249954
 47.9161939150759579 32.5463407627700150 28.6327538495249954
 45.0976241010559633 32.5463407627700150 28.6327538495249954
 45.0975395837512067 27.6644335859584807 28.6327538495249954
 36.6418301010559517 32.5463407627700150 28.6327538495249954
 33.8231757290959649 32.5463407627700150 28.6327538495249954
 28.1860361010559650 32.5463407627700150 28.6327538495249954
 46.5069091502905181 15.4595191852497500 28.6327538495249954
  8.4557937290959586 32.5463407627700150 28.6327538495249954
 49.3254789643105269 15.4595191852497500 28.6327538495249954
 -0.0000002709040391 32.5463407627700150 28.6327538495249954
 -8.4557942709040379 32.5463407627700150 28.6327538495249954
 -14.0929338989440378 32.5463407627700150 28.6327538495249954
 -16.9115882709040370 32.5463407627700150 28.6327538495249954
 43.6882547783305313 15.4595191852497500 28.6327538495249954
 19.7302422229628966 17.9004727736555189 28.6327538495249954
 42.2789697697312050 27.6644335859584807 28.6327538495249954
 22.5488120369828984 17.9004727736555189 28.6327538495249954
  4.2278967900494315 25.2234067682127652 28.6327538495249954
 -4.2278972099505676 25.2234067682127652 28.6327538495249954
 -7.0464670239705693 25.2234067682127652 28.6327538495249954
 64.8277397173770566 22.7824531798069998 28.6327538495249954
  7.0464666447046698 20.3414995914012344 28.6327538495249954
 56.3719457173770593 22.7824531798069998 28.6327538495249954
 50.7348060893370558 22.7824531798069998 28.6327538495249954
 45.0975819033570531 22.7824531798069998 28.6327538495249954
 31.0045637173770388 22.7824531798069998 28.6327538495249954
  9.8651209760294343 25.2234067682127652 28.6327538495249954
 25.3674240893370566 22.7824531798069998 28.6327538495249954
 29.5952788306846699 20.3414995914012344 28.6327538495249954
 32.4138486447046574 20.3414995914012344 28.6327538495249954
 14.0929757173770476 22.7824531798069998 28.6327538495249954
  0.0000420893370479 22.7824531798069998 28.6327538495249954
 38.0510728306846602 20.3414995914012344 28.6327538495249954
 -5.6371820966429516 22.7824531798069998 28.6327538495249954
 46.5068668306846718 20.3414995914012344 28.6327538495249954
 49.3254366447046735 20.3414995914012344 28.6327538495249954
 52.1440910166646745 20.3414995914012344 28.6327538495249954
 22.5487697173770485 22.7824531798069998 28.6327538495249954
 -12.6836912912222672 34.9873675805157234 28.6327538495249954
 -1.4093273552953294 20.3414995914012344 28.6327538495249954
 18.3209149760294281 25.2234067682127652 28.6327538495249954
 33.8231757697311934 27.6644335859584807 28.6327538495249954
 28.1860362229629082 17.9004727736555189 28.6327538495249954
 36.6418302229629020 17.9004727736555189 28.6327538495249954
 25.3673817697312032 27.6644335859584807 28.6327538495249954
 22.5488119557112086 27.6644335859584807 28.6327538495249954
 19.7301575837512004 27.6644335859584807 28.6327538495249954
 14.0930179557111952 27.6644335859584807 28.6327538495249954
 -0.0000002302687971 27.6644335859584807 28.6327538495249954
 47.9161940369829011 17.9004727736555189 28.6327538495249954
 -7.0464669833353293 20.3414995914012344 28.6327538495249954
 -8.4557942302688005 27.6644335859584807 28.6327538495249954
 66.2371091620094319 25.2234067682127652 28.6327538495249954
 63.4184547900494380 25.2234067682127652 28.6327538495249954
 62.0092122229629013 17.9004727736555189 28.6327538495249954
 43.6882969760294344 25.2234067682127652 28.6327538495249954
 40.8697271620094256 25.2234067682127652 28.6327538495249954
 32.4139331620094353 25.2234067682127652 28.6327538495249954
 29.5952787900494201 25.2234067682127652 28.6327538495249954
 26.7767089760294326 25.2234067682127652 28.6327538495249954
 73.2835760369829075 17.9004727736555189 28.6327538495249954
 69.0556789760294407 25.2234067682127652 28.6327538495249954
 38.0511151502905278 15.4595191852497500 28.6327538495249954
 -4.2278972912222672 34.9873675805157234 28.6327538495249954
 -1.4093274772022688 34.9873675805157234 28.6327538495249954
 74.6929032839163654 10.5775387790982709 28.6327538495249954
  1.4092845345166412 44.7512551634787386 28.6327538495249954
 -12.6836490935233588 44.7512551634787386 28.6327538495249954
 -15.5023034654833562 44.7512551634787386 28.6327538495249954
 56.3719878338042619 42.3103015750729767 28.6327538495249954
 50.7347636478242734 42.3103015750729767 28.6327538495249954
 42.2789696478242618 42.3103015750729767 28.6327538495249954
 36.6417454618442662 42.3103015750729767 28.6327538495249954
 33.8231756478242644 42.3103015750729767 28.6327538495249954
  7.0465087204966403 44.7512551634787386 28.6327538495249954
 31.0046058338042556 42.3103015750729767 28.6327538495249954
 25.3673816478242529 42.3103015750729767 28.6327538495249954
 22.5488118338042653 42.3103015750729767 28.6327538495249954
 19.7301574618442501 42.3103015750729767 28.6327538495249954
 14.0930178338042680 42.3103015750729767 28.6327538495249954
  8.4557936478242581 42.3103015750729767 28.6327538495249954
  5.6372238338042564 42.3103015750729767 28.6327538495249954
  2.8185697056581414 13.0185655968439828 28.6327538495249954
 -0.0000003521757358 42.3103015750729767 28.6327538495249954
 -5.6372245381557384 42.3103015750729767 28.6327538495249954
 28.1859514618442688 42.3103015750729767 28.6327538495249954
  8.4557938916381428 13.0185655968439828 28.6327538495249954
 15.5023027204966439 44.7512551634787386 28.6327538495249954
 21.1395269064766467 44.7512551634787386 28.6327538495249954
 -18.3209155991092061 49.6332355696302230 28.6327538495249954
 29.5952789119563668 10.5775387790982709 28.6327538495249954
 -23.9580552271492060 49.6332355696302230 28.6327538495249954
 32.4139332839163785 10.5775387790982709 28.6327538495249954
 53.5534179791490246 47.1922087518845075 28.6327538495249954
 50.7347636071890307 47.1922087518845075 28.6327538495249954
 47.9161937931690360 47.1922087518845075 28.6327538495249954
 45.0976239791490272 47.1922087518845075 28.6327538495249954
 36.6418299791490298 47.1922087518845075 28.6327538495249954
 71.8742489119563714 10.5775387790982709 28.6327538495249954
  8.4557936071890190 47.1922087518845075 28.6327538495249954
 -2.8185702068309761 47.1922087518845075 28.6327538495249954
 57.7812306447046780 20.3414995914012344 28.6327538495249954
 40.8697272839163759 10.5775387790982709 28.6327538495249954
 -16.9115883928109767 47.1922087518845075 28.6327538495249954
 -19.7301582068309784 47.1922087518845075 28.6327538495249954
 -25.3673823928109776 47.1922087518845075 28.6327538495249954
 49.3254787204966547 44.7512551634787386 28.6327538495249954
 35.2324605345166475 44.7512551634787386 28.6327538495249954
 57.7813152839163777 10.5775387790982709 28.6327538495249954
 -0.0000003928109814 47.1922087518845075 28.6327538495249954
 -1.4093275991092098 49.6332355696302230 28.6327538495249954
 -14.0930185381557376 42.3103015750729767 28.6327538495249954
 16.9115878916381419 13.0185655968439828 28.6327538495249954
  2.8186117814501150 37.4283211689214923 28.6327538495249954
  4.2279391502905188 15.4595191852497500 28.6327538495249954
 -11.2744064045298860 37.4283211689214923 28.6327538495249954
 12.6837331502905215 15.4595191852497500 28.6327538495249954
 60.5998848947577358 34.9873675805157234 28.6327538495249954
 15.5023029643105232 15.4595191852497500 28.6327538495249954
 57.7812305227977419 34.9873675805157234 28.6327538495249954
 18.3208727783305179 15.4595191852497500 28.6327538495249954
 49.3254365227977445 34.9873675805157234 28.6327538495249954
 -4.2278548497094786 15.4595191852497500 28.6327538495249954
 22.5488115899903860 71.6020375533019688 28.6327538495249954
 21.1395271502905153 15.4595191852497500 28.6327538495249954
 26.7766667783305188 15.4595191852497500 28.6327538495249954
 29.5953211502905269 15.4595191852497500 28.6327538495249954
 23.9580545227977240 34.9873675805157234 28.6327538495249954
 32.4138909643105251 15.4595191852497500 28.6327538495249954
  9.8651208947577302 34.9873675805157234 28.6327538495249954
  4.2278967087777302 34.9873675805157234 28.6327538495249954
  1.4093268947577322 34.9873675805157234 28.6327538495249954
 35.2324607783305126 15.4595191852497500 28.6327538495249954
 43.6882968947577410 34.9873675805157234 28.6327538495249954
 -22.5488125381557367 42.3103015750729767 28.6327538495249954
 14.0929755954701115 37.4283211689214923 28.6327538495249954
 67.6463518916381474 13.0185655968439828 28.6327538495249954
 60.5998848541225001 39.8692747573272612 28.6327538495249954
 57.7813150401024913 39.8692747573272612 28.6327538495249954
 54.9626606681424974 39.8692747573272612 28.6327538495249954
 52.1440908541225028 39.8692747573272612 28.6327538495249954
 49.3255210401024939 39.8692747573272612 28.6327538495249954
 31.0046060776181456 13.0185655968439828 28.6327538495249954
 43.6882968541224912 39.8692747573272612 28.6327538495249954
 40.8697270401024966 39.8692747573272612 28.6327538495249954
 29.5952786681424982 39.8692747573272612 28.6327538495249954
 36.6417877814501125 37.4283211689214923 28.6327538495249954
 39.4604000776181465 13.0185655968439828 28.6327538495249954
 18.3209148541224920 39.8692747573272612 28.6327538495249954
 -4.2278973318575099 39.8692747573272612 28.6327538495249954
 -7.0464671458775081 39.8692747573272612 28.6327538495249954
 -9.8650369598975125 39.8692747573272612 28.6327538495249954
 -12.6836913318575100 39.8692747573272612 28.6327538495249954
 -15.5022611458775117 39.8692747573272612 28.6327538495249954
 -18.3208309598975099 39.8692747573272612 28.6327538495249954
 56.3719455954701161 37.4283211689214923 28.6327538495249954
 45.0975397056581500 13.0185655968439828 28.6327538495249954
 21.1394846681424795 39.8692747573272612 28.6327538495249954
  7.0465090862174584  0.8136511961352557 28.6327538495249954
