 H  O 
 1.0000000000000000
    84.5579400000000021    0.0000000000000000    0.0000000000000000
   -42.2789706095346958   73.2293399455724767    0.0000000000000000
     0.0000000000000000    0.0000000000000000   46.9039550000000034
 H   O  
 232 205
Cartesian
  4.2278966816875769 38.2419723650567462 28.1128704123049964
 54.9626184839886562 28.4780847820937346 28.1128704123049964
 63.4184124839886536 28.4780847820937346 28.1128704123049964
 36.6417453128471564 60.2107743487284921 28.1128704123049964
 19.7301573128471581 60.2107743487284921 28.1128704123049964
 14.0930179286210446 30.9190383704995000 28.1128704123049964
 16.9115874988271635 60.2107743487284921 28.1128704123049964
 19.7301575566610410 30.9190383704995000 28.1128704123049964
 14.0930176848071671 60.2107743487284921 28.1128704123049964
 28.1859515566610455 30.9190383704995000 28.1128704123049964
 45.0975395566610331 30.9190383704995000 28.1128704123049964
 50.7347637426410429 30.9190383704995000 28.1128704123049964
 59.1905577426410403 30.9190383704995000 28.1128704123049964
  5.6372236848071626 60.2107743487284921 28.1128704123049964
 40.8696848559486625 28.4780847820937346 28.1128704123049964
 64.8277819286210502 30.9190383704995000 28.1128704123049964
 -12.6836912776771893 33.3600651882452155 28.1128704123049964
 -1.4093274636571897 33.3600651882452155 28.1128704123049964
  1.4092423503628120 33.3600651882452155 28.1128704123049964
  7.0464665363428152 33.3600651882452155 28.1128704123049964
 15.5022605363428152 33.3600651882452155 28.1128704123049964
 18.3208303503628116 33.3600651882452155 28.1128704123049964
 43.6882123503628037 33.3600651882452155 28.1128704123049964
 52.1440063503628082 33.3600651882452155 28.1128704123049964
 54.9626607223228163 33.3600651882452155 28.1128704123049964
 57.7812305363428109 33.3600651882452155 28.1128704123049964
 63.4184547223228137 33.3600651882452155 28.1128704123049964
 -11.2744063909848098 35.8010187766509844 28.1128704123049964
 -16.9115885011728366 60.2107743487284921 28.1128704123049964
 -15.5023456496371885 33.3600651882452155 28.1128704123049964
 38.0510304839886544 28.4780847820937346 28.1128704123049964
 32.4138908559486651 28.4780847820937346 28.1128704123049964
 26.7766666699686624 28.4780847820937346 28.1128704123049964
 43.6882121065489244 62.6518011664742076 28.1128704123049964
 35.2324181065489270 62.6518011664742076 28.1128704123049964
  9.8651209895745122 23.5961043759422537 28.1128704123049964
 23.9580546176145113 23.5961043759422537 28.1128704123049964
 35.2325029895745132 23.5961043759422537 28.1128704123049964
 40.8696426176145025 23.5961043759422537 28.1128704123049964
 43.6882969895745106 23.5961043759422537 28.1128704123049964
 26.7766241065489261 62.6518011664742076 28.1128704123049964
 54.9626608035945097 23.5961043759422537 28.1128704123049964
 63.4184548035945070 23.5961043759422537 28.1128704123049964
 69.0556789895745169 23.5961043759422537 28.1128704123049964
 18.3208301065489287 62.6518011664742076 28.1128704123049964
 -11.2744485886837182 26.0371311936879657 28.1128704123049964
  1.4092421065489333 62.6518011664742076 28.1128704123049964
 -2.8186545886837178 26.0371311936879657 28.1128704123049964
 25.3673393011282471 50.4468867657654769 28.1128704123049964
 -4.2278975214910632 62.6518011664742076 28.1128704123049964
  8.4557937832762846 26.0371311936879657 28.1128704123049964
 -7.0465518934510678 62.6518011664742076 28.1128704123049964
 14.0929334113162810 26.0371311936879657 28.1128704123049964
 -12.6836915214910633 62.6518011664742076 28.1128704123049964
 47.9161936848071619 60.2107743487284921 28.1128704123049964
 50.7347637832762715 26.0371311936879657 28.1128704123049964
 59.1905577832762830 26.0371311936879657 28.1128704123049964
 -15.5023033300313369 28.4780847820937346 28.1128704123049964
 -9.8650791440513395 28.4780847820937346 28.1128704123049964
 -7.0465093300313377 28.4780847820937346 28.1128704123049964
 -1.4092851440513405 28.4780847820937346 28.1128704123049964
  9.8650786699686659 28.4780847820937346 28.1128704123049964
 36.6417877949951958 35.8010187766509844 28.1128704123049964
 42.2789274230351850 35.8010187766509844 28.1128704123049964
 -25.3673825011728376 60.2107743487284921 28.1128704123049964
 50.7347214230351895 35.8010187766509844 28.1128704123049964
 52.1440485480617184 43.1239527712082307 28.1128704123049964
 52.1440907457606357 52.8878403541712458 28.1128704123049964
 46.5068665597806330 52.8878403541712458 28.1128704123049964
 43.6882967457606384 52.8878403541712458 28.1128704123049964
 -11.2743641932859031 45.5649063596139996 28.1128704123049964
  5.6372238067141032 45.5649063596139996 28.1128704123049964
  8.4557936207341040 45.5649063596139996 28.1128704123049964
 14.0930178067140996 45.5649063596139996 28.1128704123049964
 22.5488118067141059 45.5649063596139996 28.1128704123049964
 28.1859514347540951 45.5649063596139996 28.1128704123049964
 29.5952785597806276 52.8878403541712458 28.1128704123049964
 36.6417454347540925 45.5649063596139996 28.1128704123049964
 47.9161938067141051 45.5649063596139996 28.1128704123049964
 50.7347636207340997 45.5649063596139996 28.1128704123049964
 -7.0464672542393672 52.8878403541712458 28.1128704123049964
 -15.5023457715441282 48.0059331773597151 28.1128704123049964
 -23.9580552542393690 52.8878403541712458 28.1128704123049964
 -26.7767096261993700 52.8878403541712458 28.1128704123049964
  9.8650362284558710 48.0059331773597151 28.1128704123049964
 29.5952786004158739 48.0059331773597151 28.1128704123049964
 38.0510726004158641 48.0059331773597151 28.1128704123049964
 43.6882122284558676 48.0059331773597151 28.1128704123049964
 54.9626606004158731 48.0059331773597151 28.1128704123049964
 -25.3674246988717442 50.4468867657654769 28.1128704123049964
 -19.7302005128917450 50.4468867657654769 28.1128704123049964
 -11.2744065128917477 50.4468867657654769 28.1128704123049964
 -2.8186125128917427 50.4468867657654769 28.1128704123049964
  5.6371814871082586 50.4468867657654769 28.1128704123049964
 11.2744056730882534 50.4468867657654769 28.1128704123049964
 -16.9115884605376010 55.3288671719169614 28.1128704123049964
 -7.0464670104254905 23.5961043759422537 28.1128704123049964
 -11.2744488324975958 55.3288671719169614 28.1128704123049964
  7.0465087340417254 43.1239527712082307 28.1128704123049964
 59.1905154230351869 35.8010187766509844 28.1128704123049964
 -28.1859523151928357 60.2107743487284921 28.1128704123049964
 -15.5022611323324266 38.2419723650567462 28.1128704123049964
 -9.8651215042924267 38.2419723650567462 28.1128704123049964
 15.5023026121347893 57.7698207603227232 28.1128704123049964
  1.4092844261547897 57.7698207603227232 28.1128704123049964
  9.8651208676675761 38.2419723650567462 28.1128704123049964
 18.3209148676675753 38.2419723650567462 28.1128704123049964
 23.9580544957075787 38.2419723650567462 28.1128704123049964
 26.7767088676675797 38.2419723650567462 28.1128704123049964
 -21.1395277598252136 57.7698207603227232 28.1128704123049964
 32.4138484957075690 38.2419723650567462 28.1128704123049964
 -29.5953217598252145 57.7698207603227232 28.1128704123049964
 42.2789695394624090 55.3288671719169614 28.1128704123049964
 54.9626606816875736 38.2419723650567462 28.1128704123049964
 39.4603151675024009 55.3288671719169614 28.1128704123049964
 -19.7302427105906588 40.6829991828024689 28.1128704123049964
 -16.9115883386306614 40.6829991828024689 28.1128704123049964
 33.8231755394623974 55.3288671719169614 28.1128704123049964
 33.8231756613693406 40.6829991828024689 28.1128704123049964
 22.5487271675023955 55.3288671719169614 28.1128704123049964
 47.9161092894093343 40.6829991828024689 28.1128704123049964
 59.1905576613693398 40.6829991828024689 28.1128704123049964
 11.2743633534824053 55.3288671719169614 28.1128704123049964
 -12.6837336379182783 43.1239527712082307 28.1128704123049964
  8.4557935394624035 55.3288671719169614 28.1128704123049964
 -7.0465094519382783 43.1239527712082307 28.1128704123049964
  1.4092845480617260 43.1239527712082307 28.1128704123049964
 -0.0000004605375943 55.3288671719169614 28.1128704123049964
 -8.4557944605375948 55.3288671719169614 28.1128704123049964
 -9.8651213823854889 23.5961043759422537 28.1128704123049964
  2.8185695972962814 26.0371311936879657 28.1128704123049964
 59.1905155449421230 21.1551507875364884 28.1128704123049964
 67.6463096668490635  6.5092827984219914 28.1128704123049964
 70.4649640388090717  6.5092827984219914 28.1128704123049964
 14.0929330455954638 69.9747351610314468 28.1128704123049964
  1.4093271114814494  8.9502363868277595 28.1128704123049964
  5.6371390455954664 69.9747351610314468 28.1128704123049964
  9.8651211114814483  8.9502363868277595 28.1128704123049964
 -14.0930187684245301 69.9747351610314468 28.1128704123049964
 35.2325031114814493  8.9502363868277595 28.1128704123049964
 46.5068669255014484  8.9502363868277595 28.1128704123049964
 52.1440911114814512  8.9502363868277595 28.1128704123049964
 54.9626609255014458  8.9502363868277595 28.1128704123049964
 -22.5488127684245363 69.9747351610314468 28.1128704123049964
 63.4184549255014502  8.9502363868277595 28.1128704123049964
 59.1905156668490591  6.5092827984219914 28.1128704123049964
 -31.0046067684245337 69.9747351610314468 28.1128704123049964
 -33.8232188207786848 65.0927547548799765 28.1128704123049964
 32.4138482518936897 67.5337083432857384 28.1128704123049964
 26.7767086238536862 67.5337083432857384 28.1128704123049964
 14.0929335332232206 11.3912632045734714 28.1128704123049964
 19.7301577192032234 11.3912632045734714 28.1128704123049964
 28.1859517192032243 11.3912632045734714 28.1128704123049964
 33.8231759051832199 11.3912632045734714 28.1128704123049964
 36.6417457192032217 11.3912632045734714 28.1128704123049964
 39.4603155332232234 11.3912632045734714 28.1128704123049964
 12.6836904378736932 67.5337083432857384 28.1128704123049964
 50.7347639051832218 11.3912632045734714 28.1128704123049964
 64.8276975332232155 11.3912632045734714 28.1128704123049964
 67.6463519051832236 11.3912632045734714 28.1128704123049964
 -5.6372242807967794 11.3912632045734714 28.1128704123049964
 73.2834915332232129 11.3912632045734714 28.1128704123049964
 16.9115874175554666 69.9747351610314468 28.1128704123049964
 39.4603578528290697  6.5092827984219914 28.1128704123049964
 38.0510301182678390 72.4156887494372228 28.1128704123049964
 29.5952361182678381 72.4156887494372228 28.1128704123049964
 36.6417458004749221  1.6273023922705114 28.1128704123049964
 42.2789699864549249  1.6273023922705114 28.1128704123049964
 50.7347639864549222  1.6273023922705114 28.1128704123049964
 56.3719881724349250  1.6273023922705114 28.1128704123049964
 59.1905579864549196  1.6273023922705114 28.1128704123049964
 21.1394421182678336 72.4156887494372228 28.1128704123049964
 12.6836481182678362 72.4156887494372228 28.1128704123049964
  4.2278969661366892  4.0683292100162243 28.1128704123049964
  9.8650783042478416 72.4156887494372228 28.1128704123049964
 12.6836909661366875  4.0683292100162243 28.1128704123049964
 15.5022607801566892  4.0683292100162243 28.1128704123049964
 22.5487270455954629 69.9747351610314468 28.1128704123049964
  1.4092843042478451 72.4156887494372228 28.1128704123049964
 -9.8650795097721549 72.4156887494372228 28.1128704123049964
 -12.6837338817321594 72.4156887494372228 28.1128704123049964
 54.9626609661366956  4.0683292100162243 28.1128704123049964
 63.4184549661366859  4.0683292100162243 28.1128704123049964
 -18.3208735097721558 72.4156887494372228 28.1128704123049964
 -21.1395278817321568 72.4156887494372228 28.1128704123049964
 -29.5953218817321577 72.4156887494372228 28.1128704123049964
 74.6928187801566850  4.0683292100162243 28.1128704123049964
 -40.8696856957521533 72.4156887494372228 28.1128704123049964
 11.2744060388090670  6.5092827984219914 28.1128704123049964
 19.7302000388090732  6.5092827984219914 28.1128704123049964
 25.3673396668490696  6.5092827984219914 28.1128704123049964
 28.1859940388090742  6.5092827984219914 28.1128704123049964
 32.4138487801566981  4.0683292100162243 28.1128704123049964
  9.8651206238536986 67.5337083432857384 28.1128704123049964
 19.7301996730882578 50.4468867657654769 28.1128704123049964
  1.4092847918756004 13.8322167929792403 28.1128704123049964
 -2.8186122690778692 21.1551507875364884 28.1128704123049964
 -2.8185699494720202 16.2731703813850075 28.1128704123049964
 -11.2744062690778684 21.1551507875364884 28.1128704123049964
 16.9115878645479825 16.2731703813850075 28.1128704123049964
 -18.3209157481063052 67.5337083432857384 28.1128704123049964
 22.5488120505279817 16.2731703813850075 28.1128704123049964
 63.4184548442297569 18.7141971991307194 28.1128704123049964
 -21.1394855621263069 67.5337083432857384 28.1128704123049964
 54.9626608442297453 18.7141971991307194 28.1128704123049964
 -9.8651217481063078 67.5337083432857384 28.1128704123049964
 28.1859516785679780 16.2731703813850075 28.1128704123049964
 36.6417456785679860 16.2731703813850075 28.1128704123049964
 39.4604000505279870 16.2731703813850075 28.1128704123049964
  7.0464662518936976 67.5337083432857384 28.1128704123049964
 45.0975396785679763 16.2731703813850075 28.1128704123049964
 50.7347638645479790 16.2731703813850075 28.1128704123049964
 14.0929753652013119 65.0927547548799765 28.1128704123049964
 18.3208304722697477 18.7141971991307194 28.1128704123049964
 -7.0465515277302488 18.7141971991307194 28.1128704123049964
  7.0464666582497495 18.7141971991307194 28.1128704123049964
 -38.0510735621263052 67.5337083432857384 28.1128704123049964
 -0.0000424550578693 21.1551507875364884 28.1128704123049964
 -1.4093273417502492 18.7141971991307194 28.1128704123049964
 63.4184126058955968 13.8322167929792403 28.1128704123049964
 22.5487697309221353 21.1551507875364884 28.1128704123049964
 -19.7302006347986882 65.0927547548799765 28.1128704123049964
 49.3254789778556031 13.8322167929792403 28.1128704123049964
 32.4138909778556012 13.8322167929792403 28.1128704123049964
 54.9626186058955923 13.8322167929792403 28.1128704123049964
 -11.2744066347986838 65.0927547548799765 28.1128704123049964
  9.8650787918756002 13.8322167929792403 28.1128704123049964
 43.6882547918756003 13.8322167929792403 28.1128704123049964
 -1.4093277481063067 67.5337083432857384 28.1128704123049964
  4.2278546058956001 13.8322167929792403 28.1128704123049964
 14.0929757309221344 21.1551507875364884 28.1128704123049964
 71.8742066058955942 13.8322167929792403 28.1128704123049964
 29.5952785868707942 49.6332355696302230 28.6327538495249954
 42.2790118455231720 52.0741891580359919 28.6327538495249954
 36.6417876595431693 52.0741891580359919 28.6327538495249954
 15.5022602789838597 64.2791035587447084 28.6327538495249954
 25.3673814040103807 71.6020375533019688 28.6327538495249954
 33.8231754040103922 71.6020375533019688 28.6327538495249954
 -29.5952795350361448 64.2791035587447084 28.6327538495249954
 -23.9580553490561456 64.2791035587447084 28.6327538495249954
 -28.1859945264368292 52.0741891580359919 28.6327538495249954
  9.8651206509438563 64.2791035587447084 28.6327538495249954
 -2.8185704100096114 71.6020375533019688 28.6327538495249954
 14.0930175899903762 71.6020375533019688 28.6327538495249954
 32.4138484008907994 49.6332355696302230 28.6327538495249954
 16.9116298455231728 52.0741891580359919 28.6327538495249954
 14.0929754735631594 52.0741891580359919 28.6327538495249954
  5.6372235899903860 71.6020375533019688 28.6327538495249954
  8.4558358455231772 52.0741891580359919 28.6327538495249954
  7.0464662789838490 64.2791035587447084 28.6327538495249954
 22.5488116712620865 61.8380767409990000 28.6327538495249954
 23.9580542789838589 64.2791035587447084 28.6327538495249954
 -14.0929763404568273 52.0741891580359919 28.6327538495249954
 49.3254364008908013 49.6332355696302230 28.6327538495249954
 -9.8651217210161430 64.2791035587447084 28.6327538495249954
 -18.3209157210161457 64.2791035587447084 28.6327538495249954
 -11.2744065264368292 52.0741891580359919 28.6327538495249954
 46.5068664649638706 64.2791035587447084 28.6327538495249954
 -31.0045221427579136 61.8380767409990000 28.6327538495249954
 -2.8185702881026811 56.9561695641874692 28.6327538495249954
 -35.2324192037113804 69.1610107355562462 28.6327538495249954
 14.0930177118973283 56.9561695641874692 28.6327538495249954
 45.0975393399373274 56.9561695641874692 28.6327538495249954
 45.0975815376362448 66.7200571471504844 28.6327538495249954
 50.7347635259173302 56.9561695641874692 28.6327538495249954
 -5.6371824623637705 66.7200571471504844 28.6327538495249954
 -19.7301582881026789 56.9561695641874692 28.6327538495249954
  9.8650784126096909 59.3971231525932382 28.6327538495249954
 -18.3208734014102959 59.3971231525932382 28.6327538495249954
  2.8186115376362340 66.7200571471504844 28.6327538495249954
  1.4092844126096999 59.3971231525932382 28.6327538495249954
 -12.6836492154302967 59.3971231525932382 28.6327538495249954
 -1.4092854014103018 59.3971231525932382 28.6327538495249954
 -9.8650794014102949 59.3971231525932382 28.6327538495249954
 -4.2278552154303037 59.3971231525932382 28.6327538495249954
 19.7301995376362349 66.7200571471504844 28.6327538495249954
 -28.1859523287379155 61.8380767409990000 28.6327538495249954
 -26.7766252037113830 69.1610107355562462 28.6327538495249954
 21.1395267845696964 59.3971231525932382 28.6327538495249954
 -18.3208310818044460 54.5151427464417537 28.6327538495249954
 26.7767086509438528 64.2791035587447084 28.6327538495249954
 29.5952784649638616 64.2791035587447084 28.6327538495249954
 -4.2278974537644496 54.5151427464417537 28.6327538495249954
 38.0510724649638732 64.2791035587447084 28.6327538495249954
  4.2278965462355513 54.5151427464417537 28.6327538495249954
  9.8651206103086064 69.1610107355562462 28.6327538495249954
 -14.0929764623637634 66.7200571471504844 28.6327538495249954
 18.3209147322155452 54.5151427464417537 28.6327538495249954
 26.7767087322155568 54.5151427464417537 28.6327538495249954
 -12.6836915756713875 69.1610107355562462 28.6327538495249954
 -15.5022613896913821 69.1610107355562462 28.6327538495249954
 32.4138905985897026 59.3971231525932382 28.6327538495249954
 -18.3208312037113821 69.1610107355562462 28.6327538495249954
 29.5953207845697079 59.3971231525932382 28.6327538495249954
 -25.3673824740826745 56.9561695641874692 28.6327538495249954
 40.8696845985897141 59.3971231525932382 28.6327538495249954
 36.6417875376362474 66.7200571471504844 28.6327538495249954
  4.2279392721974602  0.8136511961352557 28.6327538495249954
 15.5022604008907816 49.6332355696302230 28.6327538495249954
 40.8697272839163759 10.5775387790982709 28.6327538495249954
 74.6929032839163654 10.5775387790982709 28.6327538495249954
 -0.0000001083618602 13.0185655968439828 28.6327538495249954
 36.6417457056581313 13.0185655968439828 28.6327538495249954
 47.9161940776181368 13.0185655968439828 28.6327538495249954
 59.1905578916381430 13.0185655968439828 28.6327538495249954
 -4.2278548497094786 15.4595191852497500 28.6327538495249954
 12.6837331502905215 15.4595191852497500 28.6327538495249954
 18.3208727783305179 15.4595191852497500 28.6327538495249954
 26.7766667783305188 15.4595191852497500 28.6327538495249954
 32.4138909643105251 15.4595191852497500 28.6327538495249954
 40.8696849643105153 15.4595191852497500 28.6327538495249954
 66.2370669643105288 15.4595191852497500 28.6327538495249954
 71.8742911502905173 15.4595191852497500 28.6327538495249954
 74.6928609643105261 15.4595191852497500 28.6327538495249954
  2.8186542229628988 17.9004727736555189 28.6327538495249954
  8.4557938510029000 17.9004727736555189 28.6327538495249954
 64.8277397173770566 22.7824531798069998 28.6327538495249954
 47.9161517173770548 22.7824531798069998 28.6327538495249954
  5.6371817173770493 22.7824531798069998 28.6327538495249954
  0.0000420893370479 22.7824531798069998 28.6327538495249954
 71.8742488306846781 20.3414995914012344 28.6327538495249954
 43.6882970166646629 20.3414995914012344 28.6327538495249954
 23.9581392839163634 10.5775387790982709 28.6327538495249954
 38.0510728306846602 20.3414995914012344 28.6327538495249954
 26.7767090166646753 20.3414995914012344 28.6327538495249954
 21.1394848306846654 20.3414995914012344 28.6327538495249954
  9.8651210166646699 20.3414995914012344 28.6327538495249954
 -4.2278971693153311 20.3414995914012344 28.6327538495249954
 56.3719880369828985 17.9004727736555189 28.6327538495249954
 50.7347638510029029 17.9004727736555189 28.6327538495249954
 32.4138486447046574 20.3414995914012344 28.6327538495249954
 -12.6836912099505668 25.2234067682127652 28.6327538495249954
  9.8651210979363722 10.5775387790982709 28.6327538495249954
  4.2278969119563712 10.5775387790982709 28.6327538495249954
  9.8650789002374601  0.8136511961352557 28.6327538495249954
 12.6837332721974576  0.8136511961352557 28.6327538495249954
 15.5023030862174611  0.8136511961352557 28.6327538495249954
 21.1395272721974621  0.8136511961352557 28.6327538495249954
 60.5998429002374621  0.8136511961352557 28.6327538495249954
 83.1486550862174738  0.8136511961352557 28.6327538495249954
 -0.0000000270901599  3.2546047845410229 28.6327538495249954
  8.4557939729098397  3.2546047845410229 28.6327538495249954
 22.5488121588898416  3.2546047845410229 28.6327538495249954
 28.1860363448698337  3.2546047845410229 28.6327538495249954
 36.6418303448698452  3.2546047845410229 28.6327538495249954
 45.0976243448698426  3.2546047845410229 28.6327538495249954
 53.5534183448698329  3.2546047845410229 28.6327538495249954
 64.8277821588898462  3.2546047845410229 28.6327538495249954
 70.4650063448698489  3.2546047845410229 28.6327538495249954
 73.2835761588898578  3.2546047845410229 28.6327538495249954
 78.9208003448698463  3.2546047845410229 28.6327538495249954
 -1.4092427160836287 10.5775387790982709 28.6327538495249954
 73.2835338392839901  8.1365851906925037 28.6327538495249954
 70.4649640252639955  8.1365851906925037 28.6327538495249954
 64.8277398392839928  8.1365851906925037 28.6327538495249954
 56.3719458392839954  8.1365851906925037 28.6327538495249954
 50.7348062112439848  8.1365851906925037 28.6327538495249954
  7.0465512839163686 10.5775387790982709 28.6327538495249954
 31.0045638392839891  8.1365851906925037 28.6327538495249954
 14.0929758392839890  8.1365851906925037 28.6327538495249954
  5.6371818392839907  8.1365851906925037 28.6327538495249954
 -2.8186121607160102  8.1365851906925037 28.6327538495249954
 71.8742489525916284  5.6956316022867357 28.6327538495249954
 49.3254367666116167  5.6956316022867357 28.6327538495249954
 43.6882971385716132  5.6956316022867357 28.6327538495249954
 16.9116302112439918  8.1365851906925037 28.6327538495249954
 21.1394845868707826 49.6332355696302230 28.6327538495249954
 -7.0464670239705693 25.2234067682127652 28.6327538495249954
 12.6836907900494289 25.2234067682127652 28.6327538495249954
  7.0465510401024849 39.8692747573272612 28.6327538495249954
 29.5952786681424982 39.8692747573272612 28.6327538495249954
 38.0510726681424956 39.8692747573272612 28.6327538495249954
 43.6882968541224912 39.8692747573272612 28.6327538495249954
 -16.9115883521757375 42.3103015750729767 28.6327538495249954
 -11.2743641661957401 42.3103015750729767 28.6327538495249954
 -2.8185701661957374 42.3103015750729767 28.6327538495249954
  5.6372238338042564 42.3103015750729767 28.6327538495249954
 11.2743634618442599 42.3103015750729767 28.6327538495249954
 16.9115876478242626 42.3103015750729767 28.6327538495249954
 19.7301574618442501 42.3103015750729767 28.6327538495249954
 25.3673816478242529 42.3103015750729767 28.6327538495249954
 50.7347636478242734 42.3103015750729767 28.6327538495249954
 56.3719878338042619 42.3103015750729767 28.6327538495249954
 -23.9580974654833554 44.7512551634787386 28.6327538495249954
 -18.3208732795033562 44.7512551634787386 28.6327538495249954
  9.8650785345166412 44.7512551634787386 28.6327538495249954
  1.4093267728507877 49.6332355696302230 28.6327538495249954
 50.7347636071890307 47.1922087518845075 28.6327538495249954
 33.8231756071890288 47.1922087518845075 28.6327538495249954
  5.6372237931690181 47.1922087518845075 28.6327538495249954
  2.8186539791490159 47.1922087518845075 28.6327538495249954
 -0.0000003928109814 47.1922087518845075 28.6327538495249954
 62.0091697814501188 37.4283211689214923 28.6327538495249954
 -5.6371400208509774 47.1922087518845075 28.6327538495249954
 -25.3673823928109776 47.1922087518845075 28.6327538495249954
 57.7812727204966521 44.7512551634787386 28.6327538495249954
 46.5069089064766459 44.7512551634787386 28.6327538495249954
 40.8696847204966431 44.7512551634787386 28.6327538495249954
 32.4138907204966458 44.7512551634787386 28.6327538495249954
 18.3208725345166314 44.7512551634787386 28.6327538495249954
 -8.4557943928109793 47.1922087518845075 28.6327538495249954
  7.0465511620094325 25.2234067682127652 28.6327538495249954
 50.7348059674301126 37.4283211689214923 28.6327538495249954
 31.0045635954701204 37.4283211689214923 28.6327538495249954
 21.1394847900494298 25.2234067682127652 28.6327538495249954
 29.5952787900494201 25.2234067682127652 28.6327538495249954
 35.2325029760294228 25.2234067682127652 28.6327538495249954
 38.0510727900494388 25.2234067682127652 28.6327538495249954
 42.2789697697312050 27.6644335859584807 28.6327538495249954
 67.6463517697312113 27.6644335859584807 28.6327538495249954
 -4.2278549716164209 30.1053871743642461 28.6327538495249954
  1.4092846564235810 30.1053871743642461 28.6327538495249954
  4.2279390283835818 30.1053871743642461 28.6327538495249954
  9.8650786564235791 30.1053871743642461 28.6327538495249954
 15.5023028424035783 30.1053871743642461 28.6327538495249954
 23.9580968424035810 30.1053871743642461 28.6327538495249954
 49.3254788424035837 30.1053871743642461 28.6327538495249954
 60.5998426564235899 30.1053871743642461 28.6327538495249954
 -16.9115882709040370 32.5463407627700150 28.6327538495249954
 -8.4557942709040379 32.5463407627700150 28.6327538495249954
 33.8231757290959649 32.5463407627700150 28.6327538495249954
 28.1859937814501045 37.4283211689214923 28.6327538495249954
 14.0929755954701115 37.4283211689214923 28.6327538495249954
  8.4558359674301080 37.4283211689214923 28.6327538495249954
  5.6371815954701097 37.4283211689214923 28.6327538495249954
 39.4603995899903808 71.6020375533019688 28.6327538495249954
  0.0000419674301133 37.4283211689214923 28.6327538495249954
 45.0975817814501099 37.4283211689214923 28.6327538495249954
 -5.6371822185498859 37.4283211689214923 28.6327538495249954
 -19.7302004045298887 37.4283211689214923 28.6327538495249954
 46.5068667087777357 34.9873675805157234 28.6327538495249954
 26.7767088947577392 34.9873675805157234 28.6327538495249954
 21.1394847087777364 34.9873675805157234 28.6327538495249954
 53.5534181010559607 32.5463407627700150 28.6327538495249954
 39.4603999150759606 32.5463407627700150 28.6327538495249954
 -14.0929762185498877 37.4283211689214923 28.6327538495249954
 42.2789694040103896 71.6020375533019688 28.6327538495249954
