 H  O 
 1.0000000000000000
    84.5579400000000021    0.0000000000000000    0.0000000000000000
   -42.2789706095346958   73.2293399455724767    0.0000000000000000
     0.0000000000000000    0.0000000000000000   46.9039550000000034
 H   O  
 264 191
Cartesian
 -0.0000000135450799  1.6273023922705114 28.1128704123049964
 54.9626183620817130 43.1239527712082307 28.1128704123049964
 46.5068243620817157 43.1239527712082307 28.1128704123049964
 43.6882545480617210 43.1239527712082307 28.1128704123049964
 12.6836483620817209 43.1239527712082307 28.1128704123049964
  4.2278543620817208 43.1239527712082307 28.1128704123049964
 -7.0465094519382783 43.1239527712082307 28.1128704123049964
 -9.8650792659582809 43.1239527712082307 28.1128704123049964
 -25.3673823792659014 45.5649063596139996 28.1128704123049964
 -21.1395276379182775 43.1239527712082307 28.1128704123049964
 45.0975394753893397 40.6829991828024689 28.1128704123049964
 36.6417454753893352 40.6829991828024689 28.1128704123049964
 28.1859514753893379 40.6829991828024689 28.1128704123049964
 22.5487272894093422 40.6829991828024689 28.1128704123049964
 16.9115876613693388 40.6829991828024689 28.1128704123049964
  8.4557936613693432 40.6829991828024689 28.1128704123049964
 60.5998848676675763 38.2419723650567462 28.1128704123049964
 53.5533334753893371 40.6829991828024689 28.1128704123049964
 16.9115876207341032 45.5649063596139996 28.1128704123049964
 33.8231756207340979 45.5649063596139996 28.1128704123049964
 -26.7767095855641273 48.0059331773597151 28.1128704123049964
  8.4557513011282524 50.4468867657654769 28.1128704123049964
  5.6371814871082586 50.4468867657654769 28.1128704123049964
 -11.2744065128917477 50.4468867657654769 28.1128704123049964
 -14.0929763269117494 50.4468867657654769 28.1128704123049964
 -16.9116306988717469 50.4468867657654769 28.1128704123049964
 54.9626606004158731 48.0059331773597151 28.1128704123049964
 49.3254364144358703 48.0059331773597151 28.1128704123049964
 40.8696424144358730 48.0059331773597151 28.1128704123049964
 32.4138484144358685 48.0059331773597151 28.1128704123049964
 29.5952786004158739 48.0059331773597151 28.1128704123049964
 26.7766242284558658 48.0059331773597151 28.1128704123049964
 21.1394846004158765 48.0059331773597151 28.1128704123049964
 12.6836906004158720 48.0059331773597151 28.1128704123049964
  7.0464664144358764 48.0059331773597151 28.1128704123049964
  1.4092422284558699 48.0059331773597151 28.1128704123049964
 -7.0465517715441273 48.0059331773597151 28.1128704123049964
 -21.1394853995841281 48.0059331773597151 28.1128704123049964
 49.3254364957075708 38.2419723650567462 28.1128704123049964
 29.5952786816875744 38.2419723650567462 28.1128704123049964
 21.1394846816875770 38.2419723650567462 28.1128704123049964
 12.6836906816875779 38.2419723650567462 28.1128704123049964
 62.0091275566610349 30.9190383704995000 28.1128704123049964
 50.7347637426410429 30.9190383704995000 28.1128704123049964
 47.9161939286210341 30.9190383704995000 28.1128704123049964
 45.0975395566610331 30.9190383704995000 28.1128704123049964
 42.2789697426410385 30.9190383704995000 28.1128704123049964
  8.4557937426410454 30.9190383704995000 28.1128704123049964
 -2.8185700713789608 30.9190383704995000 28.1128704123049964
 -8.4557942573589582 30.9190383704995000 28.1128704123049964
 -14.0930184433389574 30.9190383704995000 28.1128704123049964
 54.9626184839886562 28.4780847820937346 28.1128704123049964
 49.3254788559486528 28.4780847820937346 28.1128704123049964
 43.6882546699686571 28.4780847820937346 28.1128704123049964
 38.0510304839886544 28.4780847820937346 28.1128704123049964
 35.2324606699686598 28.4780847820937346 28.1128704123049964
 29.5952364839886641 28.4780847820937346 28.1128704123049964
 21.1394424839886597 28.4780847820937346 28.1128704123049964
 12.6836484839886605 28.4780847820937346 28.1128704123049964
 -9.8651214636571893 33.3600651882452155 28.1128704123049964
 33.8231333011282445 50.4468867657654769 28.1128704123049964
 -1.4093274636571897 33.3600651882452155 28.1128704123049964
 49.3254365363428136 33.3600651882452155 28.1128704123049964
  7.0464664957075716 38.2419723650567462 28.1128704123049964
 -1.4093275042924258 38.2419723650567462 28.1128704123049964
 -4.2278973183124275 38.2419723650567462 28.1128704123049964
 -7.0464671323324293 38.2419723650567462 28.1128704123049964
 -9.8651215042924267 38.2419723650567462 28.1128704123049964
 38.0510301182678390 72.4156887494372228 28.1128704123049964
 -18.3209155042924259 38.2419723650567462 28.1128704123049964
 47.9161516090151949 35.8010187766509844 28.1128704123049964
 45.0975817949951860 35.8010187766509844 28.1128704123049964
 39.4603576090151904 35.8010187766509844 28.1128704123049964
 33.8231334230351877 35.8010187766509844 28.1128704123049964
 25.3673394230351938 35.8010187766509844 28.1128704123049964
 22.5487696090151921 35.8010187766509844 28.1128704123049964
 16.9115454230351894 35.8010187766509844 28.1128704123049964
  5.6371816090151947 35.8010187766509844 28.1128704123049964
 57.7812305363428109 33.3600651882452155 28.1128704123049964
 52.1440063503628082 33.3600651882452155 28.1128704123049964
 21.1394847223228126 33.3600651882452155 28.1128704123049964
  9.8650786699686659 28.4780847820937346 28.1128704123049964
 36.6417876730882455 50.4468867657654769 28.1128704123049964
 -15.5022612542393716 52.8878403541712458 28.1128704123049964
 32.4138482518936897 67.5337083432857384 28.1128704123049964
 18.3209146238536960 67.5337083432857384 28.1128704123049964
 12.6836904378736932 67.5337083432857384 28.1128704123049964
  4.2278964378736958 67.5337083432857384 28.1128704123049964
 -12.6836915621263024 67.5337083432857384 28.1128704123049964
 -21.1394855621263069 67.5337083432857384 28.1128704123049964
 -26.7767097481063061 67.5337083432857384 28.1128704123049964
 38.0510724378736924 67.5337083432857384 28.1128704123049964
 -29.5952795621263043 67.5337083432857384 28.1128704123049964
 33.8231331792213084 65.0927547548799765 28.1128704123049964
  2.8186115511813119 65.0927547548799765 28.1128704123049964
 -2.8186126347986837 65.0927547548799765 28.1128704123049964
 -5.6371824488186855 65.0927547548799765 28.1128704123049964
 -14.0929764488186855 65.0927547548799765 28.1128704123049964
 -25.3674248207786874 65.0927547548799765 28.1128704123049964
 -28.1859946347986892 65.0927547548799765 28.1128704123049964
 -38.0510735621263052 67.5337083432857384 28.1128704123049964
 -39.4604007684245346 69.9747351610314468 28.1128704123049964
 -33.8231765824445318 69.9747351610314468 28.1128704123049964
 -31.0046067684245337 69.9747351610314468 28.1128704123049964
 32.4138904902278497 72.4156887494372228 28.1128704123049964
 29.5952361182678381 72.4156887494372228 28.1128704123049964
  9.8650783042478416 72.4156887494372228 28.1128704123049964
 -1.4092855097721566 72.4156887494372228 28.1128704123049964
 -4.2279398817321576 72.4156887494372228 28.1128704123049964
 -9.8650795097721549 72.4156887494372228 28.1128704123049964
 -12.6837338817321594 72.4156887494372228 28.1128704123049964
 -21.1395278817321568 72.4156887494372228 28.1128704123049964
 -26.7766675097721567 72.4156887494372228 28.1128704123049964
 -29.5953218817321577 72.4156887494372228 28.1128704123049964
 -38.0511158817321586 72.4156887494372228 28.1128704123049964
 36.6417452315754701 69.9747351610314468 28.1128704123049964
 33.8231754175554755 69.9747351610314468 28.1128704123049964
  5.6371390455954664 69.9747351610314468 28.1128704123049964
 -2.8186549544045376 69.9747351610314468 28.1128704123049964
 -11.2744489544045354 69.9747351610314468 28.1128704123049964
 -16.9115885824445336 69.9747351610314468 28.1128704123049964
 -36.6417886347986865 65.0927547548799765 28.1128704123049964
 43.6882121065489244 62.6518011664742076 28.1128704123049964
 38.0510724785089351 62.6518011664742076 28.1128704123049964
 29.5952784785089271 62.6518011664742076 28.1128704123049964
 -32.4138915738452127 57.7698207603227232 28.1128704123049964
 47.9161091675023982 55.3288671719169614 28.1128704123049964
 45.0975393534824036 55.3288671719169614 28.1128704123049964
 42.2789695394624090 55.3288671719169614 28.1128704123049964
 33.8231755394623974 55.3288671719169614 28.1128704123049964
 25.3673815394624036 55.3288671719169614 28.1128704123049964
 19.7301573534824009 55.3288671719169614 28.1128704123049964
 -2.8186548324975988 55.3288671719169614 28.1128704123049964
 -8.4557944605375948 55.3288671719169614 28.1128704123049964
 -19.7302428324975985 55.3288671719169614 28.1128704123049964
 -25.3673824605375984 55.3288671719169614 28.1128704123049964
 52.1440907457606357 52.8878403541712458 28.1128704123049964
 38.0510725597806356 52.8878403541712458 28.1128704123049964
 32.4138483738006258 52.8878403541712458 28.1128704123049964
  9.8651207457606311 52.8878403541712458 28.1128704123049964
  4.2278965597806355 52.8878403541712458 28.1128704123049964
 -7.0464672542393672 52.8878403541712458 28.1128704123049964
 -21.1395277598252136 57.7698207603227232 28.1128704123049964
 -21.1394854402193673 52.8878403541712458 28.1128704123049964
  1.4092844261547897 57.7698207603227232 28.1128704123049964
 21.1394422401747804 57.7698207603227232 28.1128704123049964
 23.9580542925289315 62.6518011664742076 28.1128704123049964
 15.5022602925289341 62.6518011664742076 28.1128704123049964
  9.8650361065489385 62.6518011664742076 28.1128704123049964
  1.4092421065489333 62.6518011664742076 28.1128704123049964
 -21.1394855214910677 62.6518011664742076 28.1128704123049964
 -29.5952795214910651 62.6518011664742076 28.1128704123049964
 47.9161936848071619 60.2107743487284921 28.1128704123049964
 45.0975393128471538 60.2107743487284921 28.1128704123049964
 33.8231754988271618 60.2107743487284921 28.1128704123049964
 22.5488116848071662 60.2107743487284921 28.1128704123049964
 14.0930176848071671 60.2107743487284921 28.1128704123049964
 -2.8185703151928343 60.2107743487284921 28.1128704123049964
 -5.6372246871528393 60.2107743487284921 28.1128704123049964
 -11.2743643151928357 60.2107743487284921 28.1128704123049964
 -16.9115885011728366 60.2107743487284921 28.1128704123049964
 -31.0046066871528367 60.2107743487284921 28.1128704123049964
 -33.8231765011728385 60.2107743487284921 28.1128704123049964
  9.8650784261547866 57.7698207603227232 28.1128704123049964
  4.2278544839886631 28.4780847820937346 28.1128704123049964
 -12.6836913183124267 38.2419723650567462 28.1128704123049964
 -4.2279395160113378 28.4780847820937346 28.1128704123049964
  8.4557938645479798 16.2731703813850075 28.1128704123049964
 63.4184126058955968 13.8322167929792403 28.1128704123049964
 57.7812729778555934 13.8322167929792403 28.1128704123049964
 32.4138909778556012 13.8322167929792403 28.1128704123049964
 -1.4092850221444004 13.8322167929792403 28.1128704123049964
 76.1021459051832210 11.3912632045734714 28.1128704123049964
 14.0930180505279825 16.2731703813850075 28.1128704123049964
 70.4649217192032182 11.3912632045734714 28.1128704123049964
 53.5533337192032164 11.3912632045734714 28.1128704123049964
 45.0975397192032190 11.3912632045734714 28.1128704123049964
 31.0045215332232189 11.3912632045734714 28.1128704123049964
 28.1859517192032243 11.3912632045734714 28.1128704123049964
 14.0929335332232206 11.3912632045734714 28.1128704123049964
  5.6371395332232206 11.3912632045734714 28.1128704123049964
 59.1905579051832120 11.3912632045734714 28.1128704123049964
 19.7301576785679771 16.2731703813850075 28.1128704123049964
 25.3673818645479834 16.2731703813850075 28.1128704123049964
 31.0046060505279790 16.2731703813850075 28.1128704123049964
  5.6371817309221299 21.1551507875364884 28.1128704123049964
 -0.0000424550578693 21.1551507875364884 28.1128704123049964
 -8.4558364550578684 21.1551507875364884 28.1128704123049964
 63.4184548442297569 18.7141971991307194 28.1128704123049964
 49.3254366582497497 18.7141971991307194 28.1128704123049964
 43.6882124722697469 18.7141971991307194 28.1128704123049964
 40.8696426582497523 18.7141971991307194 28.1128704123049964
 32.4138486582497549 18.7141971991307194 28.1128704123049964
 23.9580546582497540 18.7141971991307194 28.1128704123049964
  1.4092424722697507 18.7141971991307194 28.1128704123049964
 -4.2278971557702505 18.7141971991307194 28.1128704123049964
 -9.8651213417502497 18.7141971991307194 28.1128704123049964
 67.6463518645479809 16.2731703813850075 28.1128704123049964
 39.4604000505279870 16.2731703813850075 28.1128704123049964
 36.6417456785679860 16.2731703813850075 28.1128704123049964
 -0.0000000948167802 11.3912632045734714 28.1128704123049964
 14.0929757309221344 21.1551507875364884 28.1128704123049964
 52.1440911114814512  8.9502363868277595 28.1128704123049964
 29.5952789255014537  8.9502363868277595 28.1128704123049964
 43.6882125941766972  4.0683292100162243 28.1128704123049964
 40.8696427801566955  4.0683292100162243 28.1128704123049964
 15.5022607801566892  4.0683292100162243 28.1128704123049964
  7.0464667801566900  4.0683292100162243 28.1128704123049964
 -1.4093272198433096  4.0683292100162243 28.1128704123049964
 78.9207158004749090  1.6273023922705114 28.1128704123049964
 49.3254367801566929  4.0683292100162243 28.1128704123049964
 76.1021459864549144  1.6273023922705114 28.1128704123049964
 67.6463519864549170  1.6273023922705114 28.1128704123049964
 64.8277821724349081  1.6273023922705114 28.1128704123049964
 47.9161941724349276  1.6273023922705114 28.1128704123049964
 28.1859518004749177  1.6273023922705114 28.1128704123049964
 19.7301578004749203  1.6273023922705114 28.1128704123049964
 11.2743638004749194  1.6273023922705114 28.1128704123049964
 70.4649218004749116  1.6273023922705114 28.1128704123049964
 63.4184549661366859  4.0683292100162243 28.1128704123049964
 71.8742489661366903  4.0683292100162243 28.1128704123049964
 74.6928187801566850  4.0683292100162243 28.1128704123049964
 23.9580547395214474  8.9502363868277595 28.1128704123049964
 21.1394849255014528  8.9502363868277595 28.1128704123049964
 15.5022607395214518  8.9502363868277595 28.1128704123049964
  4.2278969255014500  8.9502363868277595 28.1128704123049964
 78.9207580388090690  6.5092827984219914 28.1128704123049964
 70.4649640388090717  6.5092827984219914 28.1128704123049964
 67.6463096668490635  6.5092827984219914 28.1128704123049964
 56.3719458528290644  6.5092827984219914 28.1128704123049964
 39.4603578528290697  6.5092827984219914 28.1128704123049964
 33.8231336668490670  6.5092827984219914 28.1128704123049964
 22.5487698528290750  6.5092827984219914 28.1128704123049964
 11.2744060388090670  6.5092827984219914 28.1128704123049964
  2.8186120388090696  6.5092827984219914 28.1128704123049964
 -0.0000423331509293  6.5092827984219914 28.1128704123049964
 80.3300429661366877  4.0683292100162243 28.1128704123049964
 38.0510729255014510  8.9502363868277595 28.1128704123049964
 19.7301999169021336 21.1551507875364884 28.1128704123049964
 40.8696844902278471 72.4156887494372228 28.1128704123049964
 23.9580546176145113 23.5961043759422537 28.1128704123049964
 16.9115877832762855 26.0371311936879657 28.1128704123049964
 21.1394848035945166 23.5961043759422537 28.1128704123049964
 -7.0464670104254905 23.5961043759422537 28.1128704123049964
 -14.0930184027037182 26.0371311936879657 28.1128704123049964
 67.6463095449421274 21.1551507875364884 28.1128704123049964
 62.0091699169021311 21.1551507875364884 28.1128704123049964
 59.1905155449421230 21.1551507875364884 28.1128704123049964
 39.4603154113162731 26.0371311936879657 28.1128704123049964
  8.4557937832762846 26.0371311936879657 28.1128704123049964
  1.4093269895745080 23.5961043759422537 28.1128704123049964
 42.2789697832762812 26.0371311936879657 28.1128704123049964
 53.5533335972962803 26.0371311936879657 28.1128704123049964
 53.5533759169021195 21.1551507875364884 28.1128704123049964
 -11.2744485886837182 26.0371311936879657 28.1128704123049964
 29.5952788035945140 23.5961043759422537 28.1128704123049964
 35.2325029895745132 23.5961043759422537 28.1128704123049964
 12.6836908035945140 23.5961043759422537 28.1128704123049964
 46.5068668035945052 23.5961043759422537 28.1128704123049964
 62.0091275972962777 26.0371311936879657 28.1128704123049964
 32.4138486176145122 23.5961043759422537 28.1128704123049964
 67.6463517832762875 26.0371311936879657 28.1128704123049964
 28.1859939169021310 21.1551507875364884 28.1128704123049964
 15.5022606176145086 23.5961043759422537 28.1128704123049964
 -9.8650368379905675 25.2234067682127652 28.6327538495249954
  5.6372236712620847 61.8380767409990000 28.6327538495249954
 70.4649639033570594 22.7824531798069998 28.6327538495249954
 66.2370668424035927 30.1053871743642461 28.6327538495249954
 -9.8651217210161430 64.2791035587447084 28.6327538495249954
 60.5998426564235899 30.1053871743642461 28.6327538495249954
 66.2370247666116256  5.6956316022867357 28.6327538495249954
 21.1394849525916122  5.6956316022867357 28.6327538495249954
 -7.0464670239705693 25.2234067682127652 28.6327538495249954
 -5.6371398989440404 32.5463407627700150 28.6327538495249954
 -18.3209157210161457 64.2791035587447084 28.6327538495249954
 26.7767091385716043  5.6956316022867357 28.6327538495249954
 19.7302418572420777 61.8380767409990000 28.6327538495249954
 67.6463940893370506 22.7824531798069998 28.6327538495249954
 56.3719455954701161 37.4283211689214923 28.6327538495249954
  2.8186541010559618 32.5463407627700150 28.6327538495249954
 16.9115875259173158 56.9561695641874692 28.6327538495249954
 36.6418301010559517 32.5463407627700150 28.6327538495249954
 31.0046057118973302 56.9561695641874692 28.6327538495249954
 36.6417453399373301 56.9561695641874692 28.6327538495249954
 45.0975393399373274 56.9561695641874692 28.6327538495249954
 50.7347635259173302 56.9561695641874692 28.6327538495249954
 -4.2278970880436288 10.5775387790982709 28.6327538495249954
 73.2835338392839901  8.1365851906925037 28.6327538495249954
 -26.7766674014102968 59.3971231525932382 28.6327538495249954
 56.3719458392839954  8.1365851906925037 28.6327538495249954
 31.0046059150759525 32.5463407627700150 28.6327538495249954
 47.9161518392839980  8.1365851906925037 28.6327538495249954
 42.2790122112439946  8.1365851906925037 28.6327538495249954
 -1.4092854014103018 59.3971231525932382 28.6327538495249954
 12.6837327845697061 59.3971231525932382 28.6327538495249954
 28.1860361010559650 32.5463407627700150 28.6327538495249954
 64.8277397173770566 22.7824531798069998 28.6327538495249954
 23.9580965985897052 59.3971231525932382 28.6327538495249954
 26.7766664126097069 59.3971231525932382 28.6327538495249954
 40.8696845985897141 59.3971231525932382 28.6327538495249954
 14.0930179150759578 32.5463407627700150 28.6327538495249954
 16.9116302112439918  8.1365851906925037 28.6327538495249954
 -33.8231765147179146 61.8380767409990000 28.6327538495249954
 -25.3673825147179137 61.8380767409990000 28.6327538495249954
 16.9115877290959595 32.5463407627700150 28.6327538495249954
 15.5022602789838597 64.2791035587447084 28.6327538495249954
 -1.4092428379905699 25.2234067682127652 28.6327538495249954
 18.3209149760294281 25.2234067682127652 28.6327538495249954
 11.2744483448698372  3.2546047845410229 28.6327538495249954
 -7.0464673896913883 69.1610107355562462 28.6327538495249954
 -4.2278975756713866 69.1610107355562462 28.6327538495249954
  1.4093266103086164 69.1610107355562462 28.6327538495249954
 45.0975395837512067 27.6644335859584807 28.6327538495249954
 52.1440909760294318 25.2234067682127652 28.6327538495249954
 33.8231757697311934 27.6644335859584807 28.6327538495249954
 57.7813151620094345 25.2234067682127652 28.6327538495249954
 -29.5952795756713840 69.1610107355562462 28.6327538495249954
 -25.3673825959896213 71.6020375533019688 28.6327538495249954
 -14.0930187819696204 71.6020375533019688 28.6327538495249954
 46.5069092721974613  0.8136511961352557 28.6327538495249954
 32.4138910862174541  0.8136511961352557 28.6327538495249954
 23.9580970862174638  0.8136511961352557 28.6327538495249954
 14.0930175899903762 71.6020375533019688 28.6327538495249954
 19.7301572180303850 71.6020375533019688 28.6327538495249954
 25.3673814040103807 71.6020375533019688 28.6327538495249954
 -8.4557942302688005 27.6644335859584807 28.6327538495249954
  4.2279392721974602  0.8136511961352557 28.6327538495249954
 25.3673817697312032 27.6644335859584807 28.6327538495249954
 19.7302423448698399  3.2546047845410229 28.6327538495249954
 22.5488121588898416  3.2546047845410229 28.6327538495249954
 -35.2324192037113804 69.1610107355562462 28.6327538495249954
 -1.4093277210161486 64.2791035587447084 28.6327538495249954
 15.5023028424035783 30.1053871743642461 28.6327538495249954
  1.4093270979363695 10.5775387790982709 28.6327538495249954
 21.1394844649638500 64.2791035587447084 28.6327538495249954
  7.0465511620094325 25.2234067682127652 28.6327538495249954
 35.2325026509438644 64.2791035587447084 28.6327538495249954
 46.5068664649638706 64.2791035587447084 28.6327538495249954
  7.0465088424035836 30.1053871743642461 28.6327538495249954
 -7.0465093435764183 30.1053871743642461 28.6327538495249954
 -25.3673402763837679 66.7200571471504844 28.6327538495249954
 59.1905579729098434  3.2546047845410229 28.6327538495249954
 53.5534183448698329  3.2546047845410229 28.6327538495249954
 12.6836907900494289 25.2234067682127652 28.6327538495249954
  8.4558357236162376 66.7200571471504844 28.6327538495249954
 -9.8650791575964192 30.1053871743642461 28.6327538495249954
 22.5487693516562366 66.7200571471504844 28.6327538495249954
 28.1859935376362323 66.7200571471504844 28.6327538495249954
 39.4604001588898399  3.2546047845410229 28.6327538495249954
 36.6418303448698452  3.2546047845410229 28.6327538495249954
 42.2790117236162359 66.7200571471504844 28.6327538495249954
 31.0046061588898354  3.2546047845410229 28.6327538495249954
  7.0464667666116103  5.6956316022867357 28.6327538495249954
 42.2789697290959623 32.5463407627700150 28.6327538495249954
 23.9581392839163634 10.5775387790982709 28.6327538495249954
 -8.4557944740826727 56.9561695641874692 28.6327538495249954
 -23.9580974654833554 44.7512551634787386 28.6327538495249954
  7.0465087204966403 44.7512551634787386 28.6327538495249954
  9.8650785345166412 44.7512551634787386 28.6327538495249954
 -0.0000001489970986 17.9004727736555189 28.6327538495249954
 21.1395269064766467 44.7512551634787386 28.6327538495249954
 23.9580967204966342 44.7512551634787386 28.6327538495249954
 29.5953209064766369 44.7512551634787386 28.6327538495249954
 -2.8186122826229494 22.7824531798069998 28.6327538495249954
 38.0511149064766485 44.7512551634787386 28.6327538495249954
 43.6882545345166520 44.7512551634787386 28.6327538495249954
 46.5069089064766459 44.7512551634787386 28.6327538495249954
 49.3254787204966547 44.7512551634787386 28.6327538495249954
 52.1440485345166493 44.7512551634787386 28.6327538495249954
 57.7812727204966521 44.7512551634787386 28.6327538495249954
 63.4184547087777446 34.9873675805157234 28.6327538495249954
 71.8742911502905173 15.4595191852497500 28.6327538495249954
 -16.9115883928109767 47.1922087518845075 28.6327538495249954
 -14.0929340208509810 47.1922087518845075 28.6327538495249954
 -8.4557943928109793 47.1922087518845075 28.6327538495249954
 -2.8185702068309761 47.1922087518845075 28.6327538495249954
 60.5998427783305331 15.4595191852497500 28.6327538495249954
 59.1905576478242708 42.3103015750729767 28.6327538495249954
  5.6372237931690181 47.1922087518845075 28.6327538495249954
 -11.2744062826229499 22.7824531798069998 28.6327538495249954
 71.8742488306846781 20.3414995914012344 28.6327538495249954
 23.9580546447046672 20.3414995914012344 28.6327538495249954
 -9.8650369598975125 39.8692747573272612 28.6327538495249954
  4.2278966681424874 39.8692747573272612 28.6327538495249954
 32.4138486447046574 20.3414995914012344 28.6327538495249954
 15.5023450401024956 39.8692747573272612 28.6327538495249954
 15.5022606447046662 20.3414995914012344 28.6327538495249954
 25.3674239674301170 37.4283211689214923 28.6327538495249954
  9.8651210166646699 20.3414995914012344 28.6327538495249954
 32.4139330401024850 39.8692747573272612 28.6327538495249954
 38.0510728306846602 20.3414995914012344 28.6327538495249954
 40.8697270401024966 39.8692747573272612 28.6327538495249954
 19.7301997814501142 37.4283211689214923 28.6327538495249954
 46.5068666681425000 39.8692747573272612 28.6327538495249954
 57.7813150401024913 39.8692747573272612 28.6327538495249954
 64.8277820369829101 17.9004727736555189 28.6327538495249954
 -16.9115883521757375 42.3103015750729767 28.6327538495249954
 -14.0930185381557376 42.3103015750729767 28.6327538495249954
  8.4558359674301080 37.4283211689214923 28.6327538495249954
 56.3719880369828985 17.9004727736555189 28.6327538495249954
 -5.6372245381557384 42.3103015750729767 28.6327538495249954
 -0.0000003521757358 42.3103015750729767 28.6327538495249954
 50.7347636478242734 42.3103015750729767 28.6327538495249954
 52.1440487783305286 15.4595191852497500 28.6327538495249954
 46.5069091502905181 15.4595191852497500 28.6327538495249954
 40.8696849643105153 15.4595191852497500 28.6327538495249954
 42.2790118455231720 52.0741891580359919 28.6327538495249954
 47.9161514735631755 52.0741891580359919 28.6327538495249954
 50.7348058455231694 52.0741891580359919 28.6327538495249954
 -9.8651214772022673 34.9873675805157234 28.6327538495249954
 66.2371092839163680 10.5775387790982709 28.6327538495249954
 63.4184549119563812 10.5775387790982709 28.6327538495249954
 -15.5022611052422672 34.9873675805157234 28.6327538495249954
 42.2790120893370442 22.7824531798069998 28.6327538495249954
  7.0465509181955595 54.5151427464417537 28.6327538495249954
 15.5023449181955559 54.5151427464417537 28.6327538495249954
 49.3255212839163661 10.5775387790982709 28.6327538495249954
 21.1394845462355612 54.5151427464417537 28.6327538495249954
 53.5534181010559607 32.5463407627700150 28.6327538495249954
 32.4139332839163785 10.5775387790982709 28.6327538495249954
 38.0510725462355595 54.5151427464417537 28.6327538495249954
 50.7348060893370558 22.7824531798069998 28.6327538495249954
 49.3255209181955507 54.5151427464417537 28.6327538495249954
 47.9161939150759579 32.5463407627700150 28.6327538495249954
 -22.5488126600626764 56.9561695641874692 28.6327538495249954
  9.8651210979363722 10.5775387790982709 28.6327538495249954
 -14.0930186600626755 56.9561695641874692 28.6327538495249954
 -7.0464671052422672 34.9873675805157234 28.6327538495249954
 -4.2278972912222672 34.9873675805157234 28.6327538495249954
 28.1859936595431719 52.0741891580359919 28.6327538495249954
 22.5487694735631763 52.0741891580359919 28.6327538495249954
 43.6882968947577410 34.9873675805157234 28.6327538495249954
 36.6418299791490298 47.1922087518845075 28.6327538495249954
 29.5953211502905269 15.4595191852497500 28.6327538495249954
 45.0976239791490272 47.1922087518845075 28.6327538495249954
  4.2279391502905188 15.4595191852497500 28.6327538495249954
 -7.0465092216694787 15.4595191852497500 28.6327538495249954
 -0.0000002302687971 27.6644335859584807 28.6327538495249954
 32.4138484008907994 49.6332355696302230 28.6327538495249954
  1.4093268947577322 34.9873675805157234 28.6327538495249954
 36.6417457056581313 13.0185655968439828 28.6327538495249954
 -5.6372246600626781 56.9561695641874692 28.6327538495249954
 -28.1859945264368292 52.0741891580359919 28.6327538495249954
 -19.7302005264368283 52.0741891580359919 28.6327538495249954
 22.5488120776181340 13.0185655968439828 28.6327538495249954
 -14.0929763404568273 52.0741891580359919 28.6327538495249954
 16.9115878916381419 13.0185655968439828 28.6327538495249954
 -5.6371823404568273 52.0741891580359919 28.6327538495249954
  0.0000418455231652 52.0741891580359919 28.6327538495249954
 11.2743637056581409 13.0185655968439828 28.6327538495249954
  8.4557938916381428 13.0185655968439828 28.6327538495249954
 14.0929754735631594 52.0741891580359919 28.6327538495249954
 19.7301996595431604 52.0741891580359919 28.6327538495249954
 -1.4093274772022688 34.9873675805157234 28.6327538495249954
 18.3209147728507951 49.6332355696302230 28.6327538495249954
