 H  O 
 1.0000000000000000
    84.5579400000000021    0.0000000000000000    0.0000000000000000
   -42.2789706095346958   73.2293399455724767    0.0000000000000000
     0.0000000000000000    0.0000000000000000   46.9039550000000034
 H   O  
 238 255
Cartesian
 29.5952788035945140 23.5961043759422537 28.1128704123049964
 47.9161936848071619 60.2107743487284921 28.1128704123049964
 45.0975393128471538 60.2107743487284921 28.1128704123049964
 21.1394846004158765 48.0059331773597151 28.1128704123049964
 38.0510728035945078 23.5961043759422537 28.1128704123049964
 -4.2279396379182765 43.1239527712082307 28.1128704123049964
 33.8231754988271618 60.2107743487284921 28.1128704123049964
 -9.8650792659582809 43.1239527712082307 28.1128704123049964
 57.7812306176145043 23.5961043759422537 28.1128704123049964
 47.9161514871082517 50.4468867657654769 28.1128704123049964
 69.0556789895745169 23.5961043759422537 28.1128704123049964
 -14.0930184027037182 26.0371311936879657 28.1128704123049964
 59.1905576613693398 40.6829991828024689 28.1128704123049964
 -0.0000002167237204 26.0371311936879657 28.1128704123049964
  8.4557937832762846 26.0371311936879657 28.1128704123049964
 11.2743635972962863 26.0371311936879657 28.1128704123049964
 16.9115877832762855 26.0371311936879657 28.1128704123049964
 -21.1394854402193673 52.8878403541712458 28.1128704123049964
 53.5533334753893371 40.6829991828024689 28.1128704123049964
 22.5487274113162819 26.0371311936879657 28.1128704123049964
 28.1859515972962846 26.0371311936879657 28.1128704123049964
 42.2789697832762812 26.0371311936879657 28.1128704123049964
 -22.5488126871528358 60.2107743487284921 28.1128704123049964
 -25.3673825011728376 60.2107743487284921 28.1128704123049964
 50.7347637832762715 26.0371311936879657 28.1128704123049964
 62.0091275972962777 26.0371311936879657 28.1128704123049964
 67.6463517832762875 26.0371311936879657 28.1128704123049964
 -15.5022612542393716 52.8878403541712458 28.1128704123049964
  4.2278968035945095 23.5961043759422537 28.1128704123049964
 -7.0465093300313377 28.4780847820937346 28.1128704123049964
 -35.2325037074710679 62.6518011664742076 28.1128704123049964
 -29.5952795214910651 62.6518011664742076 28.1128704123049964
 -1.4093275042924258 38.2419723650567462 28.1128704123049964
 43.6882124722697469 18.7141971991307194 28.1128704123049964
 54.9626608442297453 18.7141971991307194 28.1128704123049964
 57.7812306582497541 18.7141971991307194 28.1128704123049964
 36.6417876730882455 50.4468867657654769 28.1128704123049964
  4.2278964785089341 62.6518011664742076 28.1128704123049964
 66.2370246582497515 18.7141971991307194 28.1128704123049964
 69.0555944722697461 18.7141971991307194 28.1128704123049964
  1.4092421065489333 62.6518011664742076 28.1128704123049964
 -1.4093277074710613 62.6518011664742076 28.1128704123049964
 -2.8186122690778692 21.1551507875364884 28.1128704123049964
 11.2744059169021327 21.1551507875364884 28.1128704123049964
 14.0929757309221344 21.1551507875364884 28.1128704123049964
 19.7301999169021336 21.1551507875364884 28.1128704123049964
 22.5487697309221353 21.1551507875364884 28.1128704123049964
 25.3673395449421299 21.1551507875364884 28.1128704123049964
 31.0045637309221327 21.1551507875364884 28.1128704123049964
 33.8231335449421309 21.1551507875364884 28.1128704123049964
 42.2789275449421211 21.1551507875364884 28.1128704123049964
 45.0975819169021293 21.1551507875364884 28.1128704123049964
 15.5023027340417219 43.1239527712082307 28.1128704123049964
 50.7347215449421185 21.1551507875364884 28.1128704123049964
 53.5533759169021195 21.1551507875364884 28.1128704123049964
  4.2278543620817208 43.1239527712082307 28.1128704123049964
 62.0091699169021311 21.1551507875364884 28.1128704123049964
 -18.3209157074710660 62.6518011664742076 28.1128704123049964
 -9.8651213823854889 23.5961043759422537 28.1128704123049964
 -1.4093273823854895 23.5961043759422537 28.1128704123049964
 18.3208301065489287 62.6518011664742076 28.1128704123049964
 46.5068242401747796 57.7698207603227232 28.1128704123049964
 19.7301574753893405 40.6829991828024689 28.1128704123049964
 54.9626606816875736 38.2419723650567462 28.1128704123049964
 42.2789695394624090 55.3288671719169614 28.1128704123049964
 46.5068667223228047 33.3600651882452155 28.1128704123049964
 52.1440908676675789 38.2419723650567462 28.1128704123049964
 54.9626607223228163 33.3600651882452155 28.1128704123049964
 36.6417453534824062 55.3288671719169614 28.1128704123049964
 46.5068666816875762 38.2419723650567462 28.1128704123049964
 -16.9116305769648072 35.8010187766509844 28.1128704123049964
 -11.2744063909848098 35.8010187766509844 28.1128704123049964
 43.6882968676675674 38.2419723650567462 28.1128704123049964
 -5.6371822050048115 35.8010187766509844 28.1128704123049964
 -0.0000425769648080 35.8010187766509844 28.1128704123049964
 38.0510726816875717 38.2419723650567462 28.1128704123049964
 11.2743633534824053 55.3288671719169614 28.1128704123049964
  5.6371391675024016 55.3288671719169614 28.1128704123049964
 -0.0000004605375943 55.3288671719169614 28.1128704123049964
 16.9115454230351894 35.8010187766509844 28.1128704123049964
 -11.2744488324975958 55.3288671719169614 28.1128704123049964
 28.1859937949951949 35.8010187766509844 28.1128704123049964
 -22.5488126465175966 55.3288671719169614 28.1128704123049964
 23.9580544957075787 38.2419723650567462 28.1128704123049964
 35.2324603042478444 72.4156887494372228 28.1128704123049964
 15.5022604957075725 38.2419723650567462 28.1128704123049964
 -21.1394853183124276 38.2419723650567462 28.1128704123049964
 26.7767087457606330 52.8878403541712458 28.1128704123049964
 32.4138483738006258 52.8878403541712458 28.1128704123049964
 29.5952785597806276 52.8878403541712458 28.1128704123049964
 35.2324183503628063 33.3600651882452155 28.1128704123049964
 28.1859514753893379 40.6829991828024689 28.1128704123049964
 32.4138485363428117 33.3600651882452155 28.1128704123049964
 15.5022605363428152 33.3600651882452155 28.1128704123049964
 52.1440486699686616 28.4780847820937346 28.1128704123049964
 57.7812728559486644 28.4780847820937346 28.1128704123049964
 -16.9115882573589573 30.9190383704995000 28.1128704123049964
 -11.2743640713789581 30.9190383704995000 28.1128704123049964
 26.7766664261547831 57.7698207603227232 28.1128704123049964
 11.2743634753893449 40.6829991828024689 28.1128704123049964
 21.1394422401747804 57.7698207603227232 28.1128704123049964
 18.3208724261547857 57.7698207603227232 28.1128704123049964
  8.4557936613693432 40.6829991828024689 28.1128704123049964
 19.7301575566610410 30.9190383704995000 28.1128704123049964
  4.2278965597806355 52.8878403541712458 28.1128704123049964
 25.3673817426410437 30.9190383704995000 28.1128704123049964
 -0.0000003386306579 40.6829991828024689 28.1128704123049964
 36.6417455566610357 30.9190383704995000 28.1128704123049964
 42.2789697426410385 30.9190383704995000 28.1128704123049964
  1.4092844261547897 57.7698207603227232 28.1128704123049964
 50.7347637426410429 30.9190383704995000 28.1128704123049964
 -1.4092853878652121 57.7698207603227232 28.1128704123049964
 59.1905577426410403 30.9190383704995000 28.1128704123049964
  7.0464663738006301 52.8878403541712458 28.1128704123049964
 -15.5023035738452162 57.7698207603227232 28.1128704123049964
 -18.3208733878652161 57.7698207603227232 28.1128704123049964
 -4.2278972776771910 33.3600651882452155 28.1128704123049964
 15.5022603738006346 52.8878403541712458 28.1128704123049964
 -23.9580975738452153 57.7698207603227232 28.1128704123049964
  4.2278967223228134 33.3600651882452155 28.1128704123049964
 18.3209147457606356 52.8878403541712458 28.1128704123049964
 50.7347635394624064 55.3288671719169614 28.1128704123049964
 29.5952788442297496 18.7141971991307194 28.1128704123049964
 40.8696426582497523 18.7141971991307194 28.1128704123049964
 21.1394848442297523 18.7141971991307194 28.1128704123049964
 31.0046058067141033 45.5649063596139996 28.1128704123049964
 42.2789276668490714  6.5092827984219914 28.1128704123049964
 -19.7302005128917450 50.4468867657654769 28.1128704123049964
 19.7301574347541049 45.5649063596139996 28.1128704123049964
 -16.9116306988717469 50.4468867657654769 28.1128704123049964
 62.0091700388090601  6.5092827984219914 28.1128704123049964
 64.8277398528290689  6.5092827984219914 28.1128704123049964
 67.6463096668490635  6.5092827984219914 28.1128704123049964
 -28.1860369544045355 69.9747351610314468 28.1128704123049964
 -33.8231765824445318 69.9747351610314468 28.1128704123049964
  9.8651211114814483  8.9502363868277595 28.1128704123049964
 -36.6418309544045329 69.9747351610314468 28.1128704123049964
 33.8231336668490670  6.5092827984219914 28.1128704123049964
 40.8696422518936870 67.5337083432857384 28.1128704123049964
 38.0510729255014510  8.9502363868277595 28.1128704123049964
 49.3254367395214430  8.9502363868277595 28.1128704123049964
 57.7812307395214404  8.9502363868277595 28.1128704123049964
 60.5998851114814414  8.9502363868277595 28.1128704123049964
 63.4184549255014502  8.9502363868277595 28.1128704123049964
 66.2370247395214449  8.9502363868277595 28.1128704123049964
 69.0556791114814530  8.9502363868277595 28.1128704123049964
 74.6928187395214422  8.9502363868277595 28.1128704123049964
 35.2325026238536978 67.5337083432857384 28.1128704123049964
 26.7766244722697486 18.7141971991307194 28.1128704123049964
 -0.0000000948167802 11.3912632045734714 28.1128704123049964
 -0.0000426988717480 50.4468867657654769 28.1128704123049964
 23.9580547395214474  8.9502363868277595 28.1128704123049964
 31.0045638528290759  6.5092827984219914 28.1128704123049964
 54.9626606004158731 48.0059331773597151 28.1128704123049964
 -2.8186549544045376 69.9747351610314468 28.1128704123049964
 29.5952786004158739 48.0059331773597151 28.1128704123049964
 32.4138484144358685 48.0059331773597151 28.1128704123049964
 -4.2279398817321576 72.4156887494372228 28.1128704123049964
 -21.1394853995841281 48.0059331773597151 28.1128704123049964
 -12.6837338817321594 72.4156887494372228 28.1128704123049964
 -26.7767095855641273 48.0059331773597151 28.1128704123049964
 56.3719878067141025 45.5649063596139996 28.1128704123049964
 -40.8696856957521533 72.4156887494372228 28.1128704123049964
 42.2789694175554729 69.9747351610314468 28.1128704123049964
 39.4603150455954648 69.9747351610314468 28.1128704123049964
 28.1859512315754728 69.9747351610314468 28.1128704123049964
 73.2835761724349197  1.6273023922705114 28.1128704123049964
 76.1021459864549144  1.6273023922705114 28.1128704123049964
 81.7393701724349171  1.6273023922705114 28.1128704123049964
 19.7301572315754683 69.9747351610314468 28.1128704123049964
  1.4092425941766900  4.0683292100162243 28.1128704123049964
 14.0929330455954638 69.9747351610314468 28.1128704123049964
 49.3254364144358703 48.0059331773597151 28.1128704123049964
  8.4557934175554603 69.9747351610314468 28.1128704123049964
 26.7766245941766883  4.0683292100162243 28.1128704123049964
 49.3254367801566929  4.0683292100162243 28.1128704123049964
 54.9626609661366956  4.0683292100162243 28.1128704123049964
  5.6371390455954664 69.9747351610314468 28.1128704123049964
 66.2370247801566876  4.0683292100162243 28.1128704123049964
  2.8185692315754580 69.9747351610314468 28.1128704123049964
 71.8742489661366903  4.0683292100162243 28.1128704123049964
 -0.0000005824445366 69.9747351610314468 28.1128704123049964
 16.9115879051832216 11.3912632045734714 28.1128704123049964
  5.6372238067141032 45.5649063596139996 28.1128704123049964
  1.4093268676675752 38.2419723650567462 28.1128704123049964
 -0.0000003792658964 45.5649063596139996 28.1128704123049964
 -5.6371824488186855 65.0927547548799765 28.1128704123049964
 57.7812729778555934 13.8322167929792403 28.1128704123049964
 60.5998427918756022 13.8322167929792403 28.1128704123049964
 32.4138907340417219 43.1239527712082307 28.1128704123049964
 63.4184126058955968 13.8322167929792403 28.1128704123049964
 28.1859517192032243 11.3912632045734714 28.1128704123049964
 66.2370669778556049 13.8322167929792403 28.1128704123049964
 -11.2744066347986838 65.0927547548799765 28.1128704123049964
 74.6928609778556023 13.8322167929792403 28.1128704123049964
 -5.6372243214320203 16.2731703813850075 28.1128704123049964
 -0.0000001354520196 16.2731703813850075 28.1128704123049964
 -2.8186126347986837 65.0927547548799765 28.1128704123049964
 -16.9116308207786865 65.0927547548799765 28.1128704123049964
 19.7301576785679771 16.2731703813850075 28.1128704123049964
 -19.7302006347986882 65.0927547548799765 28.1128704123049964
 28.1859516785679780 16.2731703813850075 28.1128704123049964
 -22.5487704488186900 65.0927547548799765 28.1128704123049964
 33.8231758645479843 16.2731703813850075 28.1128704123049964
 -25.3674248207786874 65.0927547548799765 28.1128704123049964
 52.1440485480617184 43.1239527712082307 28.1128704123049964
 45.0975396785679763 16.2731703813850075 28.1128704123049964
 16.9115453011282568 50.4468867657654769 28.1128704123049964
 53.5533336785679737 16.2731703813850075 28.1128704123049964
 38.0510724785089351 62.6518011664742076 28.1128704123049964
 14.0930180505279825 16.2731703813850075 28.1128704123049964
 43.6882121065489244 62.6518011664742076 28.1128704123049964
 -0.0000428207786890 65.0927547548799765 28.1128704123049964
  8.4557511792213162 65.0927547548799765 28.1128704123049964
 -5.6372245652458988 45.5649063596139996 28.1128704123049964
 45.0975397192032190 11.3912632045734714 28.1128704123049964
 -1.4093277481063067 67.5337083432857384 28.1128704123049964
  2.8186116730882564 50.4468867657654769 28.1128704123049964
 53.5533337192032164 11.3912632045734714 28.1128704123049964
 31.0045634871082498 50.4468867657654769 28.1128704123049964
 23.9580542925289315 62.6518011664742076 28.1128704123049964
 -38.0510735621263052 67.5337083432857384 28.1128704123049964
 64.8276975332232155 11.3912632045734714 28.1128704123049964
 -22.5488125652458997 45.5649063596139996 28.1128704123049964
  2.8186115511813119 65.0927547548799765 28.1128704123049964
 70.4649217192032182 11.3912632045734714 28.1128704123049964
 -1.4092850221444004 13.8322167929792403 28.1128704123049964
  7.0464666582497495 18.7141971991307194 28.1128704123049964
 19.7301995511813146 65.0927547548799765 28.1128704123049964
 16.9115451792213065 65.0927547548799765 28.1128704123049964
  9.8650787918756002 13.8322167929792403 28.1128704123049964
  1.4092424722697507 18.7141971991307194 28.1128704123049964
 15.5023029778556030 13.8322167929792403 28.1128704123049964
 -1.4093273417502492 18.7141971991307194 28.1128704123049964
 11.2744055511813173 65.0927547548799765 28.1128704123049964
 26.7766667918756056 13.8322167929792403 28.1128704123049964
 -25.3673823792659014 45.5649063596139996 28.1128704123049964
 70.4649216785679755 16.2731703813850075 28.1128704123049964
 39.4603997931690245 47.1922087518845075 28.6327538495249954
 25.3673816071890279 47.1922087518845075 28.6327538495249954
 25.3674238455231631 52.0741891580359919 28.6327538495249954
 40.8696424008908039 49.6332355696302230 28.6327538495249954
 42.2789696071890333 47.1922087518845075 28.6327538495249954
 45.0976239791490272 47.1922087518845075 28.6327538495249954
 -23.9580552271492060 49.6332355696302230 28.6327538495249954
 12.6836905868707941 49.6332355696302230 28.6327538495249954
 -9.8651215991092069 49.6332355696302230 28.6327538495249954
 -28.1859945264368292 52.0741891580359919 28.6327538495249954
 -25.3673401544768282 52.0741891580359919 28.6327538495249954
  9.8651207728507995 49.6332355696302230 28.6327538495249954
 -5.6371823404568273 52.0741891580359919 28.6327538495249954
 -11.2744065264368292 52.0741891580359919 28.6327538495249954
 21.1394845868707826 49.6332355696302230 28.6327538495249954
 -7.0464672271492059 49.6332355696302230 28.6327538495249954
  4.2279392721974602  0.8136511961352557 28.6327538495249954
 53.5533756595431782 52.0741891580359919 28.6327538495249954
 -35.2325037210161440 64.2791035587447084 28.6327538495249954
 -29.5952795350361448 64.2791035587447084 28.6327538495249954
 12.6836904649638509 64.2791035587447084 28.6327538495249954
 29.5952784649638616 64.2791035587447084 28.6327538495249954
 35.2325026509438644 64.2791035587447084 28.6327538495249954
 -11.2744066483437688 66.7200571471504844 28.6327538495249954
 -5.6371824623637705 66.7200571471504844 28.6327538495249954
  0.0000417236162395 66.7200571471504844 28.6327538495249954
  5.6371813516562215 66.7200571471504844 28.6327538495249954
 22.5487693516562366 66.7200571471504844 28.6327538495249954
 25.3674237236162377 66.7200571471504844 28.6327538495249954
 28.1859935376362323 66.7200571471504844 28.6327538495249954
 -29.5952795756713840 69.1610107355562462 28.6327538495249954
 -23.9580553896913813 69.1610107355562462 28.6327538495249954
 -21.1394855756713831 69.1610107355562462 28.6327538495249954
 -18.3208312037113821 69.1610107355562462 28.6327538495249954
 -15.5022613896913821 69.1610107355562462 28.6327538495249954
 -9.8650372037113900 69.1610107355562462 28.6327538495249954
 -4.2278975756713866 69.1610107355562462 28.6327538495249954
  9.8651206103086064 69.1610107355562462 28.6327538495249954
 21.1394844243286215 69.1610107355562462 28.6327538495249954
 29.5952784243286260 69.1610107355562462 28.6327538495249954
 -22.5488127819696196 71.6020375533019688 28.6327538495249954
 -19.7301584100096186 71.6020375533019688 28.6327538495249954
 -11.2743644100096230 71.6020375533019688 28.6327538495249954
 -5.6372247819696195 71.6020375533019688 28.6327538495249954
 11.2743632180303894 71.6020375533019688 28.6327538495249954
 22.5488115899903860 71.6020375533019688 28.6327538495249954
 25.3673814040103807 71.6020375533019688 28.6327538495249954
 39.4603996712620955 61.8380767409990000 28.6327538495249954
 28.1860358572420893 61.8380767409990000 28.6327538495249954
 22.5488116712620865 61.8380767409990000 28.6327538495249954
 11.2744478572420874 61.8380767409990000 28.6327538495249954
 -26.7766250818044469 54.5151427464417537 28.6327538495249954
 -15.5022612677844460 54.5151427464417537 28.6327538495249954
 21.1394845462355612 54.5151427464417537 28.6327538495249954
 23.9581389181955480 54.5151427464417537 28.6327538495249954
 35.2325027322155506 54.5151427464417537 28.6327538495249954
 38.0510725462355595 54.5151427464417537 28.6327538495249954
 46.5068665462355568 54.5151427464417537 28.6327538495249954
 -28.1859522881026763 56.9561695641874692 28.6327538495249954
 -19.7301582881026789 56.9561695641874692 28.6327538495249954
 -5.6372246600626781 56.9561695641874692 28.6327538495249954
  5.6372237118973310 56.9561695641874692 28.6327538495249954
 11.2743633399373131 56.9561695641874692 28.6327538495249954
 14.0930177118973283 56.9561695641874692 28.6327538495249954
 25.3673815259173274 56.9561695641874692 28.6327538495249954
 36.6417876595431693 52.0741891580359919 28.6327538495249954
 31.0046057118973302 56.9561695641874692 28.6327538495249954
 39.4603997118973240 56.9561695641874692 28.6327538495249954
 42.2789695259173328 56.9561695641874692 28.6327538495249954
 -29.5952372154302985 59.3971231525932382 28.6327538495249954
 -9.8650794014102949 59.3971231525932382 28.6327538495249954
 -7.0465095873903012 59.3971231525932382 28.6327538495249954
 -4.2278552154303037 59.3971231525932382 28.6327538495249954
  7.0465085985897025 59.3971231525932382 28.6327538495249954
  9.8650784126096909 59.3971231525932382 28.6327538495249954
 12.6837327845697061 59.3971231525932382 28.6327538495249954
 15.5023025985896936 59.3971231525932382 28.6327538495249954
 38.0511147845697053 59.3971231525932382 28.6327538495249954
 -19.7301583287379145 61.8380767409990000 28.6327538495249954
 -14.0929341427579153 61.8380767409990000 28.6327538495249954
 -11.2743643287379136 61.8380767409990000 28.6327538495249954
 36.6417453399373301 56.9561695641874692 28.6327538495249954
 14.0930177931690217 47.1922087518845075 28.6327538495249954
 57.7812305227977419 34.9873675805157234 28.6327538495249954
  8.4557936071890190 47.1922087518845075 28.6327538495249954
 35.2324607783305126 15.4595191852497500 28.6327538495249954
 32.4138909643105251 15.4595191852497500 28.6327538495249954
 23.9580969643105171 15.4595191852497500 28.6327538495249954
  4.2279391502905188 15.4595191852497500 28.6327538495249954
 73.2835760776181360 13.0185655968439828 28.6327538495249954
 53.5533337056581473 13.0185655968439828 28.6327538495249954
 42.2789698916381340 13.0185655968439828 28.6327538495249954
 39.4604000776181465 13.0185655968439828 28.6327538495249954
 36.6417457056581313 13.0185655968439828 28.6327538495249954
 33.8231758916381438 13.0185655968439828 28.6327538495249954
 22.5488120776181340 13.0185655968439828 28.6327538495249954
 19.7301577056581365 13.0185655968439828 28.6327538495249954
  8.4557938916381428 13.0185655968439828 28.6327538495249954
  5.6372240776181393 13.0185655968439828 28.6327538495249954
 -5.6372242943418591 13.0185655968439828 28.6327538495249954
 69.0556790979363768 10.5775387790982709 28.6327538495249954
 63.4184549119563812 10.5775387790982709 28.6327538495249954
 40.8696849643105153 15.4595191852497500 28.6327538495249954
 49.3254789643105269 15.4595191852497500 28.6327538495249954
 69.0556367783305234 15.4595191852497500 28.6327538495249954
 74.6928609643105261 15.4595191852497500 28.6327538495249954
 42.2790120893370442 22.7824531798069998 28.6327538495249954
 22.5487697173770485 22.7824531798069998 28.6327538495249954
  8.4558360893370512 22.7824531798069998 28.6327538495249954
  0.0000420893370479 22.7824531798069998 28.6327538495249954
 -5.6371820966429516 22.7824531798069998 28.6327538495249954
 -11.2744062826229499 22.7824531798069998 28.6327538495249954
 63.4184548306846807 20.3414995914012344 28.6327538495249954
 60.5998850166646719 20.3414995914012344 28.6327538495249954
 57.7813152839163777 10.5775387790982709 28.6327538495249954
 49.3254366447046735 20.3414995914012344 28.6327538495249954
 -9.8651213552953294 20.3414995914012344 28.6327538495249954
 64.8277820369829101 17.9004727736555189 28.6327538495249954
 59.1905578510029073 17.9004727736555189 28.6327538495249954
 36.6418302229629020 17.9004727736555189 28.6327538495249954
 16.9115878510028992 17.9004727736555189 28.6327538495249954
 11.2744482229629011 17.9004727736555189 28.6327538495249954
 -2.8185699630171004 17.9004727736555189 28.6327538495249954
 -5.6371397770370981 17.9004727736555189 28.6327538495249954
 -4.2278971693153311 20.3414995914012344 28.6327538495249954
 47.9161517173770548 22.7824531798069998 28.6327538495249954
 49.3255212839163661 10.5775387790982709 28.6327538495249954
 38.0510729119563607 10.5775387790982709 28.6327538495249954
  8.4557939729098397  3.2546047845410229 28.6327538495249954
 -0.0000000270901599  3.2546047845410229 28.6327538495249954
 63.4184972721974631  0.8136511961352557 28.6327538495249954
 57.7812730862174604  0.8136511961352557 28.6327538495249954
 54.9627032721974516  0.8136511961352557 28.6327538495249954
 52.1440489002374647  0.8136511961352557 28.6327538495249954
 49.3254790862174488  0.8136511961352557 28.6327538495249954
 46.5069092721974613  0.8136511961352557 28.6327538495249954
 43.6882549002374461  0.8136511961352557 28.6327538495249954
 40.8696850862174585  0.8136511961352557 28.6327538495249954
 32.4138910862174541  0.8136511961352557 28.6327538495249954
 23.9580970862174638  0.8136511961352557 28.6327538495249954
 21.1395272721974621  0.8136511961352557 28.6327538495249954
 18.3208729002374611  0.8136511961352557 28.6327538495249954
 12.6837332721974576  0.8136511961352557 28.6327538495249954
  9.8650789002374601  0.8136511961352557 28.6327538495249954
  7.0465090862174584  0.8136511961352557 28.6327538495249954
 11.2744483448698372  3.2546047845410229 28.6327538495249954
 22.5488121588898416  3.2546047845410229 28.6327538495249954
 59.1905579729098434  3.2546047845410229 28.6327538495249954
 70.4650063448698489  3.2546047845410229 28.6327538495249954
 35.2325030979363731 10.5775387790982709 28.6327538495249954
 23.9581392839163634 10.5775387790982709 28.6327538495249954
  4.2278969119563712 10.5775387790982709 28.6327538495249954
 -4.2278970880436288 10.5775387790982709 28.6327538495249954
 76.1021882112439840  8.1365851906925037 28.6327538495249954
 14.0929758392839890  8.1365851906925037 28.6327538495249954
 11.2744060252639908  8.1365851906925037 28.6327538495249954
 -2.8186121607160102  8.1365851906925037 28.6327538495249954
 46.5068669119563793 10.5775387790982709 28.6327538495249954
 80.3300429525916257  5.6956316022867357 28.6327538495249954
 57.7812307666116141  5.6956316022867357 28.6327538495249954
 52.1440911385716035  5.6956316022867357 28.6327538495249954
 46.5068669525916008  5.6956316022867357 28.6327538495249954
 38.0510729525916105  5.6956316022867357 28.6327538495249954
 29.5952789525916060  5.6956316022867357 28.6327538495249954
 18.3209151385716105  5.6956316022867357 28.6327538495249954
 15.5022607666116095  5.6956316022867357 28.6327538495249954
  7.0464667666116103  5.6956316022867357 28.6327538495249954
 77.5114731385716169  5.6956316022867357 28.6327538495249954
 11.2744479791490271 47.1922087518845075 28.6327538495249954
 53.5533759033570504 22.7824531798069998 28.6327538495249954
 64.8277397173770566 22.7824531798069998 28.6327538495249954
 -0.0000003521757358 42.3103015750729767 28.6327538495249954
 -14.0930185381557376 42.3103015750729767 28.6327538495249954
 -16.9115883521757375 42.3103015750729767 28.6327538495249954
 -19.7301581661957393 42.3103015750729767 28.6327538495249954
 57.7813150401024913 39.8692747573272612 28.6327538495249954
 35.2325028541224938 39.8692747573272612 28.6327538495249954
 32.4139330401024850 39.8692747573272612 28.6327538495249954
 15.5023450401024956 39.8692747573272612 28.6327538495249954
  4.2278966681424874 39.8692747573272612 28.6327538495249954
 -9.8650369598975125 39.8692747573272612 28.6327538495249954
 -15.5022611458775117 39.8692747573272612 28.6327538495249954
 59.1905999674301100 37.4283211689214923 28.6327538495249954
 33.8232179674301037 37.4283211689214923 28.6327538495249954
 11.2744057814501097 37.4283211689214923 28.6327538495249954
 -2.8186124045298877 37.4283211689214923 28.6327538495249954
 -5.6371822185498859 37.4283211689214923 28.6327538495249954
 -8.4557520325698885 37.4283211689214923 28.6327538495249954
 22.5488118338042653 42.3103015750729767 28.6327538495249954
 28.1859514618442688 42.3103015750729767 28.6327538495249954
 42.2789696478242618 42.3103015750729767 28.6327538495249954
 47.9161938338042646 42.3103015750729767 28.6327538495249954
  5.6372237931690181 47.1922087518845075 28.6327538495249954
 -2.8185702068309761 47.1922087518845075 28.6327538495249954
 -5.6371400208509774 47.1922087518845075 28.6327538495249954
 -8.4557943928109793 47.1922087518845075 28.6327538495249954
 -14.0929340208509810 47.1922087518845075 28.6327538495249954
 46.5069089064766459 44.7512551634787386 28.6327538495249954
 43.6882545345166520 44.7512551634787386 28.6327538495249954
 40.8696847204966431 44.7512551634787386 28.6327538495249954
 63.4184547087777446 34.9873675805157234 28.6327538495249954
 38.0511149064766485 44.7512551634787386 28.6327538495249954
 23.9580967204966342 44.7512551634787386 28.6327538495249954
 18.3208725345166314 44.7512551634787386 28.6327538495249954
 15.5023027204966439 44.7512551634787386 28.6327538495249954
 12.6837329064766493 44.7512551634787386 28.6327538495249954
  9.8650785345166412 44.7512551634787386 28.6327538495249954
 -15.5023034654833562 44.7512551634787386 28.6327538495249954
 -18.3208732795033562 44.7512551634787386 28.6327538495249954
 59.1905576478242708 42.3103015750729767 28.6327538495249954
 35.2324605345166475 44.7512551634787386 28.6327538495249954
 59.1906000893370532 22.7824531798069998 28.6327538495249954
 46.5068667087777357 34.9873675805157234 28.6327538495249954
 35.2325028947577295 34.9873675805157234 28.6327538495249954
 12.6837330283835765 30.1053871743642461 28.6327538495249954
  9.8650786564235791 30.1053871743642461 28.6327538495249954
  7.0465088424035836 30.1053871743642461 28.6327538495249954
  4.2279390283835818 30.1053871743642461 28.6327538495249954
 -1.4092851575964171 30.1053871743642461 28.6327538495249954
 36.6417455837512094 27.6644335859584807 28.6327538495249954
 33.8231757697311934 27.6644335859584807 28.6327538495249954
 19.7301575837512004 27.6644335859584807 28.6327538495249954
  2.8185695837512008 27.6644335859584807 28.6327538495249954
 -2.8185700442888009 27.6644335859584807 28.6327538495249954
 -11.2743640442888005 27.6644335859584807 28.6327538495249954
 49.3255211620094371 25.2234067682127652 28.6327538495249954
 43.6882969760294344 25.2234067682127652 28.6327538495249954
 21.1394847900494298 25.2234067682127652 28.6327538495249954
 18.3209149760294281 25.2234067682127652 28.6327538495249954
 -4.2278972099505676 25.2234067682127652 28.6327538495249954
 70.4649639033570594 22.7824531798069998 28.6327538495249954
 21.1395270283835863 30.1053871743642461 28.6327538495249954
 32.4138908424035748 30.1053871743642461 28.6327538495249954
 46.5069090283835891 30.1053871743642461 28.6327538495249954
 57.7812728424035953 30.1053871743642461 28.6327538495249954
 23.9580545227977240 34.9873675805157234 28.6327538495249954
 12.6836907087777320 34.9873675805157234 28.6327538495249954
  9.8651208947577302 34.9873675805157234 28.6327538495249954
  4.2278967087777302 34.9873675805157234 28.6327538495249954
  1.4093268947577322 34.9873675805157234 28.6327538495249954
 -9.8651214772022673 34.9873675805157234 28.6327538495249954
 64.8277819150759740 32.5463407627700150 28.6327538495249954
 56.3719879150759695 32.5463407627700150 28.6327538495249954
 40.8696425227977400 34.9873675805157234 28.6327538495249954
 53.5534181010559607 32.5463407627700150 28.6327538495249954
 42.2789697290959623 32.5463407627700150 28.6327538495249954
 25.3673817290959498 32.5463407627700150 28.6327538495249954
 11.2744481010559561 32.5463407627700150 28.6327538495249954
  2.8186541010559618 32.5463407627700150 28.6327538495249954
 -0.0000002709040391 32.5463407627700150 28.6327538495249954
 -8.4557942709040379 32.5463407627700150 28.6327538495249954
 -14.0929338989440378 32.5463407627700150 28.6327538495249954
 63.4184970283835838 30.1053871743642461 28.6327538495249954
 45.0976241010559633 32.5463407627700150 28.6327538495249954
 36.6417452180303869 71.6020375533019688 28.6327538495249954
