 H  O 
 1.0000000000000000
    84.5579400000000021    0.0000000000000000    0.0000000000000000
   -42.2789706095346958   73.2293399455724767    0.0000000000000000
     0.0000000000000000    0.0000000000000000   46.9039550000000034
 H   O  
 248 284
Cartesian
 -0.0000000135450799  1.6273023922705114 28.1128704123049964
 14.0929332894093395 40.6829991828024689 28.1128704123049964
  8.4557936613693432 40.6829991828024689 28.1128704123049964
 -0.0000003386306579 40.6829991828024689 28.1128704123049964
 -14.0930185246106596 40.6829991828024689 28.1128704123049964
 -16.9115883386306614 40.6829991828024689 28.1128704123049964
 -19.7302427105906588 40.6829991828024689 28.1128704123049964
 60.5998848676675763 38.2419723650567462 28.1128704123049964
 43.6882968676675674 38.2419723650567462 28.1128704123049964
 40.8696424957075664 38.2419723650567462 28.1128704123049964
 38.0510726816875717 38.2419723650567462 28.1128704123049964
 15.5022604957075725 38.2419723650567462 28.1128704123049964
 -15.5022611323324266 38.2419723650567462 28.1128704123049964
 62.0091697949951950 35.8010187766509844 28.1128704123049964
 59.1905154230351869 35.8010187766509844 28.1128704123049964
 53.5533757949951976 35.8010187766509844 28.1128704123049964
 31.0045636090151895 35.8010187766509844 28.1128704123049964
 11.2744057949951930 35.8010187766509844 28.1128704123049964
 16.9115876613693388 40.6829991828024689 28.1128704123049964
 -0.0000425769648080 35.8010187766509844 28.1128704123049964
 19.7301574753893405 40.6829991828024689 28.1128704123049964
 39.4603152894093299 40.6829991828024689 28.1128704123049964
 33.8231756207340979 45.5649063596139996 28.1128704123049964
 28.1859514347540951 45.5649063596139996 28.1128704123049964
 11.2743634347540986 45.5649063596139996 28.1128704123049964
 -0.0000003792658964 45.5649063596139996 28.1128704123049964
 -2.8185701932858982 45.5649063596139996 28.1128704123049964
 -5.6372245652458988 45.5649063596139996 28.1128704123049964
 -22.5488125652458997 45.5649063596139996 28.1128704123049964
 52.1440485480617184 43.1239527712082307 28.1128704123049964
 49.3254787340417238 43.1239527712082307 28.1128704123049964
 26.7766665480617228 43.1239527712082307 28.1128704123049964
 23.9580967340417281 43.1239527712082307 28.1128704123049964
  1.4092845480617260 43.1239527712082307 28.1128704123049964
 -1.4092852659582757 43.1239527712082307 28.1128704123049964
 -9.8650792659582809 43.1239527712082307 28.1128704123049964
 -15.5023034519382783 43.1239527712082307 28.1128704123049964
 53.5533334753893371 40.6829991828024689 28.1128704123049964
 50.7347636613693425 40.6829991828024689 28.1128704123049964
 28.1859514753893379 40.6829991828024689 28.1128704123049964
 36.6417454347540925 45.5649063596139996 28.1128704123049964
 -11.2744063909848098 35.8010187766509844 28.1128704123049964
 46.5068667223228047 33.3600651882452155 28.1128704123049964
 18.3208726699686650 28.4780847820937346 28.1128704123049964
  9.8650786699686659 28.4780847820937346 28.1128704123049964
  7.0465088559486642 28.4780847820937346 28.1128704123049964
 -9.8650791440513395 28.4780847820937346 28.1128704123049964
 62.0091275972962777 26.0371311936879657 28.1128704123049964
 59.1905577832762830 26.0371311936879657 28.1128704123049964
 47.9161094113162704 26.0371311936879657 28.1128704123049964
 39.4603154113162731 26.0371311936879657 28.1128704123049964
 11.2743635972962863 26.0371311936879657 28.1128704123049964
  8.4557937832762846 26.0371311936879657 28.1128704123049964
  2.8185695972962814 26.0371311936879657 28.1128704123049964
 -5.6372244027037182 26.0371311936879657 28.1128704123049964
 60.5998849895745124 23.5961043759422537 28.1128704123049964
 54.9626608035945097 23.5961043759422537 28.1128704123049964
 32.4138486176145122 23.5961043759422537 28.1128704123049964
 26.7767089895745123 23.5961043759422537 28.1128704123049964
 18.3209149895745149 23.5961043759422537 28.1128704123049964
 38.0510304839886544 28.4780847820937346 28.1128704123049964
 63.4184547223228137 33.3600651882452155 28.1128704123049964
 40.8696848559486625 28.4780847820937346 28.1128704123049964
 54.9626184839886562 28.4780847820937346 28.1128704123049964
 26.7766243503628161 33.3600651882452155 28.1128704123049964
 23.9580545363428143 33.3600651882452155 28.1128704123049964
  1.4092423503628120 33.3600651882452155 28.1128704123049964
 -4.2278972776771910 33.3600651882452155 28.1128704123049964
 -9.8651214636571893 33.3600651882452155 28.1128704123049964
 -15.5023456496371885 33.3600651882452155 28.1128704123049964
 50.7347637426410429 30.9190383704995000 28.1128704123049964
 39.4603999286210438 30.9190383704995000 28.1128704123049964
 33.8231757426410411 30.9190383704995000 28.1128704123049964
 28.1859515566610455 30.9190383704995000 28.1128704123049964
 25.3673817426410437 30.9190383704995000 28.1128704123049964
 22.5488119286210420 30.9190383704995000 28.1128704123049964
 11.2743635566610401 30.9190383704995000 28.1128704123049964
 -8.4557942573589582 30.9190383704995000 28.1128704123049964
 -11.2743640713789581 30.9190383704995000 28.1128704123049964
 66.2370668559486688 28.4780847820937346 28.1128704123049964
 63.4184124839886536 28.4780847820937346 28.1128704123049964
 43.6882546699686571 28.4780847820937346 28.1128704123049964
 45.0975394347540970 45.5649063596139996 28.1128704123049964
 -18.3209155855641299 48.0059331773597151 28.1128704123049964
 -7.0465517715441273 48.0059331773597151 28.1128704123049964
 -38.0510735621263052 67.5337083432857384 28.1128704123049964
 36.6417875511813165 65.0927547548799765 28.1128704123049964
 33.8231331792213084 65.0927547548799765 28.1128704123049964
 31.0045633652013137 65.0927547548799765 28.1128704123049964
 19.7301995511813146 65.0927547548799765 28.1128704123049964
 14.0929753652013119 65.0927547548799765 28.1128704123049964
 11.2744055511813173 65.0927547548799765 28.1128704123049964
 -0.0000428207786890 65.0927547548799765 28.1128704123049964
 -2.8186126347986837 65.0927547548799765 28.1128704123049964
 -25.3674248207786874 65.0927547548799765 28.1128704123049964
 -31.0045644488186873 65.0927547548799765 28.1128704123049964
 -36.6417886347986865 65.0927547548799765 28.1128704123049964
 46.5068664785089325 62.6518011664742076 28.1128704123049964
 15.5022602925289341 62.6518011664742076 28.1128704123049964
 12.6836904785089395 62.6518011664742076 28.1128704123049964
 19.7301573128471581 60.2107743487284921 28.1128704123049964
 14.0930176848071671 60.2107743487284921 28.1128704123049964
 -35.2325037481063035 67.5337083432857384 28.1128704123049964
 -0.0000005011728327 60.2107743487284921 28.1128704123049964
 -12.6836915621263024 67.5337083432857384 28.1128704123049964
 -4.2278975621263015 67.5337083432857384 28.1128704123049964
 23.9580964902278346 72.4156887494372228 28.1128704123049964
  7.0465084902278479 72.4156887494372228 28.1128704123049964
 -12.6837338817321594 72.4156887494372228 28.1128704123049964
 -15.5023036957521541 72.4156887494372228 28.1128704123049964
 -38.0511158817321586 72.4156887494372228 28.1128704123049964
 33.8231754175554755 69.9747351610314468 28.1128704123049964
  5.6371390455954664 69.9747351610314468 28.1128704123049964
 -2.8186549544045376 69.9747351610314468 28.1128704123049964
 -14.0930187684245301 69.9747351610314468 28.1128704123049964
 -16.9115885824445336 69.9747351610314468 28.1128704123049964
 -25.3673825824445345 69.9747351610314468 28.1128704123049964
 -31.0046067684245337 69.9747351610314468 28.1128704123049964
 43.6882966238536952 67.5337083432857384 28.1128704123049964
 38.0510724378736924 67.5337083432857384 28.1128704123049964
 35.2325026238536978 67.5337083432857384 28.1128704123049964
 23.9580542518936852 67.5337083432857384 28.1128704123049964
 -1.4093277481063067 67.5337083432857384 28.1128704123049964
 -7.0464673761463033 67.5337083432857384 28.1128704123049964
 -14.0930186871528367 60.2107743487284921 28.1128704123049964
 -16.9115885011728366 60.2107743487284921 28.1128704123049964
 -22.5488126871528358 60.2107743487284921 28.1128704123049964
 -31.0046066465175976 55.3288671719169614 28.1128704123049964
 26.7767087457606330 52.8878403541712458 28.1128704123049964
 18.3209147457606356 52.8878403541712458 28.1128704123049964
  7.0464663738006301 52.8878403541712458 28.1128704123049964
  4.2278965597806355 52.8878403541712458 28.1128704123049964
 -7.0464672542393672 52.8878403541712458 28.1128704123049964
 -9.8651216261993682 52.8878403541712458 28.1128704123049964
 -21.1394854402193673 52.8878403541712458 28.1128704123049964
 28.1859936730882552 50.4468867657654769 28.1128704123049964
 14.0929754871082551 50.4468867657654769 28.1128704123049964
  5.6371814871082586 50.4468867657654769 28.1128704123049964
 -14.0929763269117494 50.4468867657654769 28.1128704123049964
 54.9626606004158731 48.0059331773597151 28.1128704123049964
 40.8696424144358730 48.0059331773597151 28.1128704123049964
 38.0510726004158641 48.0059331773597151 28.1128704123049964
  9.8650362284558710 48.0059331773597151 28.1128704123049964
  7.0464664144358764 48.0059331773597151 28.1128704123049964
 -28.1860368324975958 55.3288671719169614 28.1128704123049964
 -16.9115884605376010 55.3288671719169614 28.1128704123049964
 -8.4557944605375948 55.3288671719169614 28.1128704123049964
 -5.6372246465175939 55.3288671719169614 28.1128704123049964
 -33.8231765011728385 60.2107743487284921 28.1128704123049964
 43.6882544261547849 57.7698207603227232 28.1128704123049964
 40.8696846121347903 57.7698207603227232 28.1128704123049964
 38.0510302401747822 57.7698207603227232 28.1128704123049964
 29.5952362401747777 57.7698207603227232 28.1128704123049964
 26.7766664261547831 57.7698207603227232 28.1128704123049964
 -4.2279397598252162 57.7698207603227232 28.1128704123049964
 -15.5023035738452162 57.7698207603227232 28.1128704123049964
  1.4093269895745080 23.5961043759422537 28.1128704123049964
 -18.3208733878652161 57.7698207603227232 28.1128704123049964
 -32.4138915738452127 57.7698207603227232 28.1128704123049964
 42.2789695394624090 55.3288671719169614 28.1128704123049964
 39.4603151675024009 55.3288671719169614 28.1128704123049964
 33.8231755394623974 55.3288671719169614 28.1128704123049964
 28.1859513534823982 55.3288671719169614 28.1128704123049964
 25.3673815394624036 55.3288671719169614 28.1128704123049964
  5.6371391675024016 55.3288671719169614 28.1128704123049964
 -2.8186548324975988 55.3288671719169614 28.1128704123049964
 -29.5953217598252145 57.7698207603227232 28.1128704123049964
 -1.4093273823854895 23.5961043759422537 28.1128704123049964
 39.4603576090151904 35.8010187766509844 28.1128704123049964
 -5.6372243214320203 16.2731703813850075 28.1128704123049964
 -7.0465092081243990 13.8322167929792403 28.1128704123049964
  5.6371818528290705  6.5092827984219914 28.1128704123049964
 35.2324184722697566 18.7141971991307194 28.1128704123049964
  1.4092425941766900  4.0683292100162243 28.1128704123049964
 38.0510728442297577 18.7141971991307194 28.1128704123049964
 76.1021459051832210 11.3912632045734714 28.1128704123049964
 40.8696426582497523 18.7141971991307194 28.1128704123049964
 28.1859940388090742  6.5092827984219914 28.1128704123049964
 50.7347639051832218 11.3912632045734714 28.1128704123049964
 47.9161940505279844 16.2731703813850075 28.1128704123049964
 46.5068668442297550 18.7141971991307194 28.1128704123049964
 47.9161095332232136 11.3912632045734714 28.1128704123049964
 -1.4093272198433096  4.0683292100162243 28.1128704123049964
 39.4604000505279870 16.2731703813850075 28.1128704123049964
 35.2324607918756030 13.8322167929792403 28.1128704123049964
 60.5998005941766849  4.0683292100162243 28.1128704123049964
 78.9207158004749090  1.6273023922705114 28.1128704123049964
 29.5952788442297496 18.7141971991307194 28.1128704123049964
 66.2370246582497515 18.7141971991307194 28.1128704123049964
 12.6836909661366875  4.0683292100162243 28.1128704123049964
 23.9580546582497540 18.7141971991307194 28.1128704123049964
 12.6836486058956019 13.8322167929792403 28.1128704123049964
  7.0465089778555976 13.8322167929792403 28.1128704123049964
 57.7812307801566902  4.0683292100162243 28.1128704123049964
 67.6463518645479809 16.2731703813850075 28.1128704123049964
 66.2370247801566876  4.0683292100162243 28.1128704123049964
 49.3254367801566929  4.0683292100162243 28.1128704123049964
 62.0091276785679781 16.2731703813850075 28.1128704123049964
  4.2278546058956001 13.8322167929792403 28.1128704123049964
 38.0510729661366938  4.0683292100162243 28.1128704123049964
 62.0091700388090601  6.5092827984219914 28.1128704123049964
 -4.2279393941043990 13.8322167929792403 28.1128704123049964
 12.6836908442297531 18.7141971991307194 28.1128704123049964
 71.8742489661366903  4.0683292100162243 28.1128704123049964
 18.3208304722697477 18.7141971991307194 28.1128704123049964
 21.1394848442297523 18.7141971991307194 28.1128704123049964
 15.5022607801566892  4.0683292100162243 28.1128704123049964
 33.8231336668490670  6.5092827984219914 28.1128704123049964
 50.7347638645479790 16.2731703813850075 28.1128704123049964
 70.4649218004749116  1.6273023922705114 28.1128704123049964
 64.8277820505279863 16.2731703813850075 28.1128704123049964
 59.1905579864549196  1.6273023922705114 28.1128704123049964
 38.0510729255014510  8.9502363868277595 28.1128704123049964
 49.3254789778556031 13.8322167929792403 28.1128704123049964
  8.4557938645479798 16.2731703813850075 28.1128704123049964
 43.6882971114814538  8.9502363868277595 28.1128704123049964
 60.5998427918756022 13.8322167929792403 28.1128704123049964
 53.5533759169021195 21.1551507875364884 28.1128704123049964
  5.6372240505279780 16.2731703813850075 28.1128704123049964
 63.4184126058955968 13.8322167929792403 28.1128704123049964
 29.5952789255014537  8.9502363868277595 28.1128704123049964
 -0.0000423331509293  6.5092827984219914 28.1128704123049964
 56.3719457309221283 21.1551507875364884 28.1128704123049964
 49.3254367395214430  8.9502363868277595 28.1128704123049964
  5.6371395332232206 11.3912632045734714 28.1128704123049964
 -2.8185699494720202 16.2731703813850075 28.1128704123049964
 70.4649639169021356 21.1551507875364884 28.1128704123049964
 74.6928187395214422  8.9502363868277595 28.1128704123049964
 54.9626609255014458  8.9502363868277595 28.1128704123049964
 11.2743638004749194  1.6273023922705114 28.1128704123049964
 19.7301578004749203  1.6273023922705114 28.1128704123049964
 54.9626186058955923 13.8322167929792403 28.1128704123049964
 36.6417879169021319 21.1551507875364884 28.1128704123049964
 74.6928187801566850  4.0683292100162243 28.1128704123049964
 69.0555944722697461 18.7141971991307194 28.1128704123049964
 53.5533338004749169  1.6273023922705114 28.1128704123049964
 15.5022607395214518  8.9502363868277595 28.1128704123049964
 23.9580547395214474  8.9502363868277595 28.1128704123049964
 22.5487697309221353 21.1551507875364884 28.1128704123049964
  5.6371817309221299 21.1551507875364884 28.1128704123049964
 11.2743636785679815 16.2731703813850075 28.1128704123049964
 42.2789699864549249  1.6273023922705114 28.1128704123049964
 47.9161941724349276  1.6273023922705114 28.1128704123049964
 14.0929758528290687  6.5092827984219914 28.1128704123049964
 26.7767091114814519  8.9502363868277595 28.1128704123049964
 19.7301999169021336 21.1551507875364884 28.1128704123049964
 25.3673819051832226 11.3912632045734714 28.1128704123049964
 -9.8651213823854889 23.5961043759422537 28.1128704123049964
 -2.8185702881026811 56.9561695641874692 28.6327538495249954
  7.0464667666116103  5.6956316022867357 28.6327538495249954
 42.2789695259173328 56.9561695641874692 28.6327538495249954
 28.1859513399373292 56.9561695641874692 28.6327538495249954
 -0.0000004740826793 56.9561695641874692 28.6327538495249954
 14.0930177118973283 56.9561695641874692 28.6327538495249954
 25.3673815259173274 56.9561695641874692 28.6327538495249954
 39.4603997118973240 56.9561695641874692 28.6327538495249954
 15.5022607666116095  5.6956316022867357 28.6327538495249954
 32.4138487666116077  5.6956316022867357 28.6327538495249954
 -32.4138915873902960 59.3971231525932382 28.6327538495249954
 18.3209151385716105  5.6956316022867357 28.6327538495249954
  0.0000420893370479 22.7824531798069998 28.6327538495249954
 -5.6372246600626781 56.9561695641874692 28.6327538495249954
 62.0091700252639910  8.1365851906925037 28.6327538495249954
  5.6371814735631682 52.0741891580359919 28.6327538495249954
 14.0929754735631594 52.0741891580359919 28.6327538495249954
 16.9116298455231728 52.0741891580359919 28.6327538495249954
 47.9161518392839980  8.1365851906925037 28.6327538495249954
 19.7301996595431604 52.0741891580359919 28.6327538495249954
 28.1859936595431719 52.0741891580359919 28.6327538495249954
 45.0975816595431809 52.0741891580359919 28.6327538495249954
 -21.1394854537644470 54.5151427464417537 28.6327538495249954
 28.1859940252639873  8.1365851906925037 28.6327538495249954
 -7.0464672677844442 54.5151427464417537 28.6327538495249954
 25.3674242112439856  8.1365851906925037 28.6327538495249954
 -4.2278974537644496 54.5151427464417537 28.6327538495249954
  7.0465509181955595 54.5151427464417537 28.6327538495249954
 15.5023449181955559 54.5151427464417537 28.6327538495249954
 21.1394845462355612 54.5151427464417537 28.6327538495249954
 23.9581389181955480 54.5151427464417537 28.6327538495249954
 -14.0930186600626755 56.9561695641874692 28.6327538495249954
 57.7812307666116141  5.6956316022867357 28.6327538495249954
 -16.9115884740826736 56.9561695641874692 28.6327538495249954
 60.5998851385716151  5.6956316022867357 28.6327538495249954
 -28.1859522881026763 56.9561695641874692 28.6327538495249954
 -31.0046066600626737 56.9561695641874692 28.6327538495249954
 49.3254367666116167  5.6956316022867357 28.6327538495249954
 63.4184549525916097  5.6956316022867357 28.6327538495249954
 77.5114731385716169  5.6956316022867357 28.6327538495249954
 32.4139329181955560 54.5151427464417537 28.6327538495249954
 29.5952785462355585 54.5151427464417537 28.6327538495249954
  5.6371818392839907  8.1365851906925037 28.6327538495249954
 26.7767087322155568 54.5151427464417537 28.6327538495249954
 14.0929758392839890  8.1365851906925037 28.6327538495249954
 66.2370247666116256  5.6956316022867357 28.6327538495249954
 74.6928187666116230  5.6956316022867357 28.6327538495249954
 73.2835761588898578  3.2546047845410229 28.6327538495249954
 -15.5023035873902977 59.3971231525932382 28.6327538495249954
 -1.4092432037113782 69.1610107355562462 28.6327538495249954
 -4.2278975756713866 69.1610107355562462 28.6327538495249954
 -12.6836915756713875 69.1610107355562462 28.6327538495249954
 -15.5022613896913821 69.1610107355562462 28.6327538495249954
 49.3254790862174488  0.8136511961352557 28.6327538495249954
 -29.5952795756713840 69.1610107355562462 28.6327538495249954
 -32.4138493896913857 69.1610107355562462 28.6327538495249954
 36.6417875376362474 66.7200571471504844 28.6327538495249954
 83.1486550862174738  0.8136511961352557 28.6327538495249954
 33.8232177236162386 66.7200571471504844 28.6327538495249954
 25.3674237236162377 66.7200571471504844 28.6327538495249954
 22.5487693516562366 66.7200571471504844 28.6327538495249954
 19.7301995376362349 66.7200571471504844 28.6327538495249954
  8.4558357236162376 66.7200571471504844 28.6327538495249954
  5.6371813516562215 66.7200571471504844 28.6327538495249954
  4.2278964243286037 69.1610107355562462 28.6327538495249954
 29.5953212721974559  0.8136511961352557 28.6327538495249954
  7.0465507962886189 69.1610107355562462 28.6327538495249954
 21.1394844243286215 69.1610107355562462 28.6327538495249954
  8.4557934040103735 71.6020375533019688 28.6327538495249954
 15.5023030862174611  0.8136511961352557 28.6327538495249954
  5.6372235899903860 71.6020375533019688 28.6327538495249954
 -11.2743644100096230 71.6020375533019688 28.6327538495249954
 18.3208729002374611  0.8136511961352557 28.6327538495249954
 -14.0930187819696204 71.6020375533019688 28.6327538495249954
 -16.9115885959896168 71.6020375533019688 28.6327538495249954
  0.0000417236162395 66.7200571471504844 28.6327538495249954
 -36.6417464100096169 71.6020375533019688 28.6327538495249954
 -39.4604007819696179 71.6020375533019688 28.6327538495249954
 43.6882966103086261 69.1610107355562462 28.6327538495249954
 40.8697267962886173 69.1610107355562462 28.6327538495249954
 26.7766669002374584  0.8136511961352557 28.6327538495249954
 32.4139327962886199 69.1610107355562462 28.6327538495249954
 26.7767086103086172 69.1610107355562462 28.6327538495249954
 23.9581387962886225 69.1610107355562462 28.6327538495249954
 21.1395272721974621  0.8136511961352557 28.6327538495249954
 -18.3208734014102959 59.3971231525932382 28.6327538495249954
 -0.0000000270901599  3.2546047845410229 28.6327538495249954
 -5.6371824623637705 66.7200571471504844 28.6327538495249954
 14.0930176712620749 61.8380767409990000 28.6327538495249954
 64.8277398392839928  8.1365851906925037 28.6327538495249954
 -14.0929341427579153 61.8380767409990000 28.6327538495249954
 -22.5487281427579163 61.8380767409990000 28.6327538495249954
 -25.3673825147179137 61.8380767409990000 28.6327538495249954
 49.3254785985897115 59.3971231525932382 28.6327538495249954
 46.5069087845697027 59.3971231525932382 28.6327538495249954
 43.6882544126097088 59.3971231525932382 28.6327538495249954
 35.2324604126097114 59.3971231525932382 28.6327538495249954
 32.4138905985897026 59.3971231525932382 28.6327538495249954
 21.1395267845696964 59.3971231525932382 28.6327538495249954
 76.1021459729098524  3.2546047845410229 28.6327538495249954
 -1.4093272333883895  5.6956316022867357 28.6327538495249954
 -1.4092854014103018 59.3971231525932382 28.6327538495249954
 -12.6836492154302967 59.3971231525932382 28.6327538495249954
 33.8231754852820927 61.8380767409990000 28.6327538495249954
 36.6418298572420866 61.8380767409990000 28.6327538495249954
 45.0976238572420840 61.8380767409990000 28.6327538495249954
 47.9161936712620928 61.8380767409990000 28.6327538495249954
 11.2744483448698372  3.2546047845410229 28.6327538495249954
 -22.5487704623637697 66.7200571471504844 28.6327538495249954
 14.0930181588898407  3.2546047845410229 28.6327538495249954
 16.9115879729098388  3.2546047845410229 28.6327538495249954
 36.6418303448698452  3.2546047845410229 28.6327538495249954
 32.4138482789838704 64.2791035587447084 28.6327538495249954
 39.4604001588898399  3.2546047845410229 28.6327538495249954
 -2.8186126483437688 66.7200571471504844 28.6327538495249954
 15.5022602789838597 64.2791035587447084 28.6327538495249954
 12.6836904649638509 64.2791035587447084 28.6327538495249954
  7.0464662789838490 64.2791035587447084 28.6327538495249954
 56.3719881588898417  3.2546047845410229 28.6327538495249954
 -23.9580553490561456 64.2791035587447084 28.6327538495249954
 59.1905579729098434  3.2546047845410229 28.6327538495249954
 -26.7767097210161431 64.2791035587447084 28.6327538495249954
 62.0092123448698445  3.2546047845410229 28.6327538495249954
 47.9161941588898301  3.2546047845410229 28.6327538495249954
 73.2835338392839901  8.1365851906925037 28.6327538495249954
 28.1860359791490147 47.1922087518845075 28.6327538495249954
 54.9626605868708040 49.6332355696302230 28.6327538495249954
 -0.0000002709040391 32.5463407627700150 28.6327538495249954
 -11.2743640849240396 32.5463407627700150 28.6327538495249954
 -14.0929338989440378 32.5463407627700150 28.6327538495249954
 54.9627030283835865 30.1053871743642461 28.6327538495249954
 52.1440486564235925 30.1053871743642461 28.6327538495249954
 49.3254788424035837 30.1053871743642461 28.6327538495249954
 40.8696848424035863 30.1053871743642461 28.6327538495249954
 38.0511150283835775 30.1053871743642461 28.6327538495249954
 36.6418302229629020 17.9004727736555189 28.6327538495249954
 39.4604000369828896 17.9004727736555189 28.6327538495249954
 23.9580968424035810 30.1053871743642461 28.6327538495249954
 12.6837330283835765 30.1053871743642461 28.6327538495249954
 42.2789698510029055 17.9004727736555189 28.6327538495249954
  9.8650786564235791 30.1053871743642461 28.6327538495249954
 -9.8650791575964192 30.1053871743642461 28.6327538495249954
  2.8186541010559618 32.5463407627700150 28.6327538495249954
 22.5488119150759623 32.5463407627700150 28.6327538495249954
 11.2744482229629011 17.9004727736555189 28.6327538495249954
 25.3673817290959498 32.5463407627700150 28.6327538495249954
 32.4138485227977426 34.9873675805157234 28.6327538495249954
 63.4184971502905270 15.4595191852497500 28.6327538495249954
 29.5952787087777267 34.9873675805157234 28.6327538495249954
 26.7767088947577392 34.9873675805157234 28.6327538495249954
 18.3209148947577418 34.9873675805157234 28.6327538495249954
  9.8651208947577302 34.9873675805157234 28.6327538495249954
  1.4093268947577322 34.9873675805157234 28.6327538495249954
 47.9161940369829011 17.9004727736555189 28.6327538495249954
 66.2370669643105288 15.4595191852497500 28.6327538495249954
 -9.8651214772022673 34.9873675805157234 28.6327538495249954
 -2.8185699630171004 17.9004727736555189 28.6327538495249954
 50.7347637290959668 32.5463407627700150 28.6327538495249954
 47.9161939150759579 32.5463407627700150 28.6327538495249954
 -0.0000001489970986 17.9004727736555189 28.6327538495249954
 28.1860361010559650 32.5463407627700150 28.6327538495249954
  8.4557938510029000 17.9004727736555189 28.6327538495249954
 -1.4093274772022688 34.9873675805157234 28.6327538495249954
 -12.6836489716164174 30.1053871743642461 28.6327538495249954
 62.0092122229629013 17.9004727736555189 28.6327538495249954
 64.8277819557112025 27.6644335859584807 28.6327538495249954
 12.6836907900494289 25.2234067682127652 28.6327538495249954
  9.8651209760294343 25.2234067682127652 28.6327538495249954
 38.0510728306846602 20.3414995914012344 28.6327538495249954
 40.8696426447046761 20.3414995914012344 28.6327538495249954
  1.4093269760294336 25.2234067682127652 28.6327538495249954
 -7.0464670239705693 25.2234067682127652 28.6327538495249954
 -9.8650368379905675 25.2234067682127652 28.6327538495249954
 29.5952787900494201 25.2234067682127652 28.6327538495249954
 54.9626608306846691 20.3414995914012344 28.6327538495249954
 69.0556790166646692 20.3414995914012344 28.6327538495249954
 31.0045637173770388 22.7824531798069998 28.6327538495249954
 28.1859939033570512 22.7824531798069998 28.6327538495249954
 25.3674240893370566 22.7824531798069998 28.6327538495249954
 19.7301999033570468 22.7824531798069998 28.6327538495249954
 71.8742488306846781 20.3414995914012344 28.6327538495249954
 -11.2744062826229499 22.7824531798069998 28.6327538495249954
 56.3719457173770593 22.7824531798069998 28.6327538495249954
 25.3673814040103807 71.6020375533019688 28.6327538495249954
 23.9580546447046672 20.3414995914012344 28.6327538495249954
 21.1394848306846654 20.3414995914012344 28.6327538495249954
 64.8277820369829101 17.9004727736555189 28.6327538495249954
 62.0091275837512086 27.6644335859584807 28.6327538495249954
 47.9161939557112078 27.6644335859584807 28.6327538495249954
 67.6463518510029047 17.9004727736555189 28.6327538495249954
 42.2789697697312050 27.6644335859584807 28.6327538495249954
 39.4603999557111962 27.6644335859584807 28.6327538495249954
 70.4650062229628986 17.9004727736555189 28.6327538495249954
 49.3255211620094371 25.2234067682127652 28.6327538495249954
 -9.8651213552953294 20.3414995914012344 28.6327538495249954
  1.4093270166646681 20.3414995914012344 28.6327538495249954
  8.4557937697312031 27.6644335859584807 28.6327538495249954
 -5.6372244162487979 27.6644335859584807 28.6327538495249954
 -8.4557942302688005 27.6644335859584807 28.6327538495249954
 18.3209150166646637 20.3414995914012344 28.6327538495249954
 63.4184547900494380 25.2234067682127652 28.6327538495249954
 60.5998849760294434 25.2234067682127652 28.6327538495249954
 11.2743635837511977 27.6644335859584807 28.6327538495249954
 57.7812305227977419 34.9873675805157234 28.6327538495249954
 54.9627031502905297 15.4595191852497500 28.6327538495249954
 49.3254789643105269 15.4595191852497500 28.6327538495249954
  5.6372237931690181 47.1922087518845075 28.6327538495249954
 -5.6371400208509774 47.1922087518845075 28.6327538495249954
 38.0510729119563607 10.5775387790982709 28.6327538495249954
 -8.4557943928109793 47.1922087518845075 28.6327538495249954
 40.8697272839163759 10.5775387790982709 28.6327538495249954
 57.7812727204966521 44.7512551634787386 28.6327538495249954
 46.5069089064766459 44.7512551634787386 28.6327538495249954
 29.5952789119563668 10.5775387790982709 28.6327538495249954
 49.3255212839163661 10.5775387790982709 28.6327538495249954
 29.5953209064766369 44.7512551634787386 28.6327538495249954
 26.7766665345166501 44.7512551634787386 28.6327538495249954
 23.9580967204966342 44.7512551634787386 28.6327538495249954
  9.8650785345166412 44.7512551634787386 28.6327538495249954
 -5.6372242943418591 13.0185655968439828 28.6327538495249954
 -1.4092852795033535 44.7512551634787386 28.6327538495249954
 -4.2278550935233552 44.7512551634787386 28.6327538495249954
 32.4138907204966458 44.7512551634787386 28.6327538495249954
 -7.0465094654833562 44.7512551634787386 28.6327538495249954
  8.4557936071890190 47.1922087518845075 28.6327538495249954
 36.6418299791490298 47.1922087518845075 28.6327538495249954
 43.6882967728507978 49.6332355696302230 28.6327538495249954
 40.8696424008908039 49.6332355696302230 28.6327538495249954
 15.5022604008907816 49.6332355696302230 28.6327538495249954
  7.0464664008907913 49.6332355696302230 28.6327538495249954
  7.0465512839163686 10.5775387790982709 28.6327538495249954
  4.2278965868707896 49.6332355696302230 28.6327538495249954
 18.3209150979363713 10.5775387790982709 28.6327538495249954
 26.7767090979363651 10.5775387790982709 28.6327538495249954
 -15.5022612271492086 49.6332355696302230 28.6327538495249954
 56.3719877931690334 47.1922087518845075 28.6327538495249954
 21.1394849119563659 10.5775387790982709 28.6327538495249954
 53.5534179791490246 47.1922087518845075 28.6327538495249954
 45.0976239791490272 47.1922087518845075 28.6327538495249954
 42.2789696071890333 47.1922087518845075 28.6327538495249954
 23.9581392839163634 10.5775387790982709 28.6327538495249954
 39.4603997931690245 47.1922087518845075 28.6327538495249954
 -18.3209155991092061 49.6332355696302230 28.6327538495249954
 -22.5487703404568300 52.0741891580359919 28.6327538495249954
 -9.8650792795033553 44.7512551634787386 28.6327538495249954
 -23.9580974654833554 44.7512551634787386 28.6327538495249954
 -4.2278548497094786 15.4595191852497500 28.6327538495249954
  9.8651208541224857 39.8692747573272612 28.6327538495249954
 -1.4092850356894804 15.4595191852497500 28.6327538495249954
  7.0465089643105223 15.4595191852497500 28.6327538495249954
 -15.5022611458775117 39.8692747573272612 28.6327538495249954
 -18.3208309598975099 39.8692747573272612 28.6327538495249954
  9.8650787783305205 15.4595191852497500 28.6327538495249954
 18.3209148541224920 39.8692747573272612 28.6327538495249954
 62.0091697814501188 37.4283211689214923 28.6327538495249954
 12.6837331502905215 15.4595191852497500 28.6327538495249954
 42.2790119674301152 37.4283211689214923 28.6327538495249954
 38.0511151502905278 15.4595191852497500 28.6327538495249954
 39.4603575954701142 37.4283211689214923 28.6327538495249954
 16.9116299674301196 37.4283211689214923 28.6327538495249954
 11.2744057814501097 37.4283211689214923 28.6327538495249954
  0.0000419674301133 37.4283211689214923 28.6327538495249954
 59.1905999674301100 37.4283211689214923 28.6327538495249954
  5.6372240776181393 13.0185655968439828 28.6327538495249954
 76.1021458916381448 13.0185655968439828 28.6327538495249954
 52.1440908541225028 39.8692747573272612 28.6327538495249954
 53.5533334618442680 42.3103015750729767 28.6327538495249954
 50.7347636478242734 42.3103015750729767 28.6327538495249954
 47.9161938338042646 42.3103015750729767 28.6327538495249954
 28.1859514618442688 42.3103015750729767 28.6327538495249954
 19.7301577056581365 13.0185655968439828 28.6327538495249954
 25.3673816478242529 42.3103015750729767 28.6327538495249954
 22.5488120776181340 13.0185655968439828 28.6327538495249954
 38.0510726681424956 39.8692747573272612 28.6327538495249954
 22.5488118338042653 42.3103015750729767 28.6327538495249954
  8.4557936478242581 42.3103015750729767 28.6327538495249954
 33.8231758916381438 13.0185655968439828 28.6327538495249954
 -0.0000003521757358 42.3103015750729767 28.6327538495249954
 47.9161940776181368 13.0185655968439828 28.6327538495249954
 -16.9115883521757375 42.3103015750729767 28.6327538495249954
 -19.7301581661957393 42.3103015750729767 28.6327538495249954
 54.9626606681424974 39.8692747573272612 28.6327538495249954
 16.9115876478242626 42.3103015750729767 28.6327538495249954
 42.2789694040103896 71.6020375533019688 28.6327538495249954
