 H  O 
 1.0000000000000000
    84.5579400000000021    0.0000000000000000    0.0000000000000000
   -42.2789706095346958   73.2293399455724767    0.0000000000000000
     0.0000000000000000    0.0000000000000000   46.9039550000000034
 H   O  
 213 367
Cartesian
 26.7766664261547831 57.7698207603227232 28.1128704123049964
 32.4138486176145122 23.5961043759422537 28.1128704123049964
 43.6882969895745106 23.5961043759422537 28.1128704123049964
 54.9626608035945097 23.5961043759422537 28.1128704123049964
 60.5998849895745124 23.5961043759422537 28.1128704123049964
 63.4184548035945070 23.5961043759422537 28.1128704123049964
 66.2370246176145088 23.5961043759422537 28.1128704123049964
 69.0556789895745169 23.5961043759422537 28.1128704123049964
  1.4092844261547897 57.7698207603227232 28.1128704123049964
 -14.0930184027037182 26.0371311936879657 28.1128704123049964
 -5.6372244027037182 26.0371311936879657 28.1128704123049964
 -0.0000002167237204 26.0371311936879657 28.1128704123049964
 11.2743635972962863 26.0371311936879657 28.1128704123049964
 -15.5023035738452162 57.7698207603227232 28.1128704123049964
 -18.3208733878652161 57.7698207603227232 28.1128704123049964
 -21.1395277598252136 57.7698207603227232 28.1128704123049964
 45.0975395972962758 26.0371311936879657 28.1128704123049964
 53.5533335972962803 26.0371311936879657 28.1128704123049964
 -15.5023033300313369 28.4780847820937346 28.1128704123049964
 -7.0465093300313377 28.4780847820937346 28.1128704123049964
 47.9161091675023982 55.3288671719169614 28.1128704123049964
 -1.4092851440513405 28.4780847820937346 28.1128704123049964
  1.4092846699686612 28.4780847820937346 28.1128704123049964
 42.2789695394624090 55.3288671719169614 28.1128704123049964
 23.9580968559486607 28.4780847820937346 28.1128704123049964
 25.3673815394624036 55.3288671719169614 28.1128704123049964
 49.3254788559486528 28.4780847820937346 28.1128704123049964
 -0.0000004605375943 55.3288671719169614 28.1128704123049964
 -11.2743640713789581 30.9190383704995000 28.1128704123049964
  5.6372239286210437 30.9190383704995000 28.1128704123049964
 26.7767089895745123 23.5961043759422537 28.1128704123049964
  7.0465086121347857 57.7698207603227232 28.1128704123049964
  9.8651209895745122 23.5961043759422537 28.1128704123049964
 -1.4093273823854895 23.5961043759422537 28.1128704123049964
 47.9161940505279844 16.2731703813850075 28.1128704123049964
 50.7347638645479790 16.2731703813850075 28.1128704123049964
 -12.6836915214910633 62.6518011664742076 28.1128704123049964
 62.0091276785679781 16.2731703813850075 28.1128704123049964
 67.6463518645479809 16.2731703813850075 28.1128704123049964
 -18.3209157074710660 62.6518011664742076 28.1128704123049964
  1.4092424722697507 18.7141971991307194 28.1128704123049964
 -23.9581398934510652 62.6518011664742076 28.1128704123049964
 -32.4139338934510661 62.6518011664742076 28.1128704123049964
 21.1394848442297523 18.7141971991307194 28.1128704123049964
 29.5952788442297496 18.7141971991307194 28.1128704123049964
 42.2789694988271592 60.2107743487284921 28.1128704123049964
 25.3673814988271609 60.2107743487284921 28.1128704123049964
 14.0930176848071671 60.2107743487284921 28.1128704123049964
  8.4557937426410454 30.9190383704995000 28.1128704123049964
 57.7812306582497541 18.7141971991307194 28.1128704123049964
  8.4557934988271644 60.2107743487284921 28.1128704123049964
  2.8185693128471621 60.2107743487284921 28.1128704123049964
 -0.0000005011728327 60.2107743487284921 28.1128704123049964
 -2.8186122690778692 21.1551507875364884 28.1128704123049964
 -5.6372246871528393 60.2107743487284921 28.1128704123049964
 -11.2743643151928357 60.2107743487284921 28.1128704123049964
 -14.0930186871528367 60.2107743487284921 28.1128704123049964
 -22.5488126871528358 60.2107743487284921 28.1128704123049964
 35.2324604261547876 57.7698207603227232 28.1128704123049964
 32.4138906121347787 57.7698207603227232 28.1128704123049964
 62.0091699169021311 21.1551507875364884 28.1128704123049964
 23.9580966121347885 57.7698207603227232 28.1128704123049964
 -7.0464670104254905 23.5961043759422537 28.1128704123049964
 -4.2278971964054897 23.5961043759422537 28.1128704123049964
 66.2370246582497515 18.7141971991307194 28.1128704123049964
 42.2789698645479817 16.2731703813850075 28.1128704123049964
 -16.9115884605376010 55.3288671719169614 28.1128704123049964
 -19.7302428324975985 55.3288671719169614 28.1128704123049964
 38.0510726816875717 38.2419723650567462 28.1128704123049964
 46.5068666816875762 38.2419723650567462 28.1128704123049964
 49.3254364957075708 38.2419723650567462 28.1128704123049964
 54.9626606816875736 38.2419723650567462 28.1128704123049964
 -22.5488125246106605 40.6829991828024689 28.1128704123049964
 29.5952786004158739 48.0059331773597151 28.1128704123049964
 -2.8186547105906588 40.6829991828024689 28.1128704123049964
 11.2743634753893449 40.6829991828024689 28.1128704123049964
 22.5487272894093422 40.6829991828024689 28.1128704123049964
 25.3673816613693432 40.6829991828024689 28.1128704123049964
  7.0464664144358764 48.0059331773597151 28.1128704123049964
  1.4092422284558699 48.0059331773597151 28.1128704123049964
 -1.4093275855641247 48.0059331773597151 28.1128704123049964
 -4.2278973995841262 48.0059331773597151 28.1128704123049964
 -7.0465517715441273 48.0059331773597151 28.1128704123049964
 -18.3209155855641299 48.0059331773597151 28.1128704123049964
 -23.9580974519382757 43.1239527712082307 28.1128704123049964
 -21.1395276379182775 43.1239527712082307 28.1128704123049964
 -9.8650792659582809 43.1239527712082307 28.1128704123049964
 -1.4092852659582757 43.1239527712082307 28.1128704123049964
 47.9161938067141051 45.5649063596139996 28.1128704123049964
  7.0465087340417254 43.1239527712082307 28.1128704123049964
 15.5023027340417219 43.1239527712082307 28.1128704123049964
 23.9580967340417281 43.1239527712082307 28.1128704123049964
 33.8231756207340979 45.5649063596139996 28.1128704123049964
 32.4138907340417219 43.1239527712082307 28.1128704123049964
 52.1440485480617184 43.1239527712082307 28.1128704123049964
 54.9626183620817130 43.1239527712082307 28.1128704123049964
 57.7812727340417212 43.1239527712082307 28.1128704123049964
 18.3209148676675753 38.2419723650567462 28.1128704123049964
 -16.9116306988717469 50.4468867657654769 28.1128704123049964
 -9.8651215042924267 38.2419723650567462 28.1128704123049964
 -15.5022611323324266 38.2419723650567462 28.1128704123049964
 36.6417455566610357 30.9190383704995000 28.1128704123049964
 42.2789697426410385 30.9190383704995000 28.1128704123049964
 46.5068665597806330 52.8878403541712458 28.1128704123049964
 -18.3209154636571903 33.3600651882452155 28.1128704123049964
 38.0510725597806356 52.8878403541712458 28.1128704123049964
 -12.6836912776771893 33.3600651882452155 28.1128704123049964
 -9.8651214636571893 33.3600651882452155 28.1128704123049964
 -4.2278972776771910 33.3600651882452155 28.1128704123049964
 -1.4093274636571897 33.3600651882452155 28.1128704123049964
 35.2325027457606268 52.8878403541712458 28.1128704123049964
 12.6836907223228135 33.3600651882452155 28.1128704123049964
 18.3209147457606356 52.8878403541712458 28.1128704123049964
 21.1394847223228126 33.3600651882452155 28.1128704123049964
  9.8651207457606311 52.8878403541712458 28.1128704123049964
 28.1859515566610455 30.9190383704995000 28.1128704123049964
  4.2278965597806355 52.8878403541712458 28.1128704123049964
 43.6882123503628037 33.3600651882452155 28.1128704123049964
 49.3254365363428136 33.3600651882452155 28.1128704123049964
 -19.7302003909848089 35.8010187766509844 28.1128704123049964
 -14.0929762050048097 35.8010187766509844 28.1128704123049964
 -18.3209156261993691 52.8878403541712458 28.1128704123049964
  8.4557514230351885 35.8010187766509844 28.1128704123049964
 47.9161514871082517 50.4468867657654769 28.1128704123049964
 36.6417876730882455 50.4468867657654769 28.1128704123049964
 42.2789274230351850 35.8010187766509844 28.1128704123049964
 45.0975817949951860 35.8010187766509844 28.1128704123049964
 31.0045634871082498 50.4468867657654769 28.1128704123049964
 50.7347214230351895 35.8010187766509844 28.1128704123049964
 59.1905154230351869 35.8010187766509844 28.1128704123049964
 22.5487694871082525 50.4468867657654769 28.1128704123049964
 40.8696425363428091 33.3600651882452155 28.1128704123049964
 39.4604000505279870 16.2731703813850075 28.1128704123049964
 -0.0000003792658964 45.5649063596139996 28.1128704123049964
 33.8231758645479843 16.2731703813850075 28.1128704123049964
 57.7812307395214404  8.9502363868277595 28.1128704123049964
 43.6882125941766972  4.0683292100162243 28.1128704123049964
  5.6371390455954664 69.9747351610314468 28.1128704123049964
 -7.0464673761463033 67.5337083432857384 28.1128704123049964
 -12.6836915621263024 67.5337083432857384 28.1128704123049964
  8.4557934175554603 69.9747351610314468 28.1128704123049964
 -2.8186544667767790 11.3912632045734714 28.1128704123049964
 32.4138487801566981  4.0683292100162243 28.1128704123049964
 29.5952789661366928  4.0683292100162243 28.1128704123049964
 14.0929330455954638 69.9747351610314468 28.1128704123049964
 46.5068669661366982  4.0683292100162243 28.1128704123049964
 19.7301577192032234 11.3912632045734714 28.1128704123049964
 15.5022607801566892  4.0683292100162243 28.1128704123049964
 -19.7302429544045346 69.9747351610314468 28.1128704123049964
 28.1859517192032243 11.3912632045734714 28.1128704123049964
 14.0929753652013119 65.0927547548799765 28.1128704123049964
 42.2789699051832244 11.3912632045734714 28.1128704123049964
 45.0975397192032190 11.3912632045734714 28.1128704123049964
  5.6371813652013136 65.0927547548799765 28.1128704123049964
  2.8186115511813119 65.0927547548799765 28.1128704123049964
  9.8650365941766900  4.0683292100162243 28.1128704123049964
 62.0091277192032209 11.3912632045734714 28.1128704123049964
 16.9115451792213065 65.0927547548799765 28.1128704123049964
 -2.8186126347986837 65.0927547548799765 28.1128704123049964
 57.7812307801566902  4.0683292100162243 28.1128704123049964
 52.1440911114814512  8.9502363868277595 28.1128704123049964
 16.9115456668490722  6.5092827984219914 28.1128704123049964
 -25.3673825824445345 69.9747351610314468 28.1128704123049964
 31.0045638528290759  6.5092827984219914 28.1128704123049964
 39.4603578528290697  6.5092827984219914 28.1128704123049964
 11.2744060388090670  6.5092827984219914 28.1128704123049964
 -33.8231765824445318 69.9747351610314468 28.1128704123049964
  8.4557516668490695  6.5092827984219914 28.1128704123049964
 45.0975820388090725  6.5092827984219914 28.1128704123049964
 47.9161518528290671  6.5092827984219914 28.1128704123049964
 56.3719458528290644  6.5092827984219914 28.1128704123049964
 60.5998005941766849  4.0683292100162243 28.1128704123049964
 -8.4557945824445344 69.9747351610314468 28.1128704123049964
 -5.6372247684245327 69.9747351610314468 28.1128704123049964
  4.2278969255014500  8.9502363868277595 28.1128704123049964
  7.0464667395214500  8.9502363868277595 28.1128704123049964
  9.8651211114814483  8.9502363868277595 28.1128704123049964
 18.3209151114814510  8.9502363868277595 28.1128704123049964
 -0.0000005824445366 69.9747351610314468 28.1128704123049964
 77.5113885941766796  4.0683292100162243 28.1128704123049964
 71.8742489661366903  4.0683292100162243 28.1128704123049964
 66.2370247801566876  4.0683292100162243 28.1128704123049964
 43.6882971114814538  8.9502363868277595 28.1128704123049964
 36.6417456785679860 16.2731703813850075 28.1128704123049964
  1.4092425941766900  4.0683292100162243 28.1128704123049964
 12.6836909661366875  4.0683292100162243 28.1128704123049964
 35.2324607918756030 13.8322167929792403 28.1128704123049964
 70.4649217192032182 11.3912632045734714 28.1128704123049964
 -4.2279398817321576 72.4156887494372228 28.1128704123049964
 40.8696849778556057 13.8322167929792403 28.1128704123049964
 46.5068246058955950 13.8322167929792403 28.1128704123049964
  4.2278541182678469 72.4156887494372228 28.1128704123049964
 15.5023024902278443 72.4156887494372228 28.1128704123049964
 46.5068664785089325 62.6518011664742076 28.1128704123049964
 29.5952784785089271 62.6518011664742076 28.1128704123049964
 21.1394844785089369 62.6518011664742076 28.1128704123049964
 29.5952361182678381 72.4156887494372228 28.1128704123049964
  5.6372241724349186  1.6273023922705114 28.1128704123049964
 -8.4557941354520185 16.2731703813850075 28.1128704123049964
 -2.8185699494720202 16.2731703813850075 28.1128704123049964
 14.0930180505279825 16.2731703813850075 28.1128704123049964
 23.9580542925289315 62.6518011664742076 28.1128704123049964
 -29.5953218817321577 72.4156887494372228 28.1128704123049964
 -14.0930187684245301 69.9747351610314468 28.1128704123049964
 78.9207158004749090  1.6273023922705114 28.1128704123049964
 33.8231754175554755 69.9747351610314468 28.1128704123049964
 28.1859512315754728 69.9747351610314468 28.1128704123049964
 -11.2744066347986838 65.0927547548799765 28.1128704123049964
  4.2278546058956001 13.8322167929792403 28.1128704123049964
 -19.7302006347986882 65.0927547548799765 28.1128704123049964
 -1.4092850221444004 13.8322167929792403 28.1128704123049964
 76.1021459051832210 11.3912632045734714 28.1128704123049964
 -8.4558368207786891 65.0927547548799765 28.1128704123049964
 54.9626605868708040 49.6332355696302230 28.6327538495249954
 39.4603997931690245 47.1922087518845075 28.6327538495249954
 26.7766665345166501 44.7512551634787386 28.6327538495249954
 40.8696424008908039 49.6332355696302230 28.6327538495249954
 19.7301572180303850 71.6020375533019688 28.6327538495249954
 16.9115876071890092 47.1922087518845075 28.6327538495249954
 -28.1859945264368292 52.0741891580359919 28.6327538495249954
 -22.5487703404568300 52.0741891580359919 28.6327538495249954
 -9.8650372037113900 69.1610107355562462 28.6327538495249954
 29.5953209064766369 44.7512551634787386 28.6327538495249954
 -14.0929763404568273 52.0741891580359919 28.6327538495249954
 -11.2744065264368292 52.0741891580359919 28.6327538495249954
 21.1395269064766467 44.7512551634787386 28.6327538495249954
 -8.4557521544768282 52.0741891580359919 28.6327538495249954
 22.5488115899903860 71.6020375533019688 28.6327538495249954
 14.0930177931690217 47.1922087518845075 28.6327538495249954
 18.3208725345166314 44.7512551634787386 28.6327538495249954
 -5.6371823404568273 52.0741891580359919 28.6327538495249954
 -2.8186125264368322 52.0741891580359919 28.6327538495249954
 11.2744479791490271 47.1922087518845075 28.6327538495249954
 15.5023027204966439 44.7512551634787386 28.6327538495249954
  9.8650785345166412 44.7512551634787386 28.6327538495249954
 23.9580967204966342 44.7512551634787386 28.6327538495249954
 -4.2278975756713866 69.1610107355562462 28.6327538495249954
 29.5952784243286260 69.1610107355562462 28.6327538495249954
 -16.9115883928109767 47.1922087518845075 28.6327538495249954
 42.2789696071890333 47.1922087518845075 28.6327538495249954
 21.1394844243286215 69.1610107355562462 28.6327538495249954
 -39.4604007819696179 71.6020375533019688 28.6327538495249954
 40.8697267962886173 69.1610107355562462 28.6327538495249954
 -28.1859524100096195 71.6020375533019688 28.6327538495249954
 45.0976239791490272 47.1922087518845075 28.6327538495249954
 -19.7301582068309784 47.1922087518845075 28.6327538495249954
 50.7347636071890307 47.1922087518845075 28.6327538495249954
 56.3719877931690334 47.1922087518845075 28.6327538495249954
 -26.7767095991092070 49.6332355696302230 28.6327538495249954
 -25.3673825959896213 71.6020375533019688 28.6327538495249954
 -23.9580552271492060 49.6332355696302230 28.6327538495249954
 32.4138484008907994 49.6332355696302230 28.6327538495249954
 -25.3673823928109776 47.1922087518845075 28.6327538495249954
 -8.4557945959896212 71.6020375533019688 28.6327538495249954
 -15.5022612271492086 49.6332355696302230 28.6327538495249954
 -9.8651215991092069 49.6332355696302230 28.6327538495249954
  4.2278965868707896 49.6332355696302230 28.6327538495249954
 46.5069089064766459 44.7512551634787386 28.6327538495249954
 15.5022604008907816 49.6332355696302230 28.6327538495249954
 38.0510724243286234 69.1610107355562462 28.6327538495249954
 26.7767087728507853 49.6332355696302230 28.6327538495249954
 43.6882545345166520 44.7512551634787386 28.6327538495249954
 19.7302419791490244 47.1922087518845075 28.6327538495249954
 -0.0000005959896168 71.6020375533019688 28.6327538495249954
 38.0511149064766485 44.7512551634787386 28.6327538495249954
 -11.2743644100096230 71.6020375533019688 28.6327538495249954
 23.9581387962886225 69.1610107355562462 28.6327538495249954
 -26.7766250818044469 54.5151427464417537 28.6327538495249954
  2.8186116595431669 52.0741891580359919 28.6327538495249954
 -29.5952795350361448 64.2791035587447084 28.6327538495249954
 -18.3208734014102959 59.3971231525932382 28.6327538495249954
 -26.7767097210161431 64.2791035587447084 28.6327538495249954
 -26.7766674014102968 59.3971231525932382 28.6327538495249954
 -32.4138915873902960 59.3971231525932382 28.6327538495249954
 42.2789695259173328 56.9561695641874692 28.6327538495249954
 36.6417453399373301 56.9561695641874692 28.6327538495249954
  4.2279389064766386 44.7512551634787386 28.6327538495249954
 -32.4138493490561430 64.2791035587447084 28.6327538495249954
 -18.3209157210161457 64.2791035587447084 28.6327538495249954
 19.7301573399373318 56.9561695641874692 28.6327538495249954
 16.9115875259173158 56.9561695641874692 28.6327538495249954
 14.0930177118973283 56.9561695641874692 28.6327538495249954
 11.2743633399373131 56.9561695641874692 28.6327538495249954
 -7.0464673490561447 64.2791035587447084 28.6327538495249954
  2.8185693399373224 56.9561695641874692 28.6327538495249954
  4.2278964649638544 64.2791035587447084 28.6327538495249954
  7.0464662789838490 64.2791035587447084 28.6327538495249954
 22.5488117118973186 56.9561695641874692 28.6327538495249954
 -2.8185702881026811 56.9561695641874692 28.6327538495249954
 -9.8650794014102949 59.3971231525932382 28.6327538495249954
 -35.2325037210161440 64.2791035587447084 28.6327538495249954
 -8.4557945147179190 61.8380767409990000 28.6327538495249954
 -5.6371401427579215 61.8380767409990000 28.6327538495249954
 -0.0000005147179177 61.8380767409990000 28.6327538495249954
 -19.7301583287379145 61.8380767409990000 28.6327538495249954
  5.6372236712620847 61.8380767409990000 28.6327538495249954
 11.2744478572420874 61.8380767409990000 28.6327538495249954
 -28.1859523287379155 61.8380767409990000 28.6327538495249954
 16.9115874852820909 61.8380767409990000 28.6327538495249954
 -7.0465095873903012 59.3971231525932382 28.6327538495249954
 -33.8231765147179146 61.8380767409990000 28.6327538495249954
 40.8696845985897141 59.3971231525932382 28.6327538495249954
 29.5953207845697079 59.3971231525932382 28.6327538495249954
 31.0046056712620839 61.8380767409990000 28.6327538495249954
 15.5023025985896936 59.3971231525932382 28.6327538495249954
 33.8231754852820927 61.8380767409990000 28.6327538495249954
 12.6837327845697061 59.3971231525932382 28.6327538495249954
 36.6418298572420866 61.8380767409990000 28.6327538495249954
 47.9161936712620928 61.8380767409990000 28.6327538495249954
 46.5069087845697027 59.3971231525932382 28.6327538495249954
  0.0000418455231652 52.0741891580359919 28.6327538495249954
 -5.6372246600626781 56.9561695641874692 28.6327538495249954
 -11.2743642881026744 56.9561695641874692 28.6327538495249954
 11.2744055376362251 66.7200571471504844 28.6327538495249954
 16.9116297236162261 66.7200571471504844 28.6327538495249954
 19.7301995376362349 66.7200571471504844 28.6327538495249954
 -12.6836914537644478 54.5151427464417537 28.6327538495249954
 -23.9580552677844487 54.5151427464417537 28.6327538495249954
 25.3674237236162377 66.7200571471504844 28.6327538495249954
 53.5533756595431782 52.0741891580359919 28.6327538495249954
 50.7348058455231694 52.0741891580359919 28.6327538495249954
 -9.8650370818044468 54.5151427464417537 28.6327538495249954
 31.0045633516562411 66.7200571471504844 28.6327538495249954
 36.6417875376362474 66.7200571471504844 28.6327538495249954
 42.2790117236162359 66.7200571471504844 28.6327538495249954
 45.0975815376362448 66.7200571471504844 28.6327538495249954
 -38.0510735756713814 69.1610107355562462 28.6327538495249954
 28.1859936595431719 52.0741891580359919 28.6327538495249954
 25.3674238455231631 52.0741891580359919 28.6327538495249954
 14.0929754735631594 52.0741891580359919 28.6327538495249954
 -29.5952795756713840 69.1610107355562462 28.6327538495249954
 42.2790118455231720 52.0741891580359919 28.6327538495249954
 -8.4557944740826727 56.9561695641874692 28.6327538495249954
 -7.0464672677844442 54.5151427464417537 28.6327538495249954
 12.6836905462355407 54.5151427464417537 28.6327538495249954
 29.5952784649638616 64.2791035587447084 28.6327538495249954
 32.4138482789838704 64.2791035587447084 28.6327538495249954
 35.2325026509438644 64.2791035587447084 28.6327538495249954
 -36.6417886483437698 66.7200571471504844 28.6327538495249954
 -25.3673824740826745 56.9561695641874692 28.6327538495249954
 -28.1859522881026763 56.9561695641874692 28.6327538495249954
 -28.1859946483437653 66.7200571471504844 28.6327538495249954
 -22.5487704623637697 66.7200571471504844 28.6327538495249954
  9.8651207322155532 54.5151427464417537 28.6327538495249954
 -31.0046066600626737 56.9561695641874692 28.6327538495249954
 -2.8186126483437688 66.7200571471504844 28.6327538495249954
  2.8186115376362340 66.7200571471504844 28.6327538495249954
 40.8697269181955534 54.5151427464417537 28.6327538495249954
 38.0510725462355595 54.5151427464417537 28.6327538495249954
 32.4139329181955560 54.5151427464417537 28.6327538495249954
 29.5952785462355585 54.5151427464417537 28.6327538495249954
 26.7767087322155568 54.5151427464417537 28.6327538495249954
  8.4558357236162376 66.7200571471504844 28.6327538495249954
 -16.9115462763837670 66.7200571471504844 28.6327538495249954
  4.2279392721974602  0.8136511961352557 28.6327538495249954
 54.9626607087777472 34.9873675805157234 28.6327538495249954
 -4.2278550935233552 44.7512551634787386 28.6327538495249954
 70.4649217056581421 13.0185655968439828 28.6327538495249954
 67.6463518916381474 13.0185655968439828 28.6327538495249954
 64.8277820776181386 13.0185655968439828 28.6327538495249954
 59.1905578916381430 13.0185655968439828 28.6327538495249954
 56.3719880776181483 13.0185655968439828 28.6327538495249954
 53.5533337056581473 13.0185655968439828 28.6327538495249954
 50.7347638916381456 13.0185655968439828 28.6327538495249954
 36.6417457056581313 13.0185655968439828 28.6327538495249954
 28.1859517056581375 13.0185655968439828 28.6327538495249954
 25.3673818916381357 13.0185655968439828 28.6327538495249954
 22.5488120776181340 13.0185655968439828 28.6327538495249954
 73.2835760776181360 13.0185655968439828 28.6327538495249954
 14.0930180776181420 13.0185655968439828 28.6327538495249954
  8.4557938916381428 13.0185655968439828 28.6327538495249954
  2.8185697056581414 13.0185655968439828 28.6327538495249954
 -5.6372242943418591 13.0185655968439828 28.6327538495249954
 77.5114730979363742 10.5775387790982709 28.6327538495249954
 74.6929032839163654 10.5775387790982709 28.6327538495249954
 66.2371092839163680 10.5775387790982709 28.6327538495249954
 63.4184549119563812 10.5775387790982709 28.6327538495249954
 54.9626609119563767 10.5775387790982709 28.6327538495249954
 52.1440910979363750 10.5775387790982709 28.6327538495249954
 49.3255212839163661 10.5775387790982709 28.6327538495249954
 35.2325030979363731 10.5775387790982709 28.6327538495249954
 11.2743637056581409 13.0185655968439828 28.6327538495249954
 32.4139332839163785 10.5775387790982709 28.6327538495249954
  9.8650787783305205 15.4595191852497500 28.6327538495249954
 29.5953211502905269 15.4595191852497500 28.6327538495249954
 18.3209150166646637 20.3414995914012344 28.6327538495249954
 12.6836908306846716 20.3414995914012344 28.6327538495249954
  9.8651210166646699 20.3414995914012344 28.6327538495249954
  7.0464666447046698 20.3414995914012344 28.6327538495249954
  4.2278968306846716 20.3414995914012344 28.6327538495249954
  1.4093270166646681 20.3414995914012344 28.6327538495249954
 -7.0464669833353293 20.3414995914012344 28.6327538495249954
 -9.8651213552953294 20.3414995914012344 28.6327538495249954
 70.4650062229628986 17.9004727736555189 28.6327538495249954
 62.0092122229629013 17.9004727736555189 28.6327538495249954
 56.3719880369828985 17.9004727736555189 28.6327538495249954
 23.9580969643105171 15.4595191852497500 28.6327538495249954
 53.5534182229629039 17.9004727736555189 28.6327538495249954
 42.2789698510029055 17.9004727736555189 28.6327538495249954
 39.4604000369828896 17.9004727736555189 28.6327538495249954
 36.6418302229629020 17.9004727736555189 28.6327538495249954
 28.1860362229629082 17.9004727736555189 28.6327538495249954
 25.3673818510029001 17.9004727736555189 28.6327538495249954
  8.4557938510029000 17.9004727736555189 28.6327538495249954
  5.6372240369829028 17.9004727736555189 28.6327538495249954
  2.8186542229628988 17.9004727736555189 28.6327538495249954
 -0.0000001489970986 17.9004727736555189 28.6327538495249954
 -2.8185699630171004 17.9004727736555189 28.6327538495249954
 52.1440487783305286 15.4595191852497500 28.6327538495249954
 45.0976242229628923 17.9004727736555189 28.6327538495249954
 23.9580546447046672 20.3414995914012344 28.6327538495249954
 23.9581392839163634 10.5775387790982709 28.6327538495249954
 12.6836909119563703 10.5775387790982709 28.6327538495249954
 81.7393701588898551  3.2546047845410229 28.6327538495249954
 42.2789699729098274  3.2546047845410229 28.6327538495249954
 36.6418303448698452  3.2546047845410229 28.6327538495249954
 28.1860363448698337  3.2546047845410229 28.6327538495249954
 25.3673819729098362  3.2546047845410229 28.6327538495249954
 80.3300852721974650  0.8136511961352557 28.6327538495249954
 74.6928610862174764  0.8136511961352557 28.6327538495249954
 69.0556369002374737  0.8136511961352557 28.6327538495249954
 66.2370670862174649  0.8136511961352557 28.6327538495249954
 63.4184972721974631  0.8136511961352557 28.6327538495249954
 54.9627032721974516  0.8136511961352557 28.6327538495249954
 -1.4093272333883895  5.6956316022867357 28.6327538495249954
 52.1440489002374647  0.8136511961352557 28.6327538495249954
 46.5069092721974613  0.8136511961352557 28.6327538495249954
 40.8696850862174585  0.8136511961352557 28.6327538495249954
 38.0511152721974639  0.8136511961352557 28.6327538495249954
 35.2324609002374558  0.8136511961352557 28.6327538495249954
 32.4138910862174541  0.8136511961352557 28.6327538495249954
 29.5953212721974559  0.8136511961352557 28.6327538495249954
 23.9580970862174638  0.8136511961352557 28.6327538495249954
 21.1395272721974621  0.8136511961352557 28.6327538495249954
 18.3208729002374611  0.8136511961352557 28.6327538495249954
 12.6837332721974576  0.8136511961352557 28.6327538495249954
  9.8650789002374601  0.8136511961352557 28.6327538495249954
 49.3254790862174488  0.8136511961352557 28.6327538495249954
 15.5023452839163713 10.5775387790982709 28.6327538495249954
  1.4093271385716108  5.6956316022867357 28.6327538495249954
  7.0464667666116103  5.6956316022867357 28.6327538495249954
  7.0465512839163686 10.5775387790982709 28.6327538495249954
  1.4093270979363695 10.5775387790982709 28.6327538495249954
 78.9207580252639929  8.1365851906925037 28.6327538495249954
 76.1021882112439840  8.1365851906925037 28.6327538495249954
 73.2835338392839901  8.1365851906925037 28.6327538495249954
 70.4649640252639955  8.1365851906925037 28.6327538495249954
 67.6463942112439867  8.1365851906925037 28.6327538495249954
 64.8277398392839928  8.1365851906925037 28.6327538495249954
 62.0091700252639910  8.1365851906925037 28.6327538495249954
 56.3719458392839954  8.1365851906925037 28.6327538495249954
 39.4603578392839793  8.1365851906925037 28.6327538495249954
  4.2278969525916086  5.6956316022867357 28.6327538495249954
 36.6417880252639918  8.1365851906925037 28.6327538495249954
  2.8186120252639890  8.1365851906925037 28.6327538495249954
  0.0000422112439907  8.1365851906925037 28.6327538495249954
 -2.8186121607160102  8.1365851906925037 28.6327538495249954
 80.3300429525916257  5.6956316022867357 28.6327538495249954
 63.4184549525916097  5.6956316022867357 28.6327538495249954
 52.1440911385716035  5.6956316022867357 28.6327538495249954
 40.8696427666115980  5.6956316022867357 28.6327538495249954
 35.2325031385716159  5.6956316022867357 28.6327538495249954
 26.7767091385716043  5.6956316022867357 28.6327538495249954
 23.9580547666116068  5.6956316022867357 28.6327538495249954
 21.1394849525916122  5.6956316022867357 28.6327538495249954
 22.5487698392839881  8.1365851906925037 28.6327538495249954
 35.2325030166646727 20.3414995914012344 28.6327538495249954
 38.0510728306846602 20.3414995914012344 28.6327538495249954
 40.8696426447046761 20.3414995914012344 28.6327538495249954
 36.6417877814501125 37.4283211689214923 28.6327538495249954
 31.0045635954701204 37.4283211689214923 28.6327538495249954
 25.3674239674301170 37.4283211689214923 28.6327538495249954
 22.5487695954701017 37.4283211689214923 28.6327538495249954
 14.0929755954701115 37.4283211689214923 28.6327538495249954
  5.6371815954701097 37.4283211689214923 28.6327538495249954
  2.8186117814501150 37.4283211689214923 28.6327538495249954
  0.0000419674301133 37.4283211689214923 28.6327538495249954
 -8.4557520325698885 37.4283211689214923 28.6327538495249954
 -11.2744064045298860 37.4283211689214923 28.6327538495249954
 60.5998848947577358 34.9873675805157234 28.6327538495249954
 56.3719455954701161 37.4283211689214923 28.6327538495249954
 39.4603995899903808 71.6020375533019688 28.6327538495249954
 32.4138485227977426 34.9873675805157234 28.6327538495249954
 29.5952787087777267 34.9873675805157234 28.6327538495249954
 26.7767088947577392 34.9873675805157234 28.6327538495249954
 23.9580545227977240 34.9873675805157234 28.6327538495249954
 15.5022605227977337 34.9873675805157234 28.6327538495249954
 12.6836907087777320 34.9873675805157234 28.6327538495249954
  9.8651208947577302 34.9873675805157234 28.6327538495249954
  4.2278967087777302 34.9873675805157234 28.6327538495249954
  1.4093268947577322 34.9873675805157234 28.6327538495249954
 -7.0464671052422672 34.9873675805157234 28.6327538495249954
 -9.8651214772022673 34.9873675805157234 28.6327538495249954
 49.3254365227977445 34.9873675805157234 28.6327538495249954
 64.8277819150759740 32.5463407627700150 28.6327538495249954
 59.1905999674301100 37.4283211689214923 28.6327538495249954
 -12.6836913318575100 39.8692747573272612 28.6327538495249954
 -7.0465094654833562 44.7512551634787386 28.6327538495249954
 -15.5023034654833562 44.7512551634787386 28.6327538495249954
 -18.3208732795033562 44.7512551634787386 28.6327538495249954
 47.9161938338042646 42.3103015750729767 28.6327538495249954
 42.2789696478242618 42.3103015750729767 28.6327538495249954
 36.6417454618442662 42.3103015750729767 28.6327538495249954
 31.0046058338042556 42.3103015750729767 28.6327538495249954
 28.1859514618442688 42.3103015750729767 28.6327538495249954
 19.7301574618442501 42.3103015750729767 28.6327538495249954
 14.0930178338042680 42.3103015750729767 28.6327538495249954
  5.6372238338042564 42.3103015750729767 28.6327538495249954
 -18.3208309598975099 39.8692747573272612 28.6327538495249954
  2.8185694618442589 42.3103015750729767 28.6327538495249954
 -19.7301581661957393 42.3103015750729767 28.6327538495249954
 57.7813150401024913 39.8692747573272612 28.6327538495249954
 54.9626606681424974 39.8692747573272612 28.6327538495249954
 40.8697270401024966 39.8692747573272612 28.6327538495249954
 38.0510726681424956 39.8692747573272612 28.6327538495249954
 35.2325028541224938 39.8692747573272612 28.6327538495249954
 32.4139330401024850 39.8692747573272612 28.6327538495249954
 26.7767088541224823 39.8692747573272612 28.6327538495249954
  7.0465510401024849 39.8692747573272612 28.6327538495249954
  1.4093268541224926 39.8692747573272612 28.6327538495249954
 -7.0464671458775081 39.8692747573272612 28.6327538495249954
 -8.4557943521757366 42.3103015750729767 28.6327538495249954
 62.0092121010559580 32.5463407627700150 28.6327538495249954
 47.9161939150759579 32.5463407627700150 28.6327538495249954
 36.6418301010559517 32.5463407627700150 28.6327538495249954
 -2.8185700442888009 27.6644335859584807 28.6327538495249954
 -11.2743640442888005 27.6644335859584807 28.6327538495249954
 49.3255211620094371 25.2234067682127652 28.6327538495249954
 40.8697271620094256 25.2234067682127652 28.6327538495249954
 38.0510727900494388 25.2234067682127652 28.6327538495249954
 18.3209149760294281 25.2234067682127652 28.6327538495249954
 15.5023451620094264 25.2234067682127652 28.6327538495249954
  7.0465511620094325 25.2234067682127652 28.6327538495249954
  4.2278967900494315 25.2234067682127652 28.6327538495249954
 -9.8650368379905675 25.2234067682127652 28.6327538495249954
 -12.6836912099505668 25.2234067682127652 28.6327538495249954
  5.6372239557112023 27.6644335859584807 28.6327538495249954
 70.4649639033570594 22.7824531798069998 28.6327538495249954
 22.5487697173770485 22.7824531798069998 28.6327538495249954
 16.9116300893370450 22.7824531798069998 28.6327538495249954
 14.0929757173770476 22.7824531798069998 28.6327538495249954
  8.4558360893370512 22.7824531798069998 28.6327538495249954
  2.8186119033570516 22.7824531798069998 28.6327538495249954
 -8.4557519106629488 22.7824531798069998 28.6327538495249954
 -11.2744062826229499 22.7824531798069998 28.6327538495249954
 71.8742488306846781 20.3414995914012344 28.6327538495249954
 57.7812306447046780 20.3414995914012344 28.6327538495249954
 52.1440910166646745 20.3414995914012344 28.6327538495249954
 46.5068668306846718 20.3414995914012344 28.6327538495249954
 39.4603577173770574 22.7824531798069998 28.6327538495249954
  8.4557937697312031 27.6644335859584807 28.6327538495249954
 14.0930179557111952 27.6644335859584807 28.6327538495249954
 19.7301575837512004 27.6644335859584807 28.6327538495249954
 31.0046059150759525 32.5463407627700150 28.6327538495249954
 25.3673817290959498 32.5463407627700150 28.6327538495249954
 19.7302421010559677 32.5463407627700150 28.6327538495249954
 16.9115877290959595 32.5463407627700150 28.6327538495249954
 14.0930179150759578 32.5463407627700150 28.6327538495249954
 11.2744481010559561 32.5463407627700150 28.6327538495249954
 -0.0000002709040391 32.5463407627700150 28.6327538495249954
 -16.9115882709040370 32.5463407627700150 28.6327538495249954
 66.2370668424035927 30.1053871743642461 28.6327538495249954
 63.4184970283835838 30.1053871743642461 28.6327538495249954
 57.7812728424035953 30.1053871743642461 28.6327538495249954
 52.1440486564235925 30.1053871743642461 28.6327538495249954
 49.3254788424035837 30.1053871743642461 28.6327538495249954
 38.0511150283835775 30.1053871743642461 28.6327538495249954
 32.4138908424035748 30.1053871743642461 28.6327538495249954
 15.5023028424035783 30.1053871743642461 28.6327538495249954
  9.8650786564235791 30.1053871743642461 28.6327538495249954
 64.8277819557112025 27.6644335859584807 28.6327538495249954
 62.0091275837512086 27.6644335859584807 28.6327538495249954
 59.1905577697312140 27.6644335859584807 28.6327538495249954
 47.9161939557112078 27.6644335859584807 28.6327538495249954
 39.4603999557111962 27.6644335859584807 28.6327538495249954
 33.8231757697311934 27.6644335859584807 28.6327538495249954
 28.1859515837511907 27.6644335859584807 28.6327538495249954
 22.5488119557112086 27.6644335859584807 28.6327538495249954
  1.4092845345166412 44.7512551634787386 28.6327538495249954
 42.2789694040103896 71.6020375533019688 28.6327538495249954
