 H  O 
 1.0000000000000000
    84.5579400000000021    0.0000000000000000    0.0000000000000000
   -42.2789706095346958   73.2293399455724767    0.0000000000000000
     0.0000000000000000    0.0000000000000000   46.9039550000000034
 H   O  
 227 354
Cartesian
 38.0510301182678390 72.4156887494372228 28.1128704123049964
 49.3254366176144998 23.5961043759422537 28.1128704123049964
 52.1440909895745008 23.5961043759422537 28.1128704123049964
 57.7812306176145043 23.5961043759422537 28.1128704123049964
 -7.0465095738452108 57.7698207603227232 28.1128704123049964
 60.5998849895745124 23.5961043759422537 28.1128704123049964
 63.4184548035945070 23.5961043759422537 28.1128704123049964
 -14.0930184027037182 26.0371311936879657 28.1128704123049964
 -9.8650793878652134 57.7698207603227232 28.1128704123049964
 -11.2744485886837182 26.0371311936879657 28.1128704123049964
 -2.8186545886837178 26.0371311936879657 28.1128704123049964
  8.4557937832762846 26.0371311936879657 28.1128704123049964
 -15.5023035738452162 57.7698207603227232 28.1128704123049964
 11.2743635972962863 26.0371311936879657 28.1128704123049964
 19.7301575972962873 26.0371311936879657 28.1128704123049964
 -23.9580975738452153 57.7698207603227232 28.1128704123049964
 -29.5953217598252145 57.7698207603227232 28.1128704123049964
 47.9161094113162704 26.0371311936879657 28.1128704123049964
 40.8696848559486625 28.4780847820937346 28.1128704123049964
 38.0510304839886544 28.4780847820937346 28.1128704123049964
 29.5952364839886641 28.4780847820937346 28.1128704123049964
 26.7766666699686624 28.4780847820937346 28.1128704123049964
  2.8185693534824074 55.3288671719169614 28.1128704123049964
 23.9580968559486607 28.4780847820937346 28.1128704123049964
  7.0465086121347857 57.7698207603227232 28.1128704123049964
 15.5023028559486651 28.4780847820937346 28.1128704123049964
  9.8650786699686659 28.4780847820937346 28.1128704123049964
 14.0929331675024070 55.3288671719169614 28.1128704123049964
 19.7301573534824009 55.3288671719169614 28.1128704123049964
 -12.6837335160113369 28.4780847820937346 28.1128704123049964
 -15.5023033300313369 28.4780847820937346 28.1128704123049964
 39.4603151675024009 55.3288671719169614 28.1128704123049964
 12.6836484839886605 28.4780847820937346 28.1128704123049964
 54.9626184839886562 28.4780847820937346 28.1128704123049964
 43.6882969895745106 23.5961043759422537 28.1128704123049964
 -19.7301583151928384 60.2107743487284921 28.1128704123049964
  7.0464666582497495 18.7141971991307194 28.1128704123049964
 -1.4093277074710613 62.6518011664742076 28.1128704123049964
  9.8650364722697521 18.7141971991307194 28.1128704123049964
 18.3208304722697477 18.7141971991307194 28.1128704123049964
 21.1394848442297523 18.7141971991307194 28.1128704123049964
 23.9580546582497540 18.7141971991307194 28.1128704123049964
 -15.5023458934510643 62.6518011664742076 28.1128704123049964
 49.3254366582497497 18.7141971991307194 28.1128704123049964
 -32.4139338934510661 62.6518011664742076 28.1128704123049964
 71.8742488442297542 18.7141971991307194 28.1128704123049964
 -8.4558364550578684 21.1551507875364884 28.1128704123049964
 -2.8186122690778692 21.1551507875364884 28.1128704123049964
 45.0975393128471538 60.2107743487284921 28.1128704123049964
 42.2789694988271592 60.2107743487284921 28.1128704123049964
 39.4603996848071645 60.2107743487284921 28.1128704123049964
 22.5487697309221353 21.1551507875364884 28.1128704123049964
 31.0046056848071565 60.2107743487284921 28.1128704123049964
 26.7767089895745123 23.5961043759422537 28.1128704123049964
  1.4093269895745080 23.5961043759422537 28.1128704123049964
 -11.2743643151928357 60.2107743487284921 28.1128704123049964
 -16.9115883792659005 45.5649063596139996 28.1128704123049964
 64.8277397309221328 21.1551507875364884 28.1128704123049964
 62.0091699169021311 21.1551507875364884 28.1128704123049964
 32.4138486176145122 23.5961043759422537 28.1128704123049964
  5.6372236848071626 60.2107743487284921 28.1128704123049964
 47.9161517309221239 21.1551507875364884 28.1128704123049964
 11.2743633128471661 60.2107743487284921 28.1128704123049964
 39.4603577309221265 21.1551507875364884 28.1128704123049964
 19.7301573128471581 60.2107743487284921 28.1128704123049964
 33.8231335449421309 21.1551507875364884 28.1128704123049964
 22.5488116848071662 60.2107743487284921 28.1128704123049964
 50.7347215449421185 21.1551507875364884 28.1128704123049964
 57.7812728559486644 28.4780847820937346 28.1128704123049964
 52.1440907457606357 52.8878403541712458 28.1128704123049964
 -11.2743640713789581 30.9190383704995000 28.1128704123049964
 26.7767088676675797 38.2419723650567462 28.1128704123049964
 29.5952786816875744 38.2419723650567462 28.1128704123049964
 -16.9116306988717469 50.4468867657654769 28.1128704123049964
 40.8696424957075664 38.2419723650567462 28.1128704123049964
 46.5068666816875762 38.2419723650567462 28.1128704123049964
 57.7812304957075682 38.2419723650567462 28.1128704123049964
 -28.1859945128917460 50.4468867657654769 28.1128704123049964
 40.8696424144358730 48.0059331773597151 28.1128704123049964
 -11.2744487105906597 40.6829991828024689 28.1128704123049964
 29.5952786004158739 48.0059331773597151 28.1128704123049964
  2.8185694753893440 40.6829991828024689 28.1128704123049964
 23.9580544144358711 48.0059331773597151 28.1128704123049964
 14.0929332894093395 40.6829991828024689 28.1128704123049964
 16.9115876613693388 40.6829991828024689 28.1128704123049964
 12.6836906004158720 48.0059331773597151 28.1128704123049964
 28.1859514753893379 40.6829991828024689 28.1128704123049964
 31.0045212894093325 40.6829991828024689 28.1128704123049964
 -25.3673823792659014 45.5649063596139996 28.1128704123049964
 -11.2743641932859031 45.5649063596139996 28.1128704123049964
 54.9626183620817130 43.1239527712082307 28.1128704123049964
 49.3254787340417238 43.1239527712082307 28.1128704123049964
 21.1394423620817271 43.1239527712082307 28.1128704123049964
 39.4603998067140935 45.5649063596139996 28.1128704123049964
 15.5022604957075725 38.2419723650567462 28.1128704123049964
  4.2278543620817208 43.1239527712082307 28.1128704123049964
 -21.1394853995841281 48.0059331773597151 28.1128704123049964
 50.7347636613693425 40.6829991828024689 28.1128704123049964
 -18.3209155855641299 48.0059331773597151 28.1128704123049964
 47.9161092894093343 40.6829991828024689 28.1128704123049964
 -7.0465517715441273 48.0059331773597151 28.1128704123049964
 36.6417454753893352 40.6829991828024689 28.1128704123049964
  1.4092845480617260 43.1239527712082307 28.1128704123049964
 12.6836906816875779 38.2419723650567462 28.1128704123049964
 -8.4558366988717459 50.4468867657654769 28.1128704123049964
  9.8651208676675761 38.2419723650567462 28.1128704123049964
 40.8696425363428091 33.3600651882452155 28.1128704123049964
 47.9161514871082517 50.4468867657654769 28.1128704123049964
 38.0510727223228145 33.3600651882452155 28.1128704123049964
 21.1394847223228126 33.3600651882452155 28.1128704123049964
 -18.3209156261993691 52.8878403541712458 28.1128704123049964
 -1.4093276261993704 52.8878403541712458 28.1128704123049964
 49.3254365363428136 33.3600651882452155 28.1128704123049964
 -15.5023456496371885 33.3600651882452155 28.1128704123049964
 39.4603999286210438 30.9190383704995000 28.1128704123049964
 28.1859515566610455 30.9190383704995000 28.1128704123049964
 29.5952785597806276 52.8878403541712458 28.1128704123049964
  8.4557937426410454 30.9190383704995000 28.1128704123049964
 -0.0000002573589589 30.9190383704995000 28.1128704123049964
 -5.6372244433389582 30.9190383704995000 28.1128704123049964
 56.3719879286210457 30.9190383704995000 28.1128704123049964
 -1.4093273417502492 18.7141971991307194 28.1128704123049964
 54.9626607223228163 33.3600651882452155 28.1128704123049964
 57.7812305363428109 33.3600651882452155 28.1128704123049964
 -4.2278973183124275 38.2419723650567462 28.1128704123049964
 -7.0464671323324293 38.2419723650567462 28.1128704123049964
 -5.6371823269117440 50.4468867657654769 28.1128704123049964
 -15.5022611323324266 38.2419723650567462 28.1128704123049964
  5.6371814871082586 50.4468867657654769 28.1128704123049964
 11.2744056730882534 50.4468867657654769 28.1128704123049964
 42.2789273011282489 50.4468867657654769 28.1128704123049964
 14.0929754871082551 50.4468867657654769 28.1128704123049964
 35.2324603042478444 72.4156887494372228 28.1128704123049964
 -2.8186123909848098 35.8010187766509844 28.1128704123049964
 39.4603574871082543 50.4468867657654769 28.1128704123049964
 -5.6371822050048115 35.8010187766509844 28.1128704123049964
 -19.7302003909848089 35.8010187766509844 28.1128704123049964
 60.5998003503628055 33.3600651882452155 28.1128704123049964
 19.7301996730882578 50.4468867657654769 28.1128704123049964
  1.4092421065489333 62.6518011664742076 28.1128704123049964
  2.8185693128471621 60.2107743487284921 28.1128704123049964
 -22.5488125652458997 45.5649063596139996 28.1128704123049964
 -40.8696856957521533 72.4156887494372228 28.1128704123049964
 36.6417875511813165 65.0927547548799765 28.1128704123049964
 14.0929335332232206 11.3912632045734714 28.1128704123049964
 -35.2324615097721576 72.4156887494372228 28.1128704123049964
 16.9115879051832216 11.3912632045734714 28.1128704123049964
 31.0045633652013137 65.0927547548799765 28.1128704123049964
 -32.4138916957521559 72.4156887494372228 28.1128704123049964
  9.8650365941766900  4.0683292100162243 28.1128704123049964
 31.0045215332232189 11.3912632045734714 28.1128704123049964
 -21.1395278817321568 72.4156887494372228 28.1128704123049964
 81.7393701724349171  1.6273023922705114 28.1128704123049964
 42.2789699051832244 11.3912632045734714 28.1128704123049964
 22.5487693652013093 65.0927547548799765 28.1128704123049964
 78.9207158004749090  1.6273023922705114 28.1128704123049964
 67.6463519051832236 11.3912632045734714 28.1128704123049964
 14.0929753652013119 65.0927547548799765 28.1128704123049964
 70.4649217192032182 11.3912632045734714 28.1128704123049964
 73.2834915332232129 11.3912632045734714 28.1128704123049964
 76.1021459051832210 11.3912632045734714 28.1128704123049964
 -1.4092850221444004 13.8322167929792403 28.1128704123049964
 67.6463519864549170  1.6273023922705114 28.1128704123049964
  2.8185697192032206 11.3912632045734714 28.1128704123049964
 40.8696427801566955  4.0683292100162243 28.1128704123049964
 74.6928187395214422  8.9502363868277595 28.1128704123049964
 63.4184549255014502  8.9502363868277595 28.1128704123049964
 -4.2278970744985491  8.9502363868277595 28.1128704123049964
 -7.0464673761463033 67.5337083432857384 28.1128704123049964
 25.3673396668490696  6.5092827984219914 28.1128704123049964
  1.4093271114814494  8.9502363868277595 28.1128704123049964
 22.5487698528290750  6.5092827984219914 28.1128704123049964
  4.2278969255014500  8.9502363868277595 28.1128704123049964
  9.8651211114814483  8.9502363868277595 28.1128704123049964
 -31.0046067684245337 69.9747351610314468 28.1128704123049964
  2.8186120388090696  6.5092827984219914 28.1128704123049964
 23.9580547395214474  8.9502363868277595 28.1128704123049964
  1.4092847918756004 13.8322167929792403 28.1128704123049964
 -25.3673825824445345 69.9747351610314468 28.1128704123049964
 26.7767091114814519  8.9502363868277595 28.1128704123049964
 74.6928187801566850  4.0683292100162243 28.1128704123049964
 -11.2744489544045354 69.9747351610314468 28.1128704123049964
 63.4184549661366859  4.0683292100162243 28.1128704123049964
 35.2325031114814493  8.9502363868277595 28.1128704123049964
 40.8696427395214528  8.9502363868277595 28.1128704123049964
 54.9626609661366956  4.0683292100162243 28.1128704123049964
 43.6882971114814538  8.9502363868277595 28.1128704123049964
 49.3254367395214430  8.9502363868277595 28.1128704123049964
 14.0929330455954638 69.9747351610314468 28.1128704123049964
 -15.5022613761463042 67.5337083432857384 28.1128704123049964
 -2.8186126347986837 65.0927547548799765 28.1128704123049964
 56.3719035332232110 11.3912632045734714 28.1128704123049964
 12.6836486058956019 13.8322167929792403 28.1128704123049964
 60.5998427918756022 13.8322167929792403 28.1128704123049964
 46.5068664785089325 62.6518011664742076 28.1128704123049964
 31.0046061724349222  1.6273023922705114 28.1128704123049964
 71.8742066058955942 13.8322167929792403 28.1128704123049964
 74.6928609778556023 13.8322167929792403 28.1128704123049964
 -5.6372243214320203 16.2731703813850075 28.1128704123049964
 -9.8650795097721549 72.4156887494372228 28.1128704123049964
 40.8696422925289298 62.6518011664742076 28.1128704123049964
 14.0930180505279825 16.2731703813850075 28.1128704123049964
 15.5023024902278443 72.4156887494372228 28.1128704123049964
 16.9115878645479825 16.2731703813850075 28.1128704123049964
 19.7301576785679771 16.2731703813850075 28.1128704123049964
 23.9580964902278346 72.4156887494372228 28.1128704123049964
 31.0046060505279790 16.2731703813850075 28.1128704123049964
 42.2789698645479817 16.2731703813850075 28.1128704123049964
 26.7766241065489261 62.6518011664742076 28.1128704123049964
 14.0930181724349168  1.6273023922705114 28.1128704123049964
 50.7347638645479790 16.2731703813850075 28.1128704123049964
 32.4138904902278497 72.4156887494372228 28.1128704123049964
 64.8277820505279863 16.2731703813850075 28.1128704123049964
 11.2743638004749194  1.6273023922705114 28.1128704123049964
 -36.6417886347986865 65.0927547548799765 28.1128704123049964
 12.6836481182678362 72.4156887494372228 28.1128704123049964
 43.6882121065489244 62.6518011664742076 28.1128704123049964
 -22.5487704488186900 65.0927547548799765 28.1128704123049964
 -4.2279398817321576 72.4156887494372228 28.1128704123049964
 15.5023029778556030 13.8322167929792403 28.1128704123049964
  1.4092843042478451 72.4156887494372228 28.1128704123049964
  4.2278541182678469 72.4156887494372228 28.1128704123049964
 45.0975398004749266  1.6273023922705114 28.1128704123049964
  7.0465084902278479 72.4156887494372228 28.1128704123049964
 38.0510306058956047 13.8322167929792403 28.1128704123049964
 12.6836904378736932 67.5337083432857384 28.1128704123049964
 -28.1859946347986892 65.0927547548799765 28.1128704123049964
 -25.3673823928109776 47.1922087518845075 28.6327538495249954
 35.2324605345166475 44.7512551634787386 28.6327538495249954
 12.6836905868707941 49.6332355696302230 28.6327538495249954
 21.1395269064766467 44.7512551634787386 28.6327538495249954
 14.0930177931690217 47.1922087518845075 28.6327538495249954
 -29.5952795756713840 69.1610107355562462 28.6327538495249954
  4.2279389064766386 44.7512551634787386 28.6327538495249954
 29.5952785868707942 49.6332355696302230 28.6327538495249954
 38.0510725868707951 49.6332355696302230 28.6327538495249954
 -11.2743644100096230 71.6020375533019688 28.6327538495249954
 38.0511149064766485 44.7512551634787386 28.6327538495249954
 -32.4138493896913857 69.1610107355562462 28.6327538495249954
 14.0930175899903762 71.6020375533019688 28.6327538495249954
 40.8696424008908039 49.6332355696302230 28.6327538495249954
 33.8232177236162386 66.7200571471504844 28.6327538495249954
  1.4092845345166412 44.7512551634787386 28.6327538495249954
 -22.5487280208509766 47.1922087518845075 28.6327538495249954
 25.3674237236162377 66.7200571471504844 28.6327538495249954
 11.2744479791490271 47.1922087518845075 28.6327538495249954
 -5.6371400208509774 47.1922087518845075 28.6327538495249954
 33.8231754040103922 71.6020375533019688 28.6327538495249954
 22.5487693516562366 66.7200571471504844 28.6327538495249954
 36.6417875376362474 66.7200571471504844 28.6327538495249954
 -18.3209155991092061 49.6332355696302230 28.6327538495249954
 -26.7767095991092070 49.6332355696302230 28.6327538495249954
 -12.6836915756713875 69.1610107355562462 28.6327538495249954
 -19.7301582068309784 47.1922087518845075 28.6327538495249954
 39.4603997931690245 47.1922087518845075 28.6327538495249954
 28.1860359791490147 47.1922087518845075 28.6327538495249954
 57.7812727204966521 44.7512551634787386 28.6327538495249954
 -33.8231765959896151 71.6020375533019688 28.6327538495249954
 -15.5022612271492086 49.6332355696302230 28.6327538495249954
 14.0929753516562410 66.7200571471504844 28.6327538495249954
 -19.7301584100096186 71.6020375533019688 28.6327538495249954
 15.5023447962886092 69.1610107355562462 28.6327538495249954
 54.9627029064766432 44.7512551634787386 28.6327538495249954
 -15.5022613896913821 69.1610107355562462 28.6327538495249954
 -9.8651215991092069 49.6332355696302230 28.6327538495249954
 12.6836904243286224 69.1610107355562462 28.6327538495249954
 -21.1394854131292078 49.6332355696302230 28.6327538495249954
  5.6372235899903860 71.6020375533019688 28.6327538495249954
 -16.9115883928109767 47.1922087518845075 28.6327538495249954
 -7.0464673896913883 69.1610107355562462 28.6327538495249954
 -9.8650372037113900 69.1610107355562462 28.6327538495249954
 -7.0464672271492059 49.6332355696302230 28.6327538495249954
 -31.0046067819696169 71.6020375533019688 28.6327538495249954
 22.5488117931690120 47.1922087518845075 28.6327538495249954
 -14.0930187819696204 71.6020375533019688 28.6327538495249954
 40.8696847204966431 44.7512551634787386 28.6327538495249954
 42.2789696071890333 47.1922087518845075 28.6327538495249954
 11.2744478572420874 61.8380767409990000 28.6327538495249954
 -5.6371824623637705 66.7200571471504844 28.6327538495249954
 -9.8650794014102949 59.3971231525932382 28.6327538495249954
 -23.9580553490561456 64.2791035587447084 28.6327538495249954
 -12.6836492154302967 59.3971231525932382 28.6327538495249954
 -15.5023035873902977 59.3971231525932382 28.6327538495249954
 -18.3208734014102959 59.3971231525932382 28.6327538495249954
 -4.2278975350361501 64.2791035587447084 28.6327538495249954
 31.0046057118973302 56.9561695641874692 28.6327538495249954
 19.7301573399373318 56.9561695641874692 28.6327538495249954
 -1.4093277210161486 64.2791035587447084 28.6327538495249954
  5.6372237118973310 56.9561695641874692 28.6327538495249954
  2.8185693399373224 56.9561695641874692 28.6327538495249954
  1.4093266509438596 64.2791035587447084 28.6327538495249954
 -8.4557944740826727 56.9561695641874692 28.6327538495249954
 12.6836904649638509 64.2791035587447084 28.6327538495249954
 15.5022602789838597 64.2791035587447084 28.6327538495249954
 -11.2743642881026744 56.9561695641874692 28.6327538495249954
 23.9580542789838589 64.2791035587447084 28.6327538495249954
 -26.7767097210161431 64.2791035587447084 28.6327538495249954
 26.7767086509438528 64.2791035587447084 28.6327538495249954
  4.2279387845697078 59.3971231525932382 28.6327538495249954
 -35.2325037210161440 64.2791035587447084 28.6327538495249954
 14.0930176712620749 61.8380767409990000 28.6327538495249954
 -0.0000005147179177 61.8380767409990000 28.6327538495249954
 22.5488116712620865 61.8380767409990000 28.6327538495249954
 25.3673814852820882 61.8380767409990000 28.6327538495249954
 -2.8185703287379194 61.8380767409990000 28.6327538495249954
 -14.0929341427579153 61.8380767409990000 28.6327538495249954
 28.1860358572420893 61.8380767409990000 28.6327538495249954
 -16.9115885147179164 61.8380767409990000 28.6327538495249954
 -19.7301583287379145 61.8380767409990000 28.6327538495249954
 -31.0045221427579136 61.8380767409990000 28.6327538495249954
 31.0046056712620839 61.8380767409990000 28.6327538495249954
 42.2789694852820901 61.8380767409990000 28.6327538495249954
 40.8696845985897141 59.3971231525932382 28.6327538495249954
 45.0976238572420840 61.8380767409990000 28.6327538495249954
 21.1395267845696964 59.3971231525932382 28.6327538495249954
 47.9161936712620928 61.8380767409990000 28.6327538495249954
  7.0465085985897025 59.3971231525932382 28.6327538495249954
 -32.4138493490561430 64.2791035587447084 28.6327538495249954
 -25.3673824740826745 56.9561695641874692 28.6327538495249954
 29.5952784649638616 64.2791035587447084 28.6327538495249954
 -31.0046066600626737 56.9561695641874692 28.6327538495249954
 47.9161514735631755 52.0741891580359919 28.6327538495249954
  2.8186538572420905 61.8380767409990000 28.6327538495249954
 39.4603574735631781 52.0741891580359919 28.6327538495249954
 31.0045634735631737 52.0741891580359919 28.6327538495249954
 28.1859936595431719 52.0741891580359919 28.6327538495249954
 22.5487694735631763 52.0741891580359919 28.6327538495249954
 -11.2744066483437688 66.7200571471504844 28.6327538495249954
 19.7301996595431604 52.0741891580359919 28.6327538495249954
 14.0929754735631594 52.0741891580359919 28.6327538495249954
 11.2744056595431719 52.0741891580359919 28.6327538495249954
  5.6371814735631682 52.0741891580359919 28.6327538495249954
  2.8186116595431669 52.0741891580359919 28.6327538495249954
 -8.4557522763837714 66.7200571471504844 28.6327538495249954
  0.0000418455231652 52.0741891580359919 28.6327538495249954
 -5.6371823404568273 52.0741891580359919 28.6327538495249954
 -16.9115461544768308 52.0741891580359919 28.6327538495249954
 49.3254364008908013 49.6332355696302230 28.6327538495249954
 -28.1859946483437653 66.7200571471504844 28.6327538495249954
 -31.0045644623637671 66.7200571471504844 28.6327538495249954
 50.7348058455231694 52.0741891580359919 28.6327538495249954
 53.5533756595431782 52.0741891580359919 28.6327538495249954
 52.1440907322155596 54.5151427464417537 28.6327538495249954
 49.3255209181955507 54.5151427464417537 28.6327538495249954
 40.8697269181955534 54.5151427464417537 28.6327538495249954
 38.0510725462355595 54.5151427464417537 28.6327538495249954
 32.4138482789838704 64.2791035587447084 28.6327538495249954
 29.5952785462355585 54.5151427464417537 28.6327538495249954
 21.1394845462355612 54.5151427464417537 28.6327538495249954
 35.2325026509438644 64.2791035587447084 28.6327538495249954
 -2.8186126483437688 66.7200571471504844 28.6327538495249954
 12.6836905462355407 54.5151427464417537 28.6327538495249954
 38.0510724649638732 64.2791035587447084 28.6327538495249954
 40.8696422789838678 64.2791035587447084 28.6327538495249954
  1.4093267322155492 54.5151427464417537 28.6327538495249954
 46.5068664649638706 64.2791035587447084 28.6327538495249954
 -1.4092430818044526 54.5151427464417537 28.6327538495249954
 -18.3208310818044460 54.5151427464417537 28.6327538495249954
 -29.5952794537644479 54.5151427464417537 28.6327538495249954
 -33.8231342763837688 66.7200571471504844 28.6327538495249954
  4.2278965462355513 54.5151427464417537 28.6327538495249954
 42.2790118455231720 52.0741891580359919 28.6327538495249954
  1.4092849002374601  0.8136511961352557 28.6327538495249954
 56.3719878338042619 42.3103015750729767 28.6327538495249954
 -1.4092850356894804 15.4595191852497500 28.6327538495249954
 -4.2278548497094786 15.4595191852497500 28.6327538495249954
 73.2835760776181360 13.0185655968439828 28.6327538495249954
 70.4649217056581421 13.0185655968439828 28.6327538495249954
 62.0091277056581518 13.0185655968439828 28.6327538495249954
 59.1905578916381430 13.0185655968439828 28.6327538495249954
 56.3719880776181483 13.0185655968439828 28.6327538495249954
 50.7347638916381456 13.0185655968439828 28.6327538495249954
 47.9161940776181368 13.0185655968439828 28.6327538495249954
 36.6417457056581313 13.0185655968439828 28.6327538495249954
 33.8231758916381438 13.0185655968439828 28.6327538495249954
 31.0046060776181456 13.0185655968439828 28.6327538495249954
 14.0930180776181420 13.0185655968439828 28.6327538495249954
 11.2743637056581409 13.0185655968439828 28.6327538495249954
 -0.0000001083618602 13.0185655968439828 28.6327538495249954
 74.6929032839163654 10.5775387790982709 28.6327538495249954
 71.8742489119563714 10.5775387790982709 28.6327538495249954
 69.0556790979363768 10.5775387790982709 28.6327538495249954
 57.7813152839163777 10.5775387790982709 28.6327538495249954
 49.3255212839163661 10.5775387790982709 28.6327538495249954
 43.6882970979363634 10.5775387790982709 28.6327538495249954
 40.8697272839163759 10.5775387790982709 28.6327538495249954
 32.4139332839163785 10.5775387790982709 28.6327538495249954
  9.8650787783305205 15.4595191852497500 28.6327538495249954
 29.5952789119563668 10.5775387790982709 28.6327538495249954
 15.5023029643105232 15.4595191852497500 28.6327538495249954
 49.3254789643105269 15.4595191852497500 28.6327538495249954
 38.0510728306846602 20.3414995914012344 28.6327538495249954
 35.2325030166646727 20.3414995914012344 28.6327538495249954
 26.7767090166646753 20.3414995914012344 28.6327538495249954
 23.9580546447046672 20.3414995914012344 28.6327538495249954
 21.1394848306846654 20.3414995914012344 28.6327538495249954
  9.8651210166646699 20.3414995914012344 28.6327538495249954
  7.0464666447046698 20.3414995914012344 28.6327538495249954
 -1.4093273552953294 20.3414995914012344 28.6327538495249954
 62.0092122229629013 17.9004727736555189 28.6327538495249954
 50.7347638510029029 17.9004727736555189 28.6327538495249954
 47.9161940369829011 17.9004727736555189 28.6327538495249954
 42.2789698510029055 17.9004727736555189 28.6327538495249954
 31.0046060369829029 17.9004727736555189 28.6327538495249954
 22.5488120369828984 17.9004727736555189 28.6327538495249954
 19.7302422229628966 17.9004727736555189 28.6327538495249954
  8.4557938510029000 17.9004727736555189 28.6327538495249954
  5.6372240369829028 17.9004727736555189 28.6327538495249954
 -2.8185699630171004 17.9004727736555189 28.6327538495249954
 -5.6371397770370981 17.9004727736555189 28.6327538495249954
 74.6928609643105261 15.4595191852497500 28.6327538495249954
 69.0556367783305234 15.4595191852497500 28.6327538495249954
 63.4184971502905270 15.4595191852497500 28.6327538495249954
 60.5998427783305331 15.4595191852497500 28.6327538495249954
 32.4138909643105251 15.4595191852497500 28.6327538495249954
 23.9581392839163634 10.5775387790982709 28.6327538495249954
 15.5023452839163713 10.5775387790982709 28.6327538495249954
  4.2278969119563712 10.5775387790982709 28.6327538495249954
 47.9161941588898301  3.2546047845410229 28.6327538495249954
 42.2789699729098274  3.2546047845410229 28.6327538495249954
 39.4604001588898399  3.2546047845410229 28.6327538495249954
 36.6418303448698452  3.2546047845410229 28.6327538495249954
 22.5488121588898416  3.2546047845410229 28.6327538495249954
 11.2744483448698372  3.2546047845410229 28.6327538495249954
  2.8186543448698407  3.2546047845410229 28.6327538495249954
 -0.0000000270901599  3.2546047845410229 28.6327538495249954
 80.3300852721974650  0.8136511961352557 28.6327538495249954
 77.5114309002374711  0.8136511961352557 28.6327538495249954
 69.0556369002374737  0.8136511961352557 28.6327538495249954
 66.2370670862174649  0.8136511961352557 28.6327538495249954
 63.4184972721974631  0.8136511961352557 28.6327538495249954
 57.7812730862174604  0.8136511961352557 28.6327538495249954
 49.3254790862174488  0.8136511961352557 28.6327538495249954
 46.5069092721974613  0.8136511961352557 28.6327538495249954
 43.6882549002374461  0.8136511961352557 28.6327538495249954
 40.8696850862174585  0.8136511961352557 28.6327538495249954
 32.4138910862174541  0.8136511961352557 28.6327538495249954
 23.9580970862174638  0.8136511961352557 28.6327538495249954
 21.1395272721974621  0.8136511961352557 28.6327538495249954
 12.6837332721974576  0.8136511961352557 28.6327538495249954
  9.8650789002374601  0.8136511961352557 28.6327538495249954
 50.7347639729098461  3.2546047845410229 28.6327538495249954
 56.3719881588898417  3.2546047845410229 28.6327538495249954
 62.0092123448698445  3.2546047845410229 28.6327538495249954
 64.8277821588898462  3.2546047845410229 28.6327538495249954
  1.4093270979363695 10.5775387790982709 28.6327538495249954
 62.0091700252639910  8.1365851906925037 28.6327538495249954
 50.7348062112439848  8.1365851906925037 28.6327538495249954
 39.4603578392839793  8.1365851906925037 28.6327538495249954
 31.0045638392839891  8.1365851906925037 28.6327538495249954
 28.1859940252639873  8.1365851906925037 28.6327538495249954
 25.3674242112439856  8.1365851906925037 28.6327538495249954
 22.5487698392839881  8.1365851906925037 28.6327538495249954
  2.8186120252639890  8.1365851906925037 28.6327538495249954
  0.0000422112439907  8.1365851906925037 28.6327538495249954
 66.2370247666116256  5.6956316022867357 28.6327538495249954
 40.8696426447046761 20.3414995914012344 28.6327538495249954
 63.4184549525916097  5.6956316022867357 28.6327538495249954
 38.0510729525916105  5.6956316022867357 28.6327538495249954
 26.7767091385716043  5.6956316022867357 28.6327538495249954
 23.9580547666116068  5.6956316022867357 28.6327538495249954
 21.1394849525916122  5.6956316022867357 28.6327538495249954
 15.5022607666116095  5.6956316022867357 28.6327538495249954
 12.6836909525916113  5.6956316022867357 28.6327538495249954
  4.2278969525916086  5.6956316022867357 28.6327538495249954
  1.4093271385716108  5.6956316022867357 28.6327538495249954
 76.1021459729098524  3.2546047845410229 28.6327538495249954
 73.2835761588898578  3.2546047845410229 28.6327538495249954
 67.6463519729098550  3.2546047845410229 28.6327538495249954
 49.3254367666116167  5.6956316022867357 28.6327538495249954
 49.3254366447046735 20.3414995914012344 28.6327538495249954
 60.5998850166646719 20.3414995914012344 28.6327538495249954
 63.4184548306846807 20.3414995914012344 28.6327538495249954
 56.3719455954701161 37.4283211689214923 28.6327538495249954
 47.9161515954701187 37.4283211689214923 28.6327538495249954
 45.0975817814501099 37.4283211689214923 28.6327538495249954
 31.0045635954701204 37.4283211689214923 28.6327538495249954
 28.1859937814501045 37.4283211689214923 28.6327538495249954
 14.0929755954701115 37.4283211689214923 28.6327538495249954
 11.2744057814501097 37.4283211689214923 28.6327538495249954
 -5.6371822185498859 37.4283211689214923 28.6327538495249954
 -8.4557520325698885 37.4283211689214923 28.6327538495249954
 -16.9115460325698876 37.4283211689214923 28.6327538495249954
 -19.7302004045298887 37.4283211689214923 28.6327538495249954
 63.4184547087777446 34.9873675805157234 28.6327538495249954
 54.9626607087777472 34.9873675805157234 28.6327538495249954
 49.3254365227977445 34.9873675805157234 28.6327538495249954
  4.2278967087777302 34.9873675805157234 28.6327538495249954
  1.4093268947577322 34.9873675805157234 28.6327538495249954
 -4.2278972912222672 34.9873675805157234 28.6327538495249954
 -18.3209154772022664 34.9873675805157234 28.6327538495249954
 56.3719879150759695 32.5463407627700150 28.6327538495249954
 39.4603999150759606 32.5463407627700150 28.6327538495249954
 28.1860361010559650 32.5463407627700150 28.6327538495249954
 19.7302421010559677 32.5463407627700150 28.6327538495249954
 16.9115877290959595 32.5463407627700150 28.6327538495249954
 62.0091697814501188 37.4283211689214923 28.6327538495249954
 -15.5022611458775117 39.8692747573272612 28.6327538495249954
 -12.6836913318575100 39.8692747573272612 28.6327538495249954
 -9.8650369598975125 39.8692747573272612 28.6327538495249954
 50.7347636478242734 42.3103015750729767 28.6327538495249954
 47.9161938338042646 42.3103015750729767 28.6327538495249954
 39.4603998338042672 42.3103015750729767 28.6327538495249954
 36.6417454618442662 42.3103015750729767 28.6327538495249954
 22.5488118338042653 42.3103015750729767 28.6327538495249954
 19.7301574618442501 42.3103015750729767 28.6327538495249954
 16.9115876478242626 42.3103015750729767 28.6327538495249954
 14.0930178338042680 42.3103015750729767 28.6327538495249954
  5.6372238338042564 42.3103015750729767 28.6327538495249954
  2.8185694618442589 42.3103015750729767 28.6327538495249954
 -0.0000003521757358 42.3103015750729767 28.6327538495249954
  2.8186541010559618 32.5463407627700150 28.6327538495249954
 -8.4557943521757366 42.3103015750729767 28.6327538495249954
 49.3255210401024939 39.8692747573272612 28.6327538495249954
 46.5068666681425000 39.8692747573272612 28.6327538495249954
 40.8697270401024966 39.8692747573272612 28.6327538495249954
 29.5952786681424982 39.8692747573272612 28.6327538495249954
 26.7767088541224823 39.8692747573272612 28.6327538495249954
 18.3209148541224920 39.8692747573272612 28.6327538495249954
 15.5023450401024956 39.8692747573272612 28.6327538495249954
 12.6836906681424875 39.8692747573272612 28.6327538495249954
  4.2278966681424874 39.8692747573272612 28.6327538495249954
  1.4093268541224926 39.8692747573272612 28.6327538495249954
 -7.0464671458775081 39.8692747573272612 28.6327538495249954
 -11.2743641661957401 42.3103015750729767 28.6327538495249954
 -23.9580974654833554 44.7512551634787386 28.6327538495249954
 -0.0000002709040391 32.5463407627700150 28.6327538495249954
 57.7812728424035953 30.1053871743642461 28.6327538495249954
 54.9626607900494406 25.2234067682127652 28.6327538495249954
 49.3255211620094371 25.2234067682127652 28.6327538495249954
 40.8697271620094256 25.2234067682127652 28.6327538495249954
 38.0510727900494388 25.2234067682127652 28.6327538495249954
 29.5952787900494201 25.2234067682127652 28.6327538495249954
 26.7767089760294326 25.2234067682127652 28.6327538495249954
  9.8651209760294343 25.2234067682127652 28.6327538495249954
 -1.4092428379905699 25.2234067682127652 28.6327538495249954
 -12.6836912099505668 25.2234067682127652 28.6327538495249954
 62.0091699033570620 22.7824531798069998 28.6327538495249954
 59.1906000893370532 22.7824531798069998 28.6327538495249954
 56.3719457173770593 22.7824531798069998 28.6327538495249954
 50.7348060893370558 22.7824531798069998 28.6327538495249954
 47.9161517173770548 22.7824531798069998 28.6327538495249954
 39.4603577173770574 22.7824531798069998 28.6327538495249954
 31.0045637173770388 22.7824531798069998 28.6327538495249954
 28.1859939033570512 22.7824531798069998 28.6327538495249954
 25.3674240893370566 22.7824531798069998 28.6327538495249954
  2.8186119033570516 22.7824531798069998 28.6327538495249954
  0.0000420893370479 22.7824531798069998 28.6327538495249954
 -2.8186122826229494 22.7824531798069998 28.6327538495249954
 -11.2744062826229499 22.7824531798069998 28.6327538495249954
 71.8742488306846781 20.3414995914012344 28.6327538495249954
 57.7813151620094345 25.2234067682127652 28.6327538495249954
 60.5998849760294434 25.2234067682127652 28.6327538495249954
 69.0556789760294407 25.2234067682127652 28.6327538495249954
 -14.0930184162487979 27.6644335859584807 28.6327538495249954
 54.9627030283835865 30.1053871743642461 28.6327538495249954
 40.8696848424035863 30.1053871743642461 28.6327538495249954
 38.0511150283835775 30.1053871743642461 28.6327538495249954
 29.5953210283835837 30.1053871743642461 28.6327538495249954
 26.7766666564235685 30.1053871743642461 28.6327538495249954
 18.3208726564235782 30.1053871743642461 28.6327538495249954
 15.5023028424035783 30.1053871743642461 28.6327538495249954
 12.6837330283835765 30.1053871743642461 28.6327538495249954
  9.8650786564235791 30.1053871743642461 28.6327538495249954
 -1.4092851575964171 30.1053871743642461 28.6327538495249954
 -4.2278549716164209 30.1053871743642461 28.6327538495249954
 -14.0929338989440378 32.5463407627700150 28.6327538495249954
 -12.6836489716164174 30.1053871743642461 28.6327538495249954
 67.6463517697312113 27.6644335859584807 28.6327538495249954
 56.3719879557112051 27.6644335859584807 28.6327538495249954
 50.7347637697312024 27.6644335859584807 28.6327538495249954
 39.4603999557111962 27.6644335859584807 28.6327538495249954
 28.1859515837511907 27.6644335859584807 28.6327538495249954
 25.3673817697312032 27.6644335859584807 28.6327538495249954
 14.0930179557111952 27.6644335859584807 28.6327538495249954
 11.2743635837511977 27.6644335859584807 28.6327538495249954
  8.4557937697312031 27.6644335859584807 28.6327538495249954
 -2.8185700442888009 27.6644335859584807 28.6327538495249954
 -5.6372244162487979 27.6644335859584807 28.6327538495249954
 -15.5023033435764184 30.1053871743642461 28.6327538495249954
 38.0510727087777383 34.9873675805157234 28.6327538495249954
