 H  O 
 1.0000000000000000
    84.5579400000000021    0.0000000000000000    0.0000000000000000
   -42.2789706095346958   73.2293399455724767    0.0000000000000000
     0.0000000000000000    0.0000000000000000   46.9039550000000034
 H   O  
 317 312
Cartesian
  2.8185698004749202  1.6273023922705114 28.1128704123049964
 -1.4092852659582757 43.1239527712082307 28.1128704123049964
 -4.2279396379182765 43.1239527712082307 28.1128704123049964
 -12.6837336379182783 43.1239527712082307 28.1128704123049964
 -23.9580974519382757 43.1239527712082307 28.1128704123049964
 56.3719032894093317 40.6829991828024689 28.1128704123049964
 53.5533334753893371 40.6829991828024689 28.1128704123049964
 47.9161092894093343 40.6829991828024689 28.1128704123049964
 42.2789696613693309 40.6829991828024689 28.1128704123049964
 33.8231756613693406 40.6829991828024689 28.1128704123049964
 31.0045212894093325 40.6829991828024689 28.1128704123049964
  1.4092845480617260 43.1239527712082307 28.1128704123049964
 28.1859514753893379 40.6829991828024689 28.1128704123049964
 19.7301574753893405 40.6829991828024689 28.1128704123049964
 11.2743634753893449 40.6829991828024689 28.1128704123049964
  5.6371392894093386 40.6829991828024689 28.1128704123049964
  2.8185694753893440 40.6829991828024689 28.1128704123049964
 -0.0000003386306579 40.6829991828024689 28.1128704123049964
 -14.0930185246106596 40.6829991828024689 28.1128704123049964
 -19.7302427105906588 40.6829991828024689 28.1128704123049964
 57.7812304957075682 38.2419723650567462 28.1128704123049964
 52.1440908676675789 38.2419723650567462 28.1128704123049964
 43.6882968676675674 38.2419723650567462 28.1128704123049964
 25.3673816613693432 40.6829991828024689 28.1128704123049964
 32.4138484957075690 38.2419723650567462 28.1128704123049964
  7.0465087340417254 43.1239527712082307 28.1128704123049964
 23.9580967340417281 43.1239527712082307 28.1128704123049964
 53.5533334347540944 45.5649063596139996 28.1128704123049964
 45.0975394347540970 45.5649063596139996 28.1128704123049964
 36.6417454347540925 45.5649063596139996 28.1128704123049964
 33.8231756207340979 45.5649063596139996 28.1128704123049964
 31.0046058067141033 45.5649063596139996 28.1128704123049964
 28.1859514347540951 45.5649063596139996 28.1128704123049964
  8.4557936207341040 45.5649063596139996 28.1128704123049964
  5.6372238067141032 45.5649063596139996 28.1128704123049964
  2.8185694347540982 45.5649063596139996 28.1128704123049964
 -0.0000003792658964 45.5649063596139996 28.1128704123049964
 15.5023027340417219 43.1239527712082307 28.1128704123049964
 -2.8185701932858982 45.5649063596139996 28.1128704123049964
 -8.4557943792659014 45.5649063596139996 28.1128704123049964
 -11.2743641932859031 45.5649063596139996 28.1128704123049964
 -14.0930185652459006 45.5649063596139996 28.1128704123049964
 -16.9115883792659005 45.5649063596139996 28.1128704123049964
 52.1440485480617184 43.1239527712082307 28.1128704123049964
 49.3254787340417238 43.1239527712082307 28.1128704123049964
 46.5068243620817157 43.1239527712082307 28.1128704123049964
 43.6882545480617210 43.1239527712082307 28.1128704123049964
 40.8696847340417122 43.1239527712082307 28.1128704123049964
 32.4138907340417219 43.1239527712082307 28.1128704123049964
 -5.6372245652458988 45.5649063596139996 28.1128704123049964
 26.7767088676675797 38.2419723650567462 28.1128704123049964
 12.6836906816875779 38.2419723650567462 28.1128704123049964
  9.8651208676675761 38.2419723650567462 28.1128704123049964
 -0.0000002573589589 30.9190383704995000 28.1128704123049964
 66.2370668559486688 28.4780847820937346 28.1128704123049964
 57.7812728559486644 28.4780847820937346 28.1128704123049964
 26.7766666699686624 28.4780847820937346 28.1128704123049964
 23.9580968559486607 28.4780847820937346 28.1128704123049964
 21.1394424839886597 28.4780847820937346 28.1128704123049964
  4.2278544839886631 28.4780847820937346 28.1128704123049964
 -1.4092851440513405 28.4780847820937346 28.1128704123049964
 -4.2279395160113378 28.4780847820937346 28.1128704123049964
 -7.0465093300313377 28.4780847820937346 28.1128704123049964
 14.0930179286210446 30.9190383704995000 28.1128704123049964
 -9.8650791440513395 28.4780847820937346 28.1128704123049964
 67.6463517832762875 26.0371311936879657 28.1128704123049964
 56.3719034113162749 26.0371311936879657 28.1128704123049964
 50.7347637832762715 26.0371311936879657 28.1128704123049964
 47.9161094113162704 26.0371311936879657 28.1128704123049964
 42.2789697832762812 26.0371311936879657 28.1128704123049964
 39.4603154113162731 26.0371311936879657 28.1128704123049964
 36.6417455972962784 26.0371311936879657 28.1128704123049964
 33.8231757832762838 26.0371311936879657 28.1128704123049964
 31.0045214113162864 26.0371311936879657 28.1128704123049964
 28.1859515972962846 26.0371311936879657 28.1128704123049964
 -12.6837335160113369 28.4780847820937346 28.1128704123049964
 19.7301575566610410 30.9190383704995000 28.1128704123049964
 22.5488119286210420 30.9190383704995000 28.1128704123049964
 25.3673817426410437 30.9190383704995000 28.1128704123049964
  1.4093268676675752 38.2419723650567462 28.1128704123049964
 -1.4093275042924258 38.2419723650567462 28.1128704123049964
 62.0091697949951950 35.8010187766509844 28.1128704123049964
 53.5533757949951976 35.8010187766509844 28.1128704123049964
 45.0975817949951860 35.8010187766509844 28.1128704123049964
 31.0045636090151895 35.8010187766509844 28.1128704123049964
 28.1859937949951949 35.8010187766509844 28.1128704123049964
 25.3673394230351938 35.8010187766509844 28.1128704123049964
 22.5487696090151921 35.8010187766509844 28.1128704123049964
 16.9115454230351894 35.8010187766509844 28.1128704123049964
  2.8186117949951930 35.8010187766509844 28.1128704123049964
 -14.0929762050048097 35.8010187766509844 28.1128704123049964
 60.5998003503628055 33.3600651882452155 28.1128704123049964
 46.5068667223228047 33.3600651882452155 28.1128704123049964
 29.5952787223228171 33.3600651882452155 28.1128704123049964
 23.9580545363428143 33.3600651882452155 28.1128704123049964
 18.3208303503628116 33.3600651882452155 28.1128704123049964
  1.4092423503628120 33.3600651882452155 28.1128704123049964
 -1.4093274636571897 33.3600651882452155 28.1128704123049964
 -12.6836912776771893 33.3600651882452155 28.1128704123049964
 -15.5023456496371885 33.3600651882452155 28.1128704123049964
 53.5533335566610376 30.9190383704995000 28.1128704123049964
 28.1859515566610455 30.9190383704995000 28.1128704123049964
 56.3719878067141025 45.5649063596139996 28.1128704123049964
 -23.9581397715441291 48.0059331773597151 28.1128704123049964
 -18.3209155855641299 48.0059331773597151 28.1128704123049964
 -15.5023457715441282 48.0059331773597151 28.1128704123049964
 -15.5022613761463042 67.5337083432857384 28.1128704123049964
 -35.2325037481063035 67.5337083432857384 28.1128704123049964
 39.4603573652013111 65.0927547548799765 28.1128704123049964
 36.6417875511813165 65.0927547548799765 28.1128704123049964
 33.8231331792213084 65.0927547548799765 28.1128704123049964
  2.8186115511813119 65.0927547548799765 28.1128704123049964
 -16.9116308207786865 65.0927547548799765 28.1128704123049964
 -31.0045644488186873 65.0927547548799765 28.1128704123049964
 38.0510724785089351 62.6518011664742076 28.1128704123049964
 12.6836904785089395 62.6518011664742076 28.1128704123049964
 -9.8651217481063078 67.5337083432857384 28.1128704123049964
  7.0464662925289359 62.6518011664742076 28.1128704123049964
 -18.3209157074710660 62.6518011664742076 28.1128704123049964
 -26.7767097074710669 62.6518011664742076 28.1128704123049964
 -35.2325037074710679 62.6518011664742076 28.1128704123049964
 28.1859513128471555 60.2107743487284921 28.1128704123049964
 22.5488116848071662 60.2107743487284921 28.1128704123049964
 19.7301573128471581 60.2107743487284921 28.1128704123049964
 16.9115874988271635 60.2107743487284921 28.1128704123049964
 14.0930176848071671 60.2107743487284921 28.1128704123049964
 -19.7301583151928384 60.2107743487284921 28.1128704123049964
 -22.5488126871528358 60.2107743487284921 28.1128704123049964
 -1.4093277074710613 62.6518011664742076 28.1128704123049964
 -4.2278975621263015 67.5337083432857384 28.1128704123049964
  9.8651206238536986 67.5337083432857384 28.1128704123049964
 23.9580542518936852 67.5337083432857384 28.1128704123049964
 29.5952361182678381 72.4156887494372228 28.1128704123049964
 23.9580964902278346 72.4156887494372228 28.1128704123049964
 -12.6837338817321594 72.4156887494372228 28.1128704123049964
 -26.7766675097721567 72.4156887494372228 28.1128704123049964
 -29.5953218817321577 72.4156887494372228 28.1128704123049964
 -32.4138916957521559 72.4156887494372228 28.1128704123049964
 -38.0511158817321586 72.4156887494372228 28.1128704123049964
 28.1859512315754728 69.9747351610314468 28.1128704123049964
 25.3673814175554639 69.9747351610314468 28.1128704123049964
 16.9115874175554666 69.9747351610314468 28.1128704123049964
 11.2743632315754621 69.9747351610314468 28.1128704123049964
  8.4557934175554603 69.9747351610314468 28.1128704123049964
 -0.0000005824445366 69.9747351610314468 28.1128704123049964
 -5.6372247684245327 69.9747351610314468 28.1128704123049964
 -16.9115885824445336 69.9747351610314468 28.1128704123049964
 -22.5488127684245363 69.9747351610314468 28.1128704123049964
 -31.0046067684245337 69.9747351610314468 28.1128704123049964
 -33.8231765824445318 69.9747351610314468 28.1128704123049964
 -36.6418309544045329 69.9747351610314468 28.1128704123049964
 -39.4604007684245346 69.9747351610314468 28.1128704123049964
 43.6882966238536952 67.5337083432857384 28.1128704123049964
 35.2325026238536978 67.5337083432857384 28.1128704123049964
 26.7767086238536862 67.5337083432857384 28.1128704123049964
 -25.3673825011728376 60.2107743487284921 28.1128704123049964
 22.5487274113162819 26.0371311936879657 28.1128704123049964
 -28.1859523151928357 60.2107743487284921 28.1128704123049964
 43.6882544261547849 57.7698207603227232 28.1128704123049964
 -4.2278974402193654 52.8878403541712458 28.1128704123049964
 -21.1394854402193673 52.8878403541712458 28.1128704123049964
 -29.5952794402193682 52.8878403541712458 28.1128704123049964
 50.7347213011282463 50.4468867657654769 28.1128704123049964
 42.2789273011282489 50.4468867657654769 28.1128704123049964
 39.4603574871082543 50.4468867657654769 28.1128704123049964
 36.6417876730882455 50.4468867657654769 28.1128704123049964
 33.8231333011282445 50.4468867657654769 28.1128704123049964
 25.3673393011282471 50.4468867657654769 28.1128704123049964
  5.6371814871082586 50.4468867657654769 28.1128704123049964
 -1.4093276261993704 52.8878403541712458 28.1128704123049964
 -8.4558366988717459 50.4468867657654769 28.1128704123049964
 -16.9116306988717469 50.4468867657654769 28.1128704123049964
 -25.3674246988717442 50.4468867657654769 28.1128704123049964
 -28.1859945128917460 50.4468867657654769 28.1128704123049964
 54.9626606004158731 48.0059331773597151 28.1128704123049964
 46.5068666004158757 48.0059331773597151 28.1128704123049964
 43.6882122284558676 48.0059331773597151 28.1128704123049964
 21.1394846004158765 48.0059331773597151 28.1128704123049964
 15.5022604144358738 48.0059331773597151 28.1128704123049964
 12.6836906004158720 48.0059331773597151 28.1128704123049964
 -12.6836913995841307 48.0059331773597151 28.1128704123049964
 -14.0929763269117494 50.4468867657654769 28.1128704123049964
 12.6836905597806329 52.8878403541712458 28.1128704123049964
 15.5022603738006346 52.8878403541712458 28.1128704123049964
 21.1394845597806302 52.8878403541712458 28.1128704123049964
 35.2324604261547876 57.7698207603227232 28.1128704123049964
 32.4138906121347787 57.7698207603227232 28.1128704123049964
 29.5952362401747777 57.7698207603227232 28.1128704123049964
 26.7766664261547831 57.7698207603227232 28.1128704123049964
 23.9580966121347885 57.7698207603227232 28.1128704123049964
 12.6836482401747883 57.7698207603227232 28.1128704123049964
  7.0465086121347857 57.7698207603227232 28.1128704123049964
  1.4092844261547897 57.7698207603227232 28.1128704123049964
 -4.2279397598252162 57.7698207603227232 28.1128704123049964
 -7.0465095738452108 57.7698207603227232 28.1128704123049964
 -18.3208733878652161 57.7698207603227232 28.1128704123049964
 -21.1395277598252136 57.7698207603227232 28.1128704123049964
 -32.4138915738452127 57.7698207603227232 28.1128704123049964
 50.7347635394624064 55.3288671719169614 28.1128704123049964
 25.3673815394624036 55.3288671719169614 28.1128704123049964
 22.5487271675023955 55.3288671719169614 28.1128704123049964
 14.0929331675024070 55.3288671719169614 28.1128704123049964
 11.2743633534824053 55.3288671719169614 28.1128704123049964
 -2.8186548324975988 55.3288671719169614 28.1128704123049964
 -11.2744488324975958 55.3288671719169614 28.1128704123049964
 46.5068665597806330 52.8878403541712458 28.1128704123049964
 38.0510725597806356 52.8878403541712458 28.1128704123049964
 23.9580543738006249 52.8878403541712458 28.1128704123049964
 -31.0046066871528367 60.2107743487284921 28.1128704123049964
 -2.8186545886837178 26.0371311936879657 28.1128704123049964
 40.8696844902278471 72.4156887494372228 28.1128704123049964
 50.7347639051832218 11.3912632045734714 28.1128704123049964
 -9.8651213417502497 18.7141971991307194 28.1128704123049964
 73.2835760505279836 16.2731703813850075 28.1128704123049964
 70.4649216785679755 16.2731703813850075 28.1128704123049964
 53.5533336785679737 16.2731703813850075 28.1128704123049964
 45.0975396785679763 16.2731703813850075 28.1128704123049964
 42.2789698645479817 16.2731703813850075 28.1128704123049964
 74.6928187801566850  4.0683292100162243 28.1128704123049964
 36.6417456785679860 16.2731703813850075 28.1128704123049964
 19.7301576785679771 16.2731703813850075 28.1128704123049964
 16.9115878645479825 16.2731703813850075 28.1128704123049964
 14.0930180505279825 16.2731703813850075 28.1128704123049964
 11.2743636785679815 16.2731703813850075 28.1128704123049964
  5.6372240505279780 16.2731703813850075 28.1128704123049964
 -0.0000001354520196 16.2731703813850075 28.1128704123049964
 28.1859940388090742  6.5092827984219914 28.1128704123049964
 -5.6372243214320203 16.2731703813850075 28.1128704123049964
 12.6836908442297531 18.7141971991307194 28.1128704123049964
 35.2324184722697566 18.7141971991307194 28.1128704123049964
 -5.6371820830978701 21.1551507875364884 28.1128704123049964
 35.2324185941766927  4.0683292100162243 28.1128704123049964
 43.6882125941766972  4.0683292100162243 28.1128704123049964
 49.3254367801566929  4.0683292100162243 28.1128704123049964
 -11.2744062690778684 21.1551507875364884 28.1128704123049964
 69.0555944722697461 18.7141971991307194 28.1128704123049964
 23.9580546582497540 18.7141971991307194 28.1128704123049964
 63.4184548442297569 18.7141971991307194 28.1128704123049964
 57.7812307801566902  4.0683292100162243 28.1128704123049964
 49.3254366582497497 18.7141971991307194 28.1128704123049964
 43.6882124722697469 18.7141971991307194 28.1128704123049964
 40.8696426582497523 18.7141971991307194 28.1128704123049964
 60.5998005941766849  4.0683292100162243 28.1128704123049964
 38.0510728442297577 18.7141971991307194 28.1128704123049964
 54.9626609661366956  4.0683292100162243 28.1128704123049964
 32.4138487801566981  4.0683292100162243 28.1128704123049964
 -8.4557941354520185 16.2731703813850075 28.1128704123049964
 50.7347216668490617  6.5092827984219914 28.1128704123049964
 15.5022607395214518  8.9502363868277595 28.1128704123049964
 59.1905579051832120 11.3912632045734714 28.1128704123049964
 56.3719035332232110 11.3912632045734714 28.1128704123049964
 53.5533337192032164 11.3912632045734714 28.1128704123049964
 -11.2744485886837182 26.0371311936879657 28.1128704123049964
 45.0975397192032190 11.3912632045734714 28.1128704123049964
  9.8651211114814483  8.9502363868277595 28.1128704123049964
 39.4603155332232234 11.3912632045734714 28.1128704123049964
 28.1859517192032243 11.3912632045734714 28.1128704123049964
 16.9115879051832216 11.3912632045734714 28.1128704123049964
 14.0929335332232206 11.3912632045734714 28.1128704123049964
 11.2743637192032189 11.3912632045734714 28.1128704123049964
 46.5068669255014484  8.9502363868277595 28.1128704123049964
 49.3254367395214430  8.9502363868277595 28.1128704123049964
 33.8231759051832199 11.3912632045734714 28.1128704123049964
 71.8742066058955942 13.8322167929792403 28.1128704123049964
 73.2834915332232129 11.3912632045734714 28.1128704123049964
 -1.4093272604785494  8.9502363868277595 28.1128704123049964
 63.4184126058955968 13.8322167929792403 28.1128704123049964
 60.5998427918756022 13.8322167929792403 28.1128704123049964
 57.7812729778555934 13.8322167929792403 28.1128704123049964
 49.3254789778556031 13.8322167929792403 28.1128704123049964
 53.5533760388090698  6.5092827984219914 28.1128704123049964
 38.0510306058956047 13.8322167929792403 28.1128704123049964
 76.1021459051832210 11.3912632045734714 28.1128704123049964
 59.1905156668490591  6.5092827984219914 28.1128704123049964
 70.4649640388090717  6.5092827984219914 28.1128704123049964
 76.1021036668490609  6.5092827984219914 28.1128704123049964
 18.3208727918756047 13.8322167929792403 28.1128704123049964
 12.6836486058956019 13.8322167929792403 28.1128704123049964
 78.9207580388090690  6.5092827984219914 28.1128704123049964
 -7.0465092081243990 13.8322167929792403 28.1128704123049964
 67.6463096668490635  6.5092827984219914 28.1128704123049964
  8.4557515449421317 21.1551507875364884 28.1128704123049964
 69.0555945941766822  4.0683292100162243 28.1128704123049964
 63.4184549255014502  8.9502363868277595 28.1128704123049964
 36.6417879169021319 21.1551507875364884 28.1128704123049964
 70.4649218004749116  1.6273023922705114 28.1128704123049964
 73.2835761724349197  1.6273023922705114 28.1128704123049964
  1.4092425941766900  4.0683292100162243 28.1128704123049964
 45.0975819169021293 21.1551507875364884 28.1128704123049964
 -4.2278971964054897 23.5961043759422537 28.1128704123049964
 29.5952788035945140 23.5961043759422537 28.1128704123049964
 -1.4093273823854895 23.5961043759422537 28.1128704123049964
 19.7301578004749203  1.6273023922705114 28.1128704123049964
 46.5068668035945052 23.5961043759422537 28.1128704123049964
  4.2278968035945095 23.5961043759422537 28.1128704123049964
 25.3673395449421299 21.1551507875364884 28.1128704123049964
 42.2789275449421211 21.1551507875364884 28.1128704123049964
  4.2278969661366892  4.0683292100162243 28.1128704123049964
 39.4603577309221265 21.1551507875364884 28.1128704123049964
 -1.4093272198433096  4.0683292100162243 28.1128704123049964
  9.8650365941766900  4.0683292100162243 28.1128704123049964
 16.9115455449421290 21.1551507875364884 28.1128704123049964
 33.8231335449421309 21.1551507875364884 28.1128704123049964
 26.7767089895745123 23.5961043759422537 28.1128704123049964
 47.9161941724349276  1.6273023922705114 28.1128704123049964
 38.0510728035945078 23.5961043759422537 28.1128704123049964
 53.5533759169021195 21.1551507875364884 28.1128704123049964
 64.8277821724349081  1.6273023922705114 28.1128704123049964
  5.6372241724349186  1.6273023922705114 28.1128704123049964
 18.3208305941766909  4.0683292100162243 28.1128704123049964
 67.6463519864549170  1.6273023922705114 28.1128704123049964
 67.6463095449421274 21.1551507875364884 28.1128704123049964
 70.4649639169021356 21.1551507875364884 28.1128704123049964
 50.7347639864549222  1.6273023922705114 28.1128704123049964
 14.0930181724349168  1.6273023922705114 28.1128704123049964
 43.6882969895745106 23.5961043759422537 28.1128704123049964
 49.3254366176144998 23.5961043759422537 28.1128704123049964
 18.3208729002374611  0.8136511961352557 28.6327538495249954
 -2.8186121607160102  8.1365851906925037 28.6327538495249954
 -22.5488127819696196 71.6020375533019688 28.6327538495249954
 19.7301573399373318 56.9561695641874692 28.6327538495249954
  5.6372237118973310 56.9561695641874692 28.6327538495249954
 77.5114731385716169  5.6956316022867357 28.6327538495249954
 26.7766669002374584  0.8136511961352557 28.6327538495249954
 38.0511152721974639  0.8136511961352557 28.6327538495249954
 43.6882549002374461  0.8136511961352557 28.6327538495249954
 57.7812307666116141  5.6956316022867357 28.6327538495249954
 39.4603997118973240 56.9561695641874692 28.6327538495249954
 -39.4604007819696179 71.6020375533019688 28.6327538495249954
 38.0510724243286234 69.1610107355562462 28.6327538495249954
 32.4139327962886199 69.1610107355562462 28.6327538495249954
 29.5952784243286260 69.1610107355562462 28.6327538495249954
 47.9161937118973214 56.9561695641874692 28.6327538495249954
 46.5068669525916008  5.6956316022867357 28.6327538495249954
  2.8185693399373224 56.9561695641874692 28.6327538495249954
  2.8186120252639890  8.1365851906925037 28.6327538495249954
 -5.6372247819696195 71.6020375533019688 28.6327538495249954
 -8.4557945959896212 71.6020375533019688 28.6327538495249954
 42.2790122112439946  8.1365851906925037 28.6327538495249954
 -7.0464672677844442 54.5151427464417537 28.6327538495249954
 16.9115874040103833 71.6020375533019688 28.6327538495249954
 45.0975820252639821  8.1365851906925037 28.6327538495249954
 -12.6836914537644478 54.5151427464417537 28.6327538495249954
 -15.5022612677844460 54.5151427464417537 28.6327538495249954
 25.3673814040103807 71.6020375533019688 28.6327538495249954
  1.4093267322155492 54.5151427464417537 28.6327538495249954
 -23.9580552677844487 54.5151427464417537 28.6327538495249954
 -29.5952794537644479 54.5151427464417537 28.6327538495249954
 50.7348058455231694 52.0741891580359919 28.6327538495249954
 47.9161518392839980  8.1365851906925037 28.6327538495249954
 31.0045634735631737 52.0741891580359919 28.6327538495249954
 28.1859936595431719 52.0741891580359919 28.6327538495249954
 33.8231754040103922 71.6020375533019688 28.6327538495249954
 53.5533760252639937  8.1365851906925037 28.6327538495249954
 -26.7766250818044469 54.5151427464417537 28.6327538495249954
 -16.9115884740826736 56.9561695641874692 28.6327538495249954
  7.0465509181955595 54.5151427464417537 28.6327538495249954
 36.6417880252639918  8.1365851906925037 28.6327538495249954
 11.2744060252639908  8.1365851906925037 28.6327538495249954
 19.7302000252639935  8.1365851906925037 28.6327538495249954
 43.6882967322155622 54.5151427464417537 28.6327538495249954
 40.8697269181955534 54.5151427464417537 28.6327538495249954
 38.0510725462355595 54.5151427464417537 28.6327538495249954
 35.2325027322155506 54.5151427464417537 28.6327538495249954
 32.4139329181955560 54.5151427464417537 28.6327538495249954
 39.4603578392839793  8.1365851906925037 28.6327538495249954
 -0.0000005959896168 71.6020375533019688 28.6327538495249954
 25.3674242112439856  8.1365851906925037 28.6327538495249954
  2.8185692180303707 71.6020375533019688 28.6327538495249954
  5.6372235899903860 71.6020375533019688 28.6327538495249954
 31.0045638392839891  8.1365851906925037 28.6327538495249954
 14.0930175899903762 71.6020375533019688 28.6327538495249954
 18.3209147322155452 54.5151427464417537 28.6327538495249954
 15.5023449181955559 54.5151427464417537 28.6327538495249954
 29.5952785462355585 54.5151427464417537 28.6327538495249954
 21.1394844243286215 69.1610107355562462 28.6327538495249954
 22.5488121588898416  3.2546047845410229 28.6327538495249954
 60.5998429002374621  0.8136511961352557 28.6327538495249954
 11.2744483448698372  3.2546047845410229 28.6327538495249954
 21.1394844649638500 64.2791035587447084 28.6327538495249954
 18.3209146509438554 64.2791035587447084 28.6327538495249954
 15.5022602789838597 64.2791035587447084 28.6327538495249954
 53.5534183448698329  3.2546047845410229 28.6327538495249954
 -7.0464673490561447 64.2791035587447084 28.6327538495249954
 -9.8651217210161430 64.2791035587447084 28.6327538495249954
 -12.6836915350361448 64.2791035587447084 28.6327538495249954
 -23.9580553490561456 64.2791035587447084 28.6327538495249954
 -26.7767097210161431 64.2791035587447084 28.6327538495249954
 -29.5952795350361448 64.2791035587447084 28.6327538495249954
  8.4557939729098397  3.2546047845410229 28.6327538495249954
 47.9161936712620928 61.8380767409990000 28.6327538495249954
 45.0976238572420840 61.8380767409990000 28.6327538495249954
 39.4603996712620955 61.8380767409990000 28.6327538495249954
 23.9580542789838589 64.2791035587447084 28.6327538495249954
 31.0045633516562411 66.7200571471504844 28.6327538495249954
 32.4138482789838704 64.2791035587447084 28.6327538495249954
 28.1859935376362323 66.7200571471504844 28.6327538495249954
  0.0000417236162395 66.7200571471504844 28.6327538495249954
 25.3673819729098362  3.2546047845410229 28.6327538495249954
 -5.6371824623637705 66.7200571471504844 28.6327538495249954
 28.1860363448698337  3.2546047845410229 28.6327538495249954
 -14.0929764623637634 66.7200571471504844 28.6327538495249954
 31.0046061588898354  3.2546047845410229 28.6327538495249954
 -19.7302006483437680 66.7200571471504844 28.6327538495249954
 31.0046056712620839 61.8380767409990000 28.6327538495249954
 -22.5487704623637697 66.7200571471504844 28.6327538495249954
 -28.1859946483437653 66.7200571471504844 28.6327538495249954
 11.2744055376362251 66.7200571471504844 28.6327538495249954
 -36.6417886483437698 66.7200571471504844 28.6327538495249954
 46.5068664649638706 64.2791035587447084 28.6327538495249954
 43.6882966509438617 64.2791035587447084 28.6327538495249954
 14.0929753516562410 66.7200571471504844 28.6327538495249954
 19.7302423448698399  3.2546047845410229 28.6327538495249954
 -25.3673402763837679 66.7200571471504844 28.6327538495249954
 18.3209146103086198 69.1610107355562462 28.6327538495249954
 28.1860358572420893 61.8380767409990000 28.6327538495249954
 25.3673814852820882 61.8380767409990000 28.6327538495249954
 21.1394849525916122  5.6956316022867357 28.6327538495249954
 26.7767091385716043  5.6956316022867357 28.6327538495249954
  1.4093266103086164 69.1610107355562462 28.6327538495249954
 29.5952789525916060  5.6956316022867357 28.6327538495249954
  7.0465085985897025 59.3971231525932382 28.6327538495249954
  4.2279387845697078 59.3971231525932382 28.6327538495249954
  1.4092844126096999 59.3971231525932382 28.6327538495249954
 -9.8650794014102949 59.3971231525932382 28.6327538495249954
  4.2278964243286037 69.1610107355562462 28.6327538495249954
 -12.6836492154302967 59.3971231525932382 28.6327538495249954
  5.6371813516562215 66.7200571471504844 28.6327538495249954
 38.0510729525916105  5.6956316022867357 28.6327538495249954
 40.8696427666115980  5.6956316022867357 28.6327538495249954
 43.6882971385716132  5.6956316022867357 28.6327538495249954
 15.5023447962886092 69.1610107355562462 28.6327538495249954
  9.8651211385716078  5.6956316022867357 28.6327538495249954
 38.0511147845697053 59.3971231525932382 28.6327538495249954
 -9.8650372037113900 69.1610107355562462 28.6327538495249954
 40.8696845985897141 59.3971231525932382 28.6327538495249954
 64.8277821588898462  3.2546047845410229 28.6327538495249954
 -23.9580553896913813 69.1610107355562462 28.6327538495249954
 59.1906002112439964  8.1365851906925037 28.6327538495249954
  2.8186538572420905 61.8380767409990000 28.6327538495249954
 70.4650063448698489  3.2546047845410229 28.6327538495249954
 83.1486550862174738  0.8136511961352557 28.6327538495249954
 -2.8185703287379194 61.8380767409990000 28.6327538495249954
 -26.7766252037113830 69.1610107355562462 28.6327538495249954
 77.5114309002374711  0.8136511961352557 28.6327538495249954
 -14.0929341427579153 61.8380767409990000 28.6327538495249954
 -16.9115885147179164 61.8380767409990000 28.6327538495249954
 73.2835761588898578  3.2546047845410229 28.6327538495249954
 -33.8231765147179146 61.8380767409990000 28.6327538495249954
 78.9208003448698463  3.2546047845410229 28.6327538495249954
 49.3254785985897115 59.3971231525932382 28.6327538495249954
 46.5069087845697027 59.3971231525932382 28.6327538495249954
 -8.4557945147179190 61.8380767409990000 28.6327538495249954
 -15.5023035873902977 59.3971231525932382 28.6327538495249954
 -7.0464670239705693 25.2234067682127652 28.6327538495249954
 64.8277398392839928  8.1365851906925037 28.6327538495249954
 -1.4093273552953294 20.3414995914012344 28.6327538495249954
 56.3719879150759695 32.5463407627700150 28.6327538495249954
 50.7347637290959668 32.5463407627700150 28.6327538495249954
  1.4093270166646681 20.3414995914012344 28.6327538495249954
 42.2789697290959623 32.5463407627700150 28.6327538495249954
 39.4603999150759606 32.5463407627700150 28.6327538495249954
 33.8231757290959649 32.5463407627700150 28.6327538495249954
  4.2278968306846716 20.3414995914012344 28.6327538495249954
 28.1860361010559650 32.5463407627700150 28.6327538495249954
 22.5488119150759623 32.5463407627700150 28.6327538495249954
  9.8651210166646699 20.3414995914012344 28.6327538495249954
 11.2744481010559561 32.5463407627700150 28.6327538495249954
  8.4557937290959586 32.5463407627700150 28.6327538495249954
  5.6372239150759640 32.5463407627700150 28.6327538495249954
 15.5022606447046662 20.3414995914012344 28.6327538495249954
 -5.6371398989440404 32.5463407627700150 28.6327538495249954
 -11.2743640849240396 32.5463407627700150 28.6327538495249954
 -18.3209154772022664 34.9873675805157234 28.6327538495249954
 -4.2278971693153311 20.3414995914012344 28.6327538495249954
 -9.8651214772022673 34.9873675805157234 28.6327538495249954
 -7.0464671052422672 34.9873675805157234 28.6327538495249954
 53.5534182229629039 17.9004727736555189 28.6327538495249954
 -5.6371822185498859 37.4283211689214923 28.6327538495249954
 -8.4557520325698885 37.4283211689214923 28.6327538495249954
 -11.2744064045298860 37.4283211689214923 28.6327538495249954
 39.4603995899903808 71.6020375533019688 28.6327538495249954
 56.3719880369828985 17.9004727736555189 28.6327538495249954
 59.1905578510029073 17.9004727736555189 28.6327538495249954
 52.1440908947577384 34.9873675805157234 28.6327538495249954
 21.1394848306846654 20.3414995914012344 28.6327538495249954
 62.0092122229629013 17.9004727736555189 28.6327538495249954
 38.0510727087777383 34.9873675805157234 28.6327538495249954
 35.2325028947577295 34.9873675805157234 28.6327538495249954
 67.6463518510029047 17.9004727736555189 28.6327538495249954
 73.2835760369829075 17.9004727736555189 28.6327538495249954
 12.6836907087777320 34.9873675805157234 28.6327538495249954
  9.8651208947577302 34.9873675805157234 28.6327538495249954
  4.2278967087777302 34.9873675805157234 28.6327538495249954
 -4.2278972912222672 34.9873675805157234 28.6327538495249954
 40.8696425227977400 34.9873675805157234 28.6327538495249954
 63.4184970283835838 30.1053871743642461 28.6327538495249954
 54.9627030283835865 30.1053871743642461 28.6327538495249954
 29.5952788306846699 20.3414995914012344 28.6327538495249954
 19.7301575837512004 27.6644335859584807 28.6327538495249954
  8.4557937697312031 27.6644335859584807 28.6327538495249954
 -5.6371820966429516 22.7824531798069998 28.6327538495249954
  2.8185695837512008 27.6644335859584807 28.6327538495249954
  2.8186119033570516 22.7824531798069998 28.6327538495249954
 19.7301999033570468 22.7824531798069998 28.6327538495249954
 22.5487697173770485 22.7824531798069998 28.6327538495249954
 36.6417879033570415 22.7824531798069998 28.6327538495249954
 -8.4557519106629488 22.7824531798069998 28.6327538495249954
 42.2790120893370442 22.7824531798069998 28.6327538495249954
 64.8277397173770566 22.7824531798069998 28.6327538495249954
 21.1394847900494298 25.2234067682127652 28.6327538495249954
 18.3209149760294281 25.2234067682127652 28.6327538495249954
 15.5023451620094264 25.2234067682127652 28.6327538495249954
 12.6836907900494289 25.2234067682127652 28.6327538495249954
  7.0465511620094325 25.2234067682127652 28.6327538495249954
  1.4093269760294336 25.2234067682127652 28.6327538495249954
 -12.6836912099505668 25.2234067682127652 28.6327538495249954
 59.1906000893370532 22.7824531798069998 28.6327538495249954
 47.9161940369829011 17.9004727736555189 28.6327538495249954
 31.0046059557112059 27.6644335859584807 28.6327538495249954
 45.0975395837512067 27.6644335859584807 28.6327538495249954
 52.1440486564235925 30.1053871743642461 28.6327538495249954
 43.6882546564235881 30.1053871743642461 28.6327538495249954
 40.8696848424035863 30.1053871743642461 28.6327538495249954
 38.0511150283835775 30.1053871743642461 28.6327538495249954
 35.2324606564235907 30.1053871743642461 28.6327538495249954
 32.4138908424035748 30.1053871743642461 28.6327538495249954
 15.5023028424035783 30.1053871743642461 28.6327538495249954
 12.6837330283835765 30.1053871743642461 28.6327538495249954
 33.8231757697311934 27.6644335859584807 28.6327538495249954
  9.8650786564235791 30.1053871743642461 28.6327538495249954
  1.4092846564235810 30.1053871743642461 28.6327538495249954
 52.1440910166646745 20.3414995914012344 28.6327538495249954
 -15.5023033435764184 30.1053871743642461 28.6327538495249954
 62.0091275837512086 27.6644335859584807 28.6327538495249954
 57.7812306447046780 20.3414995914012344 28.6327538495249954
 53.5533335837512112 27.6644335859584807 28.6327538495249954
 50.7347637697312024 27.6644335859584807 28.6327538495249954
 47.9161939557112078 27.6644335859584807 28.6327538495249954
  4.2279390283835818 30.1053871743642461 28.6327538495249954
 19.7301997814501142 37.4283211689214923 28.6327538495249954
 39.4604000369828896 17.9004727736555189 28.6327538495249954
 33.8232179674301037 37.4283211689214923 28.6327538495249954
 43.6882970979363634 10.5775387790982709 28.6327538495249954
 47.9161937931690360 47.1922087518845075 28.6327538495249954
 39.4603997931690245 47.1922087518845075 28.6327538495249954
 25.3673816071890279 47.1922087518845075 28.6327538495249954
 19.7302419791490244 47.1922087518845075 28.6327538495249954
 63.4184549119563812 10.5775387790982709 28.6327538495249954
 11.2744479791490271 47.1922087518845075 28.6327538495249954
  5.6372237931690181 47.1922087518845075 28.6327538495249954
 40.8697272839163759 10.5775387790982709 28.6327538495249954
 -0.0000003928109814 47.1922087518845075 28.6327538495249954
 -11.2743642068309775 47.1922087518845075 28.6327538495249954
 69.0556790979363768 10.5775387790982709 28.6327538495249954
 -19.7301582068309784 47.1922087518845075 28.6327538495249954
 -2.8185699223818586 13.0185655968439828 28.6327538495249954
  2.8185697056581414 13.0185655968439828 28.6327538495249954
  5.6372240776181393 13.0185655968439828 28.6327538495249954
 40.8696847204966431 44.7512551634787386 28.6327538495249954
  8.4557938916381428 13.0185655968439828 28.6327538495249954
 -5.6371400208509774 47.1922087518845075 28.6327538495249954
 22.5488120776181340 13.0185655968439828 28.6327538495249954
 -9.8651215991092069 49.6332355696302230 28.6327538495249954
 -4.2278974131292042 49.6332355696302230 28.6327538495249954
 73.2835338392839901  8.1365851906925037 28.6327538495249954
 -19.7302005264368283 52.0741891580359919 28.6327538495249954
 78.9207580252639929  8.1365851906925037 28.6327538495249954
 -22.5487703404568300 52.0741891580359919 28.6327538495249954
 -1.4092427160836287 10.5775387790982709 28.6327538495249954
 52.1440907728507952 49.6332355696302230 28.6327538495249954
  1.4093270979363695 10.5775387790982709 28.6327538495249954
 49.3254364008908013 49.6332355696302230 28.6327538495249954
 -7.0464672271492059 49.6332355696302230 28.6327538495249954
  4.2278969119563712 10.5775387790982709 28.6327538495249954
 32.4138484008907994 49.6332355696302230 28.6327538495249954
 26.7767087728507853 49.6332355696302230 28.6327538495249954
 21.1394845868707826 49.6332355696302230 28.6327538495249954
 15.5022604008907816 49.6332355696302230 28.6327538495249954
  9.8651207728507995 49.6332355696302230 28.6327538495249954
 21.1394849119563659 10.5775387790982709 28.6327538495249954
  4.2278965868707896 49.6332355696302230 28.6327538495249954
 -1.4093275991092098 49.6332355696302230 28.6327538495249954
 12.6836909119563703 10.5775387790982709 28.6327538495249954
  0.0000418455231652 52.0741891580359919 28.6327538495249954
 21.1395269064766467 44.7512551634787386 28.6327538495249954
 12.6837329064766493 44.7512551634787386 28.6327538495249954
 57.7812729643105243 15.4595191852497500 28.6327538495249954
 63.4184971502905270 15.4595191852497500 28.6327538495249954
 66.2370669643105288 15.4595191852497500 28.6327538495249954
 21.1394846681424795 39.8692747573272612 28.6327538495249954
 15.5023450401024956 39.8692747573272612 28.6327538495249954
 -8.4557941489970982 17.9004727736555189 28.6327538495249954
 -5.6371397770370981 17.9004727736555189 28.6327538495249954
  5.6372240369829028 17.9004727736555189 28.6327538495249954
 46.5068666681425000 39.8692747573272612 28.6327538495249954
 -4.2278973318575099 39.8692747573272612 28.6327538495249954
 -18.3208309598975099 39.8692747573272612 28.6327538495249954
 62.0091697814501188 37.4283211689214923 28.6327538495249954
 59.1905999674301100 37.4283211689214923 28.6327538495249954
 28.1860362229629082 17.9004727736555189 28.6327538495249954
 50.7348059674301126 37.4283211689214923 28.6327538495249954
 47.9161515954701187 37.4283211689214923 28.6327538495249954
 39.4603575954701142 37.4283211689214923 28.6327538495249954
 36.6417877814501125 37.4283211689214923 28.6327538495249954
 -7.0464671458775081 39.8692747573272612 28.6327538495249954
 18.3208725345166314 44.7512551634787386 28.6327538495249954
 52.1440487783305286 15.4595191852497500 28.6327538495249954
 -22.5488125381557367 42.3103015750729767 28.6327538495249954
 25.3673818916381357 13.0185655968439828 28.6327538495249954
 28.1859517056581375 13.0185655968439828 28.6327538495249954
 33.8231758916381438 13.0185655968439828 28.6327538495249954
 45.0975397056581500 13.0185655968439828 28.6327538495249954
 67.6463518916381474 13.0185655968439828 28.6327538495249954
 -18.3208732795033562 44.7512551634787386 28.6327538495249954
 -23.9580974654833554 44.7512551634787386 28.6327538495249954
 36.6417454618442662 42.3103015750729767 28.6327538495249954
 54.9626606681424974 39.8692747573272612 28.6327538495249954
  9.8650787783305205 15.4595191852497500 28.6327538495249954
 11.2743634618442599 42.3103015750729767 28.6327538495249954
  5.6372238338042564 42.3103015750729767 28.6327538495249954
 26.7766667783305188 15.4595191852497500 28.6327538495249954
 29.5953211502905269 15.4595191852497500 28.6327538495249954
 -8.4557943521757366 42.3103015750729767 28.6327538495249954
 32.4138909643105251 15.4595191852497500 28.6327538495249954
 -16.9115883521757375 42.3103015750729767 28.6327538495249954
 -19.7301581661957393 42.3103015750729767 28.6327538495249954
 28.1859514618442688 42.3103015750729767 28.6327538495249954
 -19.7302004045298887 37.4283211689214923 28.6327538495249954
