 H  O 
 1.0000000000000000
    84.5579400000000021    0.0000000000000000    0.0000000000000000
   -42.2789706095346958   73.2293399455724767    0.0000000000000000
     0.0000000000000000    0.0000000000000000   46.9039550000000034
 H   O  
 311 154
Cartesian
 -0.0000000135450799  1.6273023922705114 28.1128704123049964
  4.2278543620817208 43.1239527712082307 28.1128704123049964
 -7.0465094519382783 43.1239527712082307 28.1128704123049964
 -12.6837336379182783 43.1239527712082307 28.1128704123049964
 -18.3208732659582765 43.1239527712082307 28.1128704123049964
 -21.1395276379182775 43.1239527712082307 28.1128704123049964
 59.1905576613693398 40.6829991828024689 28.1128704123049964
 53.5533334753893371 40.6829991828024689 28.1128704123049964
 50.7347636613693425 40.6829991828024689 28.1128704123049964
 47.9161092894093343 40.6829991828024689 28.1128704123049964
 45.0975394753893397 40.6829991828024689 28.1128704123049964
 42.2789696613693309 40.6829991828024689 28.1128704123049964
 33.8231756613693406 40.6829991828024689 28.1128704123049964
 25.3673816613693432 40.6829991828024689 28.1128704123049964
 22.5487272894093422 40.6829991828024689 28.1128704123049964
 19.7301574753893405 40.6829991828024689 28.1128704123049964
 16.9115876613693388 40.6829991828024689 28.1128704123049964
 14.0929332894093395 40.6829991828024689 28.1128704123049964
  5.6371392894093386 40.6829991828024689 28.1128704123049964
 -14.0930185246106596 40.6829991828024689 28.1128704123049964
  9.8650785480617262 43.1239527712082307 28.1128704123049964
 18.3208725480617254 43.1239527712082307 28.1128704123049964
 38.0510303620817112 43.1239527712082307 28.1128704123049964
 -22.5488125652458997 45.5649063596139996 28.1128704123049964
 -28.1859945128917460 50.4468867657654769 28.1128704123049964
 54.9626606004158731 48.0059331773597151 28.1128704123049964
 52.1440062284558650 48.0059331773597151 28.1128704123049964
 40.8696424144358730 48.0059331773597151 28.1128704123049964
 38.0510726004158641 48.0059331773597151 28.1128704123049964
 32.4138484144358685 48.0059331773597151 28.1128704123049964
 23.9580544144358711 48.0059331773597151 28.1128704123049964
  9.8650362284558710 48.0059331773597151 28.1128704123049964
  4.2278966004158747 48.0059331773597151 28.1128704123049964
 -16.9115883386306614 40.6829991828024689 28.1128704123049964
  1.4092422284558699 48.0059331773597151 28.1128704123049964
 -15.5023457715441282 48.0059331773597151 28.1128704123049964
 -23.9581397715441291 48.0059331773597151 28.1128704123049964
 -26.7767095855641273 48.0059331773597151 28.1128704123049964
 33.8231756207340979 45.5649063596139996 28.1128704123049964
 19.7301574347541049 45.5649063596139996 28.1128704123049964
 16.9115876207341032 45.5649063596139996 28.1128704123049964
 -2.8185701932858982 45.5649063596139996 28.1128704123049964
 -14.0930185652459006 45.5649063596139996 28.1128704123049964
 -16.9115883792659005 45.5649063596139996 28.1128704123049964
 -9.8651215855641290 48.0059331773597151 28.1128704123049964
 -22.5488125246106605 40.6829991828024689 28.1128704123049964
 57.7812304957075682 38.2419723650567462 28.1128704123049964
 46.5068666816875762 38.2419723650567462 28.1128704123049964
 -11.2744063909848098 35.8010187766509844 28.1128704123049964
 -14.0929762050048097 35.8010187766509844 28.1128704123049964
 57.7812305363428109 33.3600651882452155 28.1128704123049964
 52.1440063503628082 33.3600651882452155 28.1128704123049964
 46.5068667223228047 33.3600651882452155 28.1128704123049964
 40.8696425363428091 33.3600651882452155 28.1128704123049964
 18.3208303503628116 33.3600651882452155 28.1128704123049964
 12.6836907223228135 33.3600651882452155 28.1128704123049964
  7.0464665363428152 33.3600651882452155 28.1128704123049964
 -2.8186123909848098 35.8010187766509844 28.1128704123049964
  1.4092423503628120 33.3600651882452155 28.1128704123049964
 -9.8651214636571893 33.3600651882452155 28.1128704123049964
 -18.3209154636571903 33.3600651882452155 28.1128704123049964
 64.8277819286210502 30.9190383704995000 28.1128704123049964
 59.1905577426410403 30.9190383704995000 28.1128704123049964
 36.6417455566610357 30.9190383704995000 28.1128704123049964
 11.2743635566610401 30.9190383704995000 28.1128704123049964
  5.6372239286210437 30.9190383704995000 28.1128704123049964
 -0.0000002573589589 30.9190383704995000 28.1128704123049964
 -2.8185700713789608 30.9190383704995000 28.1128704123049964
 -1.4093274636571897 33.3600651882452155 28.1128704123049964
 -19.7302005128917450 50.4468867657654769 28.1128704123049964
  8.4557514230351885 35.8010187766509844 28.1128704123049964
 14.0929756090151947 35.8010187766509844 28.1128704123049964
 43.6882968676675674 38.2419723650567462 28.1128704123049964
 35.2325028676675771 38.2419723650567462 28.1128704123049964
 32.4138484957075690 38.2419723650567462 28.1128704123049964
 21.1394846816875770 38.2419723650567462 28.1128704123049964
 15.5022604957075725 38.2419723650567462 28.1128704123049964
  9.8651208676675761 38.2419723650567462 28.1128704123049964
  7.0464664957075716 38.2419723650567462 28.1128704123049964
  4.2278966816875769 38.2419723650567462 28.1128704123049964
  1.4093268676675752 38.2419723650567462 28.1128704123049964
 11.2744057949951930 35.8010187766509844 28.1128704123049964
 -1.4093275042924258 38.2419723650567462 28.1128704123049964
 -21.1394853183124276 38.2419723650567462 28.1128704123049964
 59.1905154230351869 35.8010187766509844 28.1128704123049964
 56.3719456090151922 35.8010187766509844 28.1128704123049964
 53.5533757949951976 35.8010187766509844 28.1128704123049964
 50.7347214230351895 35.8010187766509844 28.1128704123049964
 47.9161516090151949 35.8010187766509844 28.1128704123049964
 42.2789274230351850 35.8010187766509844 28.1128704123049964
 39.4603576090151904 35.8010187766509844 28.1128704123049964
 19.7301997949951904 35.8010187766509844 28.1128704123049964
 -7.0464671323324293 38.2419723650567462 28.1128704123049964
 -8.4557942573589582 30.9190383704995000 28.1128704123049964
 -11.2744065128917477 50.4468867657654769 28.1128704123049964
 -2.8186125128917427 50.4468867657654769 28.1128704123049964
 11.2744055511813173 65.0927547548799765 28.1128704123049964
  2.8186115511813119 65.0927547548799765 28.1128704123049964
 -11.2744066347986838 65.0927547548799765 28.1128704123049964
 -16.9116308207786865 65.0927547548799765 28.1128704123049964
 -28.1859946347986892 65.0927547548799765 28.1128704123049964
 -36.6417886347986865 65.0927547548799765 28.1128704123049964
 43.6882121065489244 62.6518011664742076 28.1128704123049964
 35.2324181065489270 62.6518011664742076 28.1128704123049964
 12.6836904785089395 62.6518011664742076 28.1128704123049964
  9.8650361065489385 62.6518011664742076 28.1128704123049964
 -1.4093277074710613 62.6518011664742076 28.1128704123049964
 -12.6836915214910633 62.6518011664742076 28.1128704123049964
 -15.5023458934510643 62.6518011664742076 28.1128704123049964
 -21.1394855214910677 62.6518011664742076 28.1128704123049964
 39.4603996848071645 60.2107743487284921 28.1128704123049964
 31.0046056848071565 60.2107743487284921 28.1128704123049964
 28.1859513128471555 60.2107743487284921 28.1128704123049964
 25.3673814988271609 60.2107743487284921 28.1128704123049964
 22.5488116848071662 60.2107743487284921 28.1128704123049964
 19.7301995511813146 65.0927547548799765 28.1128704123049964
 25.3673391792213039 65.0927547548799765 28.1128704123049964
 28.1859935511813049 65.0927547548799765 28.1128704123049964
 39.4603573652013111 65.0927547548799765 28.1128704123049964
 15.5023024902278443 72.4156887494372228 28.1128704123049964
  1.4092843042478451 72.4156887494372228 28.1128704123049964
 -12.6837338817321594 72.4156887494372228 28.1128704123049964
 -21.1395278817321568 72.4156887494372228 28.1128704123049964
 39.4603150455954648 69.9747351610314468 28.1128704123049964
 31.0045210455954674 69.9747351610314468 28.1128704123049964
 28.1859512315754728 69.9747351610314468 28.1128704123049964
  5.6371390455954664 69.9747351610314468 28.1128704123049964
 -0.0000005824445366 69.9747351610314468 28.1128704123049964
 19.7301573128471581 60.2107743487284921 28.1128704123049964
 -2.8186549544045376 69.9747351610314468 28.1128704123049964
 -8.4557945824445344 69.9747351610314468 28.1128704123049964
 -25.3673825824445345 69.9747351610314468 28.1128704123049964
 35.2325026238536978 67.5337083432857384 28.1128704123049964
 29.5952784378736951 67.5337083432857384 28.1128704123049964
 -1.4093277481063067 67.5337083432857384 28.1128704123049964
 -15.5022613761463042 67.5337083432857384 28.1128704123049964
 -18.3209157481063052 67.5337083432857384 28.1128704123049964
 -32.4138493761463025 67.5337083432857384 28.1128704123049964
 45.0975815511813138 65.0927547548799765 28.1128704123049964
 -5.6372247684245327 69.9747351610314468 28.1128704123049964
 16.9115874988271635 60.2107743487284921 28.1128704123049964
 14.0930176848071671 60.2107743487284921 28.1128704123049964
 -8.4557945011728339 60.2107743487284921 28.1128704123049964
 -0.0000004605375943 55.3288671719169614 28.1128704123049964
 -2.8186548324975988 55.3288671719169614 28.1128704123049964
 -5.6372246465175939 55.3288671719169614 28.1128704123049964
 -8.4557944605375948 55.3288671719169614 28.1128704123049964
 -11.2744488324975958 55.3288671719169614 28.1128704123049964
 -19.7302428324975985 55.3288671719169614 28.1128704123049964
 -22.5488126465175966 55.3288671719169614 28.1128704123049964
 52.1440907457606357 52.8878403541712458 28.1128704123049964
 23.9580543738006249 52.8878403541712458 28.1128704123049964
  2.8185693534824074 55.3288671719169614 28.1128704123049964
 18.3209147457606356 52.8878403541712458 28.1128704123049964
 -23.9580552542393690 52.8878403541712458 28.1128704123049964
 -26.7767096261993700 52.8878403541712458 28.1128704123049964
 50.7347213011282463 50.4468867657654769 28.1128704123049964
 31.0045634871082498 50.4468867657654769 28.1128704123049964
 22.5487694871082525 50.4468867657654769 28.1128704123049964
 14.0929754871082551 50.4468867657654769 28.1128704123049964
  5.6371814871082586 50.4468867657654769 28.1128704123049964
  2.8186116730882564 50.4468867657654769 28.1128704123049964
 -0.0000426988717480 50.4468867657654769 28.1128704123049964
 -9.8651216261993682 52.8878403541712458 28.1128704123049964
 -8.4558366988717459 50.4468867657654769 28.1128704123049964
  5.6371391675024016 55.3288671719169614 28.1128704123049964
 19.7301573534824009 55.3288671719169614 28.1128704123049964
 -19.7301583151928384 60.2107743487284921 28.1128704123049964
 -25.3673825011728376 60.2107743487284921 28.1128704123049964
 -28.1859523151928357 60.2107743487284921 28.1128704123049964
 -31.0046066871528367 60.2107743487284921 28.1128704123049964
 -33.8231765011728385 60.2107743487284921 28.1128704123049964
 43.6882544261547849 57.7698207603227232 28.1128704123049964
 35.2324604261547876 57.7698207603227232 28.1128704123049964
 29.5952362401747777 57.7698207603227232 28.1128704123049964
 23.9580966121347885 57.7698207603227232 28.1128704123049964
 16.9115875394624062 55.3288671719169614 28.1128704123049964
 15.5023026121347893 57.7698207603227232 28.1128704123049964
 -26.7766673878652135 57.7698207603227232 28.1128704123049964
 -32.4138915738452127 57.7698207603227232 28.1128704123049964
 50.7347635394624064 55.3288671719169614 28.1128704123049964
 47.9161091675023982 55.3288671719169614 28.1128704123049964
 45.0975393534824036 55.3288671719169614 28.1128704123049964
 33.8231755394623974 55.3288671719169614 28.1128704123049964
 28.1859513534823982 55.3288671719169614 28.1128704123049964
 25.3673815394624036 55.3288671719169614 28.1128704123049964
 22.5487271675023955 55.3288671719169614 28.1128704123049964
 -15.5023035738452162 57.7698207603227232 28.1128704123049964
 54.9626184839886562 28.4780847820937346 28.1128704123049964
 36.6417877949951958 35.8010187766509844 28.1128704123049964
 35.2324607918756030 13.8322167929792403 28.1128704123049964
  7.0465089778555976 13.8322167929792403 28.1128704123049964
  1.4092847918756004 13.8322167929792403 28.1128704123049964
 -4.2279393941043990 13.8322167929792403 28.1128704123049964
 76.1021459051832210 11.3912632045734714 28.1128704123049964
 62.0091277192032209 11.3912632045734714 28.1128704123049964
 56.3719035332232110 11.3912632045734714 28.1128704123049964
 53.5533337192032164 11.3912632045734714 28.1128704123049964
 15.5023029778556030 13.8322167929792403 28.1128704123049964
 50.7347639051832218 11.3912632045734714 28.1128704123049964
 22.5487275332232180 11.3912632045734714 28.1128704123049964
 19.7301577192032234 11.3912632045734714 28.1128704123049964
 11.2743637192032189 11.3912632045734714 28.1128704123049964
  8.4557939051832172 11.3912632045734714 28.1128704123049964
  5.6371395332232206 11.3912632045734714 28.1128704123049964
  2.8185697192032206 11.3912632045734714 28.1128704123049964
 -0.0000000948167802 11.3912632045734714 28.1128704123049964
 45.0975397192032190 11.3912632045734714 28.1128704123049964
 21.1394426058955993 13.8322167929792403 28.1128704123049964
 23.9580969778556039 13.8322167929792403 28.1128704123049964
 26.7766667918756056 13.8322167929792403 28.1128704123049964
 40.8696426582497523 18.7141971991307194 28.1128704123049964
 18.3208304722697477 18.7141971991307194 28.1128704123049964
 12.6836908442297531 18.7141971991307194 28.1128704123049964
 -7.0465515277302488 18.7141971991307194 28.1128704123049964
 -9.8651213417502497 18.7141971991307194 28.1128704123049964
 73.2835760505279836 16.2731703813850075 28.1128704123049964
 67.6463518645479809 16.2731703813850075 28.1128704123049964
 50.7347638645479790 16.2731703813850075 28.1128704123049964
 33.8231758645479843 16.2731703813850075 28.1128704123049964
 25.3673818645479834 16.2731703813850075 28.1128704123049964
  5.6372240505279780 16.2731703813850075 28.1128704123049964
  2.8185696785679806 16.2731703813850075 28.1128704123049964
 -0.0000001354520196 16.2731703813850075 28.1128704123049964
 -2.8185699494720202 16.2731703813850075 28.1128704123049964
 71.8742066058955942 13.8322167929792403 28.1128704123049964
 49.3254789778556031 13.8322167929792403 28.1128704123049964
 52.1440486699686616 28.4780847820937346 28.1128704123049964
 -2.8186544667767790 11.3912632045734714 28.1128704123049964
 46.5068669255014484  8.9502363868277595 28.1128704123049964
 43.6882971114814538  8.9502363868277595 28.1128704123049964
 35.2325031114814493  8.9502363868277595 28.1128704123049964
 52.1440065941766875  4.0683292100162243 28.1128704123049964
 46.5068669661366982  4.0683292100162243 28.1128704123049964
 32.4138487801566981  4.0683292100162243 28.1128704123049964
 21.1394849661366919  4.0683292100162243 28.1128704123049964
 18.3208305941766909  4.0683292100162243 28.1128704123049964
 12.6836909661366875  4.0683292100162243 28.1128704123049964
  1.4092425941766900  4.0683292100162243 28.1128704123049964
 76.1021459864549144  1.6273023922705114 28.1128704123049964
 73.2835761724349197  1.6273023922705114 28.1128704123049964
 67.6463519864549170  1.6273023922705114 28.1128704123049964
 50.7347639864549222  1.6273023922705114 28.1128704123049964
 45.0975398004749266  1.6273023922705114 28.1128704123049964
 42.2789699864549249  1.6273023922705114 28.1128704123049964
 36.6417458004749221  1.6273023922705114 28.1128704123049964
 25.3673819864549230  1.6273023922705114 28.1128704123049964
 19.7301578004749203  1.6273023922705114 28.1128704123049964
 14.0930181724349168  1.6273023922705114 28.1128704123049964
 57.7812307801566902  4.0683292100162243 28.1128704123049964
 66.2370246582497515 18.7141971991307194 28.1128704123049964
 63.4184549661366859  4.0683292100162243 28.1128704123049964
  2.8186120388090696  6.5092827984219914 28.1128704123049964
 18.3209151114814510  8.9502363868277595 28.1128704123049964
 15.5022607395214518  8.9502363868277595 28.1128704123049964
 12.6836909255014501  8.9502363868277595 28.1128704123049964
  9.8651211114814483  8.9502363868277595 28.1128704123049964
  4.2278969255014500  8.9502363868277595 28.1128704123049964
 -1.4093272604785494  8.9502363868277595 28.1128704123049964
 -4.2278970744985491  8.9502363868277595 28.1128704123049964
 70.4649640388090717  6.5092827984219914 28.1128704123049964
 59.1905156668490591  6.5092827984219914 28.1128704123049964
 56.3719458528290644  6.5092827984219914 28.1128704123049964
 50.7347216668490617  6.5092827984219914 28.1128704123049964
 45.0975820388090725  6.5092827984219914 28.1128704123049964
 39.4603578528290697  6.5092827984219914 28.1128704123049964
 31.0045638528290759  6.5092827984219914 28.1128704123049964
 25.3673396668490696  6.5092827984219914 28.1128704123049964
 19.7302000388090732  6.5092827984219914 28.1128704123049964
 11.2744060388090670  6.5092827984219914 28.1128704123049964
 -0.0000423331509293  6.5092827984219914 28.1128704123049964
 69.0555944722697461 18.7141971991307194 28.1128704123049964
 40.8696844902278471 72.4156887494372228 28.1128704123049964
 -2.8186122690778692 21.1551507875364884 28.1128704123049964
 36.6417879169021319 21.1551507875364884 28.1128704123049964
 45.0975819169021293 21.1551507875364884 28.1128704123049964
 26.7766666699686624 28.4780847820937346 28.1128704123049964
 50.7347215449421185 21.1551507875364884 28.1128704123049964
 21.1394424839886597 28.4780847820937346 28.1128704123049964
 64.8277397309221328 21.1551507875364884 28.1128704123049964
 67.6463095449421274 21.1551507875364884 28.1128704123049964
  4.2278544839886631 28.4780847820937346 28.1128704123049964
 -8.4557942167237172 26.0371311936879657 28.1128704123049964
 70.4649639169021356 21.1551507875364884 28.1128704123049964
 -12.6836911964054888 23.5961043759422537 28.1128704123049964
 -1.4092851440513405 28.4780847820937346 28.1128704123049964
  1.4093269895745080 23.5961043759422537 28.1128704123049964
 32.4138908559486651 28.4780847820937346 28.1128704123049964
 12.6836908035945140 23.5961043759422537 28.1128704123049964
 53.5533335972962803 26.0371311936879657 28.1128704123049964
 29.5952788035945140 23.5961043759422537 28.1128704123049964
 35.2325029895745132 23.5961043759422537 28.1128704123049964
 38.0510728035945078 23.5961043759422537 28.1128704123049964
 42.2789697832762812 26.0371311936879657 28.1128704123049964
 33.8231757832762838 26.0371311936879657 28.1128704123049964
 52.1440909895745008 23.5961043759422537 28.1128704123049964
 54.9626608035945097 23.5961043759422537 28.1128704123049964
 63.4184548035945070 23.5961043759422537 28.1128704123049964
  8.4557937832762846 26.0371311936879657 28.1128704123049964
 66.2370246176145088 23.5961043759422537 28.1128704123049964
 71.8742488442297542 18.7141971991307194 28.1128704123049964
 69.0556789895745169 23.5961043759422537 28.1128704123049964
 21.1394848035945166 23.5961043759422537 28.1128704123049964
 31.0045637309221327 21.1551507875364884 28.1128704123049964
 -0.0000002167237204 26.0371311936879657 28.1128704123049964
  5.6371817309221299 21.1551507875364884 28.1128704123049964
 16.9115455449421290 21.1551507875364884 28.1128704123049964
 35.2324606699686598 28.4780847820937346 28.1128704123049964
 14.0929757309221344 21.1551507875364884 28.1128704123049964
 46.5068244839886518 28.4780847820937346 28.1128704123049964
 40.8696848559486625 28.4780847820937346 28.1128704123049964
 40.8696427666115980  5.6956316022867357 28.6327538495249954
 -39.4604007819696179 71.6020375533019688 28.6327538495249954
 35.2325031385716159  5.6956316022867357 28.6327538495249954
 43.6882966103086261 69.1610107355562462 28.6327538495249954
 43.6882544126097088 59.3971231525932382 28.6327538495249954
 33.8231757290959649 32.5463407627700150 28.6327538495249954
 -16.9115885147179164 61.8380767409990000 28.6327538495249954
 31.0046059150759525 32.5463407627700150 28.6327538495249954
 25.3673817290959498 32.5463407627700150 28.6327538495249954
 46.5068667900494361 25.2234067682127652 28.6327538495249954
  8.4557934852820722 61.8380767409990000 28.6327538495249954
 67.6463517697312113 27.6644335859584807 28.6327538495249954
 -33.8231765959896151 71.6020375533019688 28.6327538495249954
 31.0045633516562411 66.7200571471504844 28.6327538495249954
 -16.9115885959896168 71.6020375533019688 28.6327538495249954
  4.2278967087777302 34.9873675805157234 28.6327538495249954
 19.7301572180303850 71.6020375533019688 28.6327538495249954
 -1.4093274772022688 34.9873675805157234 28.6327538495249954
  4.2278967900494315 25.2234067682127652 28.6327538495249954
 77.5114731385716169  5.6956316022867357 28.6327538495249954
 71.8742489525916284  5.6956316022867357 28.6327538495249954
 -4.2278552154303037 59.3971231525932382 28.6327538495249954
  7.0464667666116103  5.6956316022867357 28.6327538495249954
  1.4092844126096999 59.3971231525932382 28.6327538495249954
  4.2279392721974602  0.8136511961352557 28.6327538495249954
 11.2743632180303894 71.6020375533019688 28.6327538495249954
  7.0465090862174584  0.8136511961352557 28.6327538495249954
 12.6836907900494289 25.2234067682127652 28.6327538495249954
  9.8650789002374601  0.8136511961352557 28.6327538495249954
 18.3209149760294281 25.2234067682127652 28.6327538495249954
 23.9581391620094379 25.2234067682127652 28.6327538495249954
  4.2279387845697078 59.3971231525932382 28.6327538495249954
 59.1905577697312140 27.6644335859584807 28.6327538495249954
 31.0046056712620839 61.8380767409990000 28.6327538495249954
 60.5998429002374621  0.8136511961352557 28.6327538495249954
 16.9115877697311987 27.6644335859584807 28.6327538495249954
 29.5952784649638616 64.2791035587447084 28.6327538495249954
 16.9115879729098388  3.2546047845410229 28.6327538495249954
 -23.9580553896913813 69.1610107355562462 28.6327538495249954
 38.0511150283835775 30.1053871743642461 28.6327538495249954
 57.7812730862174604  0.8136511961352557 28.6327538495249954
  1.4092846564235810 30.1053871743642461 28.6327538495249954
 15.5023028424035783 30.1053871743642461 28.6327538495249954
 -29.5952795756713840 69.1610107355562462 28.6327538495249954
 12.6837330283835765 30.1053871743642461 28.6327538495249954
 -35.2324192037113804 69.1610107355562462 28.6327538495249954
  8.4558357236162376 66.7200571471504844 28.6327538495249954
 14.0929753516562410 66.7200571471504844 28.6327538495249954
 39.4603573516562420 66.7200571471504844 28.6327538495249954
 -14.0929764623637634 66.7200571471504844 28.6327538495249954
 32.4138910862174541  0.8136511961352557 28.6327538495249954
 22.5488121588898416  3.2546047845410229 28.6327538495249954
 36.6417455837512094 27.6644335859584807 28.6327538495249954
 60.5998849760294434 25.2234067682127652 28.6327538495249954
 78.9208003448698463  3.2546047845410229 28.6327538495249954
 23.9581387962886225 69.1610107355562462 28.6327538495249954
 18.3209146103086198 69.1610107355562462 28.6327538495249954
 -11.2743640442888005 27.6644335859584807 28.6327538495249954
 -32.4138493490561430 64.2791035587447084 28.6327538495249954
 28.1860363448698337  3.2546047845410229 28.6327538495249954
 -5.6372244162487979 27.6644335859584807 28.6327538495249954
 15.5023447962886092 69.1610107355562462 28.6327538495249954
 47.9161941588898301  3.2546047845410229 28.6327538495249954
 -7.0464673490561447 64.2791035587447084 28.6327538495249954
 -4.2278975350361501 64.2791035587447084 28.6327538495249954
 -14.0929338989440378 32.5463407627700150 28.6327538495249954
 38.0511152721974639  0.8136511961352557 28.6327538495249954
 -26.7767097210161431 64.2791035587447084 28.6327538495249954
  4.2278964649638544 64.2791035587447084 28.6327538495249954
 22.5488115899903860 71.6020375533019688 28.6327538495249954
 39.4603997118973240 56.9561695641874692 28.6327538495249954
 63.4184971502905270 15.4595191852497500 28.6327538495249954
 43.6882545345166520 44.7512551634787386 28.6327538495249954
 49.3254787204966547 44.7512551634787386 28.6327538495249954
 54.9627029064766432 44.7512551634787386 28.6327538495249954
 57.7812727204966521 44.7512551634787386 28.6327538495249954
 57.7812729643105243 15.4595191852497500 28.6327538495249954
 43.6882547783305313 15.4595191852497500 28.6327538495249954
 40.8696849643105153 15.4595191852497500 28.6327538495249954
 -5.6371400208509774 47.1922087518845075 28.6327538495249954
 -0.0000003928109814 47.1922087518845075 28.6327538495249954
 29.5953211502905269 15.4595191852497500 28.6327538495249954
 15.5023029643105232 15.4595191852497500 28.6327538495249954
 28.1860359791490147 47.1922087518845075 28.6327538495249954
 12.6837331502905215 15.4595191852497500 28.6327538495249954
 -4.2278973318575099 39.8692747573272612 28.6327538495249954
 54.9626608306846691 20.3414995914012344 28.6327538495249954
 60.5998850166646719 20.3414995914012344 28.6327538495249954
 29.5953209064766369 44.7512551634787386 28.6327538495249954
 76.1021458916381448 13.0185655968439828 28.6327538495249954
 23.9580967204966342 44.7512551634787386 28.6327538495249954
 23.9580546447046672 20.3414995914012344 28.6327538495249954
 62.0092122229629013 17.9004727736555189 28.6327538495249954
 -19.7301581661957393 42.3103015750729767 28.6327538495249954
 56.3719880369828985 17.9004727736555189 28.6327538495249954
 45.0976242229628923 17.9004727736555189 28.6327538495249954
 -8.4557943521757366 42.3103015750729767 28.6327538495249954
  1.4093270166646681 20.3414995914012344 28.6327538495249954
 -2.8185701661957374 42.3103015750729767 28.6327538495249954
 39.4604000369828896 17.9004727736555189 28.6327538495249954
 28.1860362229629082 17.9004727736555189 28.6327538495249954
 22.5488120369828984 17.9004727736555189 28.6327538495249954
 25.3673816478242529 42.3103015750729767 28.6327538495249954
 28.1859514618442688 42.3103015750729767 28.6327538495249954
 39.4603998338042672 42.3103015750729767 28.6327538495249954
 53.5533334618442680 42.3103015750729767 28.6327538495249954
  7.0464666447046698 20.3414995914012344 28.6327538495249954
 11.2744482229629011 17.9004727736555189 28.6327538495249954
  9.8650785345166412 44.7512551634787386 28.6327538495249954
 18.3209148541224920 39.8692747573272612 28.6327538495249954
 -21.1394854131292078 49.6332355696302230 28.6327538495249954
 -18.3209155991092061 49.6332355696302230 28.6327538495249954
 67.6463518916381474 13.0185655968439828 28.6327538495249954
 -16.9115460325698876 37.4283211689214923 28.6327538495249954
 32.4139332839163785 10.5775387790982709 28.6327538495249954
 26.7767090979363651 10.5775387790982709 28.6327538495249954
 42.2790120893370442 22.7824531798069998 28.6327538495249954
  9.8651207322155532 54.5151427464417537 28.6327538495249954
 56.3719457173770593 22.7824531798069998 28.6327538495249954
 59.1906000893370532 22.7824531798069998 28.6327538495249954
 29.5952785462355585 54.5151427464417537 28.6327538495249954
  1.4093270979363695 10.5775387790982709 28.6327538495249954
 70.4649640252639955  8.1365851906925037 28.6327538495249954
 67.6463942112439867  8.1365851906925037 28.6327538495249954
 47.9161518392839980  8.1365851906925037 28.6327538495249954
 -19.7301582881026789 56.9561695641874692 28.6327538495249954
 26.7767088947577392 34.9873675805157234 28.6327538495249954
 11.2743633399373131 56.9561695641874692 28.6327538495249954
 23.9580545227977240 34.9873675805157234 28.6327538495249954
 15.5022605227977337 34.9873675805157234 28.6327538495249954
 -15.5022612677844460 54.5151427464417537 28.6327538495249954
 25.3674240893370566 22.7824531798069998 28.6327538495249954
 63.4184549119563812 10.5775387790982709 28.6327538495249954
 -29.5952794537644479 54.5151427464417537 28.6327538495249954
 47.9161940776181368 13.0185655968439828 28.6327538495249954
 39.4604000776181465 13.0185655968439828 28.6327538495249954
 69.0556790166646692 20.3414995914012344 28.6327538495249954
 28.1859517056581375 13.0185655968439828 28.6327538495249954
 18.3209147728507951 49.6332355696302230 28.6327538495249954
 26.7767087728507853 49.6332355696302230 28.6327538495249954
 31.0045635954701204 37.4283211689214923 28.6327538495249954
 43.6882967728507978 49.6332355696302230 28.6327538495249954
 -7.0464670239705693 25.2234067682127652 28.6327538495249954
 46.5068665868708067 49.6332355696302230 28.6327538495249954
 -5.6371820966429516 22.7824531798069998 28.6327538495249954
  2.8186116595431669 52.0741891580359919 28.6327538495249954
  8.4558358455231772 52.0741891580359919 28.6327538495249954
 14.0929754735631594 52.0741891580359919 28.6327538495249954
 22.5487697173770485 22.7824531798069998 28.6327538495249954
 36.6417876595431693 52.0741891580359919 28.6327538495249954
 42.2790118455231720 52.0741891580359919 28.6327538495249954
 66.2371092839163680 10.5775387790982709 28.6327538495249954
 16.9115878916381419 13.0185655968439828 28.6327538495249954
 47.9161939557112078 27.6644335859584807 28.6327538495249954
