 H  O 
 1.0000000000000000
    84.5579400000000021    0.0000000000000000    0.0000000000000000
   -42.2789706095346958   73.2293399455724767    0.0000000000000000
     0.0000000000000000    0.0000000000000000   46.9039550000000034
 H   O  
 217 261
Cartesian
 -0.0000000135450799  1.6273023922705114 28.1128704123049964
 53.5533334753893371 40.6829991828024689 28.1128704123049964
 39.4603152894093299 40.6829991828024689 28.1128704123049964
 -0.0000003386306579 40.6829991828024689 28.1128704123049964
 -22.5488125246106605 40.6829991828024689 28.1128704123049964
 46.5068666816875762 38.2419723650567462 28.1128704123049964
 38.0510726816875717 38.2419723650567462 28.1128704123049964
 -15.5023034519382783 43.1239527712082307 28.1128704123049964
 29.5952786816875744 38.2419723650567462 28.1128704123049964
 18.3209148676675753 38.2419723650567462 28.1128704123049964
  9.8651208676675761 38.2419723650567462 28.1128704123049964
  4.2278966816875769 38.2419723650567462 28.1128704123049964
  1.4093268676675752 38.2419723650567462 28.1128704123049964
 -4.2278973183124275 38.2419723650567462 28.1128704123049964
 -18.3209155042924259 38.2419723650567462 28.1128704123049964
 26.7767088676675797 38.2419723650567462 28.1128704123049964
 -9.8650792659582809 43.1239527712082307 28.1128704123049964
  4.2278543620817208 43.1239527712082307 28.1128704123049964
 18.3208725480617254 43.1239527712082307 28.1128704123049964
  1.4092422284558699 48.0059331773597151 28.1128704123049964
 -15.5023457715441282 48.0059331773597151 28.1128704123049964
 -18.3209155855641299 48.0059331773597151 28.1128704123049964
 -26.7767095855641273 48.0059331773597151 28.1128704123049964
 56.3719878067141025 45.5649063596139996 28.1128704123049964
 53.5533334347540944 45.5649063596139996 28.1128704123049964
 47.9161938067141051 45.5649063596139996 28.1128704123049964
 42.2789696207341024 45.5649063596139996 28.1128704123049964
 14.0930178067140996 45.5649063596139996 28.1128704123049964
 -2.8185701932858982 45.5649063596139996 28.1128704123049964
 -11.2743641932859031 45.5649063596139996 28.1128704123049964
 -22.5488125652458997 45.5649063596139996 28.1128704123049964
 49.3254787340417238 43.1239527712082307 28.1128704123049964
 35.2324605480617166 43.1239527712082307 28.1128704123049964
 26.7766665480617228 43.1239527712082307 28.1128704123049964
 53.5533757949951976 35.8010187766509844 28.1128704123049964
 50.7347214230351895 35.8010187766509844 28.1128704123049964
 31.0045636090151895 35.8010187766509844 28.1128704123049964
 25.3673394230351938 35.8010187766509844 28.1128704123049964
 40.8696848559486625 28.4780847820937346 28.1128704123049964
 29.5952364839886641 28.4780847820937346 28.1128704123049964
  1.4092846699686612 28.4780847820937346 28.1128704123049964
 -9.8650791440513395 28.4780847820937346 28.1128704123049964
 64.8276974113162794 26.0371311936879657 28.1128704123049964
 33.8231757832762838 26.0371311936879657 28.1128704123049964
 16.9115877832762855 26.0371311936879657 28.1128704123049964
 11.2743635972962863 26.0371311936879657 28.1128704123049964
  5.6371394113162827 26.0371311936879657 28.1128704123049964
  2.8185695972962814 26.0371311936879657 28.1128704123049964
 -2.8186545886837178 26.0371311936879657 28.1128704123049964
 -11.2744485886837182 26.0371311936879657 28.1128704123049964
 69.0556789895745169 23.5961043759422537 28.1128704123049964
 52.1440909895745008 23.5961043759422537 28.1128704123049964
 49.3254366176144998 23.5961043759422537 28.1128704123049964
 49.3254788559486528 28.4780847820937346 28.1128704123049964
  9.8650362284558710 48.0059331773597151 28.1128704123049964
 54.9626184839886562 28.4780847820937346 28.1128704123049964
 -2.8185700713789608 30.9190383704995000 28.1128704123049964
 14.0929756090151947 35.8010187766509844 28.1128704123049964
 -2.8186123909848098 35.8010187766509844 28.1128704123049964
 -14.0929762050048097 35.8010187766509844 28.1128704123049964
 -19.7302003909848089 35.8010187766509844 28.1128704123049964
 43.6882123503628037 33.3600651882452155 28.1128704123049964
 40.8696425363428091 33.3600651882452155 28.1128704123049964
 21.1394847223228126 33.3600651882452155 28.1128704123049964
  9.8650363503628089 33.3600651882452155 28.1128704123049964
 -7.0465516496371885 33.3600651882452155 28.1128704123049964
 62.0091275566610349 30.9190383704995000 28.1128704123049964
 36.6417455566610357 30.9190383704995000 28.1128704123049964
 33.8231757426410411 30.9190383704995000 28.1128704123049964
 25.3673817426410437 30.9190383704995000 28.1128704123049964
  5.6372239286210437 30.9190383704995000 28.1128704123049964
 -0.0000002573589589 30.9190383704995000 28.1128704123049964
 60.5998426699686590 28.4780847820937346 28.1128704123049964
 15.5022604144358738 48.0059331773597151 28.1128704123049964
 23.9580544144358711 48.0059331773597151 28.1128704123049964
 46.5068666004158757 48.0059331773597151 28.1128704123049964
 -23.9580553761463051 67.5337083432857384 28.1128704123049964
 42.2789271792213057 65.0927547548799765 28.1128704123049964
 39.4603573652013111 65.0927547548799765 28.1128704123049964
 33.8231331792213084 65.0927547548799765 28.1128704123049964
 22.5487693652013093 65.0927547548799765 28.1128704123049964
 14.0929753652013119 65.0927547548799765 28.1128704123049964
 11.2744055511813173 65.0927547548799765 28.1128704123049964
  5.6371813652013136 65.0927547548799765 28.1128704123049964
 -0.0000428207786890 65.0927547548799765 28.1128704123049964
 -2.8186126347986837 65.0927547548799765 28.1128704123049964
 -22.5487704488186900 65.0927547548799765 28.1128704123049964
 -28.1859946347986892 65.0927547548799765 28.1128704123049964
 -36.6417886347986865 65.0927547548799765 28.1128704123049964
 43.6882121065489244 62.6518011664742076 28.1128704123049964
 38.0510724785089351 62.6518011664742076 28.1128704123049964
 -18.3209157481063052 67.5337083432857384 28.1128704123049964
 15.5022602925289341 62.6518011664742076 28.1128704123049964
 -9.8651217481063078 67.5337083432857384 28.1128704123049964
  1.4093266238536943 67.5337083432857384 28.1128704123049964
 15.5023024902278443 72.4156887494372228 28.1128704123049964
  9.8650783042478416 72.4156887494372228 28.1128704123049964
 -7.0465096957521522 72.4156887494372228 28.1128704123049964
 -26.7766675097721567 72.4156887494372228 28.1128704123049964
 -40.8696856957521533 72.4156887494372228 28.1128704123049964
 39.4603150455954648 69.9747351610314468 28.1128704123049964
 28.1859512315754728 69.9747351610314468 28.1128704123049964
 22.5487270455954629 69.9747351610314468 28.1128704123049964
 19.7301572315754683 69.9747351610314468 28.1128704123049964
 -11.2744489544045354 69.9747351610314468 28.1128704123049964
 -22.5488127684245363 69.9747351610314468 28.1128704123049964
 -39.4604007684245346 69.9747351610314468 28.1128704123049964
 35.2325026238536978 67.5337083432857384 28.1128704123049964
 26.7767086238536862 67.5337083432857384 28.1128704123049964
  7.0464662518936976 67.5337083432857384 28.1128704123049964
 -1.4093277481063067 67.5337083432857384 28.1128704123049964
 32.4138486176145122 23.5961043759422537 28.1128704123049964
 -7.0465518934510678 62.6518011664742076 28.1128704123049964
 -29.5952795214910651 62.6518011664742076 28.1128704123049964
 -0.0000004605375943 55.3288671719169614 28.1128704123049964
 -2.8186548324975988 55.3288671719169614 28.1128704123049964
 -8.4557944605375948 55.3288671719169614 28.1128704123049964
 -28.1860368324975958 55.3288671719169614 28.1128704123049964
 12.6836905597806329 52.8878403541712458 28.1128704123049964
 -7.0464672542393672 52.8878403541712458 28.1128704123049964
 -15.5022612542393716 52.8878403541712458 28.1128704123049964
 -23.9580552542393690 52.8878403541712458 28.1128704123049964
 53.5533756730882544 50.4468867657654769 28.1128704123049964
 45.0975816730882570 50.4468867657654769 28.1128704123049964
 39.4603574871082543 50.4468867657654769 28.1128704123049964
 25.3673393011282471 50.4468867657654769 28.1128704123049964
  8.4557513011282524 50.4468867657654769 28.1128704123049964
 -19.7302005128917450 50.4468867657654769 28.1128704123049964
 -28.1859945128917460 50.4468867657654769 28.1128704123049964
  5.6371391675024016 55.3288671719169614 28.1128704123049964
 -15.5023458934510643 62.6518011664742076 28.1128704123049964
 14.0929331675024070 55.3288671719169614 28.1128704123049964
 33.8231755394623974 55.3288671719169614 28.1128704123049964
 -32.4139338934510661 62.6518011664742076 28.1128704123049964
 47.9161936848071619 60.2107743487284921 28.1128704123049964
 31.0046056848071565 60.2107743487284921 28.1128704123049964
 25.3673814988271609 60.2107743487284921 28.1128704123049964
 11.2743633128471661 60.2107743487284921 28.1128704123049964
 -2.8185703151928343 60.2107743487284921 28.1128704123049964
 -14.0930186871528367 60.2107743487284921 28.1128704123049964
 -25.3673825011728376 60.2107743487284921 28.1128704123049964
 -28.1859523151928357 60.2107743487284921 28.1128704123049964
 46.5068242401747796 57.7698207603227232 28.1128704123049964
 43.6882544261547849 57.7698207603227232 28.1128704123049964
 21.1394422401747804 57.7698207603227232 28.1128704123049964
 -4.2279397598252162 57.7698207603227232 28.1128704123049964
 -18.3208733878652161 57.7698207603227232 28.1128704123049964
 42.2789695394624090 55.3288671719169614 28.1128704123049964
 28.1859513534823982 55.3288671719169614 28.1128704123049964
 26.7767089895745123 23.5961043759422537 28.1128704123049964
 62.0091697949951950 35.8010187766509844 28.1128704123049964
 45.0975397192032190 11.3912632045734714 28.1128704123049964
 -2.8186544667767790 11.3912632045734714 28.1128704123049964
 -7.0465515277302488 18.7141971991307194 28.1128704123049964
 -1.4093273417502492 18.7141971991307194 28.1128704123049964
  1.4092424722697507 18.7141971991307194 28.1128704123049964
 -2.8186121471709296  6.5092827984219914 28.1128704123049964
 77.5113885941766796  4.0683292100162243 28.1128704123049964
  7.0464666582497495 18.7141971991307194 28.1128704123049964
 69.0555945941766822  4.0683292100162243 28.1128704123049964
 12.6836908442297531 18.7141971991307194 28.1128704123049964
 47.9161940505279844 16.2731703813850075 28.1128704123049964
 66.2370247801566876  4.0683292100162243 28.1128704123049964
 60.5998005941766849  4.0683292100162243 28.1128704123049964
 54.9626609661366956  4.0683292100162243 28.1128704123049964
 38.0510729661366938  4.0683292100162243 28.1128704123049964
 35.2324184722697566 18.7141971991307194 28.1128704123049964
 21.1394849661366919  4.0683292100162243 28.1128704123049964
 12.6836909661366875  4.0683292100162243 28.1128704123049964
  7.0464667801566900  4.0683292100162243 28.1128704123049964
 49.3254366582497497 18.7141971991307194 28.1128704123049964
  4.2278969661366892  4.0683292100162243 28.1128704123049964
 21.1394848442297523 18.7141971991307194 28.1128704123049964
 31.0046060505279790 16.2731703813850075 28.1128704123049964
 -2.8185699494720202 16.2731703813850075 28.1128704123049964
 66.2370669778556049 13.8322167929792403 28.1128704123049964
 69.0556791114814530  8.9502363868277595 28.1128704123049964
 57.7812307395214404  8.9502363868277595 28.1128704123049964
 23.9580546176145113 23.5961043759422537 28.1128704123049964
 35.2325031114814493  8.9502363868277595 28.1128704123049964
 50.7347639051832218 11.3912632045734714 28.1128704123049964
 26.7767091114814519  8.9502363868277595 28.1128704123049964
 21.1394849255014528  8.9502363868277595 28.1128704123049964
 15.5022607395214518  8.9502363868277595 28.1128704123049964
 -7.0465092081243990 13.8322167929792403 28.1128704123049964
 -4.2279393941043990 13.8322167929792403 28.1128704123049964
  1.4092847918756004 13.8322167929792403 28.1128704123049964
  4.2278969255014500  8.9502363868277595 28.1128704123049964
 23.9580969778556039 13.8322167929792403 28.1128704123049964
 73.2835338528290663  6.5092827984219914 28.1128704123049964
 35.2324607918756030 13.8322167929792403 28.1128704123049964
 38.0510306058956047 13.8322167929792403 28.1128704123049964
 64.8277398528290689  6.5092827984219914 28.1128704123049964
 40.8696849778556057 13.8322167929792403 28.1128704123049964
 45.0975820388090725  6.5092827984219914 28.1128704123049964
 42.2789276668490714  6.5092827984219914 28.1128704123049964
 60.5998427918756022 13.8322167929792403 28.1128704123049964
 54.9626608442297453 18.7141971991307194 28.1128704123049964
 63.4184548442297569 18.7141971991307194 28.1128704123049964
 73.2835760505279836 16.2731703813850075 28.1128704123049964
 77.5114731114814504  8.9502363868277595 28.1128704123049964
 42.2789275449421211 21.1551507875364884 28.1128704123049964
  9.8651209895745122 23.5961043759422537 28.1128704123049964
 62.0091278004749142  1.6273023922705114 28.1128704123049964
 67.6463095449421274 21.1551507875364884 28.1128704123049964
 19.7301578004749203  1.6273023922705114 28.1128704123049964
 53.5533759169021195 21.1551507875364884 28.1128704123049964
 50.7347215449421185 21.1551507875364884 28.1128704123049964
 25.3673395449421299 21.1551507875364884 28.1128704123049964
 14.0929757309221344 21.1551507875364884 28.1128704123049964
 39.4603577309221265 21.1551507875364884 28.1128704123049964
 73.2835761724349197  1.6273023922705114 28.1128704123049964
 47.9161941724349276  1.6273023922705114 28.1128704123049964
  5.6372241724349186  1.6273023922705114 28.1128704123049964
 31.0046061724349222  1.6273023922705114 28.1128704123049964
 -11.2744062690778684 21.1551507875364884 28.1128704123049964
  5.6371817309221299 21.1551507875364884 28.1128704123049964
 -16.9115885959896168 71.6020375533019688 28.6327538495249954
 18.3208729002374611  0.8136511961352557 28.6327538495249954
 -22.5488126600626764 56.9561695641874692 28.6327538495249954
 11.2744060252639908  8.1365851906925037 28.6327538495249954
 -16.9115884740826736 56.9561695641874692 28.6327538495249954
 -14.0930186600626755 56.9561695641874692 28.6327538495249954
 -5.6372246600626781 56.9561695641874692 28.6327538495249954
 -36.6417464100096169 71.6020375533019688 28.6327538495249954
 46.5068669525916008  5.6956316022867357 28.6327538495249954
 31.0046057118973302 56.9561695641874692 28.6327538495249954
 39.4603997118973240 56.9561695641874692 28.6327538495249954
 71.8742489525916284  5.6956316022867357 28.6327538495249954
 -11.2743644100096230 71.6020375533019688 28.6327538495249954
 23.9580970862174638  0.8136511961352557 28.6327538495249954
 -9.8650794014102949 59.3971231525932382 28.6327538495249954
 26.7766669002374584  0.8136511961352557 28.6327538495249954
 -29.5952372154302985 59.3971231525932382 28.6327538495249954
 63.4184549525916097  5.6956316022867357 28.6327538495249954
 -15.5023035873902977 59.3971231525932382 28.6327538495249954
 23.9581387962886225 69.1610107355562462 28.6327538495249954
 43.6882966103086261 69.1610107355562462 28.6327538495249954
 -8.4557945959896212 71.6020375533019688 28.6327538495249954
 49.3255209181955507 54.5151427464417537 28.6327538495249954
 -19.7302005264368283 52.0741891580359919 28.6327538495249954
 -11.2744065264368292 52.0741891580359919 28.6327538495249954
 62.0091700252639910  8.1365851906925037 28.6327538495249954
  2.8186116595431669 52.0741891580359919 28.6327538495249954
  8.4558358455231772 52.0741891580359919 28.6327538495249954
  7.0465090862174584  0.8136511961352557 28.6327538495249954
 14.0929754735631594 52.0741891580359919 28.6327538495249954
 16.9116298455231728 52.0741891580359919 28.6327538495249954
 31.0045634735631737 52.0741891580359919 28.6327538495249954
 47.9161514735631755 52.0741891580359919 28.6327538495249954
 53.5533756595431782 52.0741891580359919 28.6327538495249954
 53.5533760252639937  8.1365851906925037 28.6327538495249954
 47.9161518392839980  8.1365851906925037 28.6327538495249954
 -4.2278974537644496 54.5151427464417537 28.6327538495249954
  5.6372235899903860 71.6020375533019688 28.6327538495249954
 42.2790122112439946  8.1365851906925037 28.6327538495249954
 39.4603578392839793  8.1365851906925037 28.6327538495249954
  2.8185692180303707 71.6020375533019688 28.6327538495249954
  9.8651207322155532 54.5151427464417537 28.6327538495249954
 31.0045638392839891  8.1365851906925037 28.6327538495249954
 18.3209147322155452 54.5151427464417537 28.6327538495249954
 23.9581389181955480 54.5151427464417537 28.6327538495249954
 -2.8185704100096114 71.6020375533019688 28.6327538495249954
  9.8650789002374601  0.8136511961352557 28.6327538495249954
 38.0510725462355595 54.5151427464417537 28.6327538495249954
 -1.4092854014103018 59.3971231525932382 28.6327538495249954
 46.5068665462355568 54.5151427464417537 28.6327538495249954
 52.1440907322155596 54.5151427464417537 28.6327538495249954
  1.4092844126096999 59.3971231525932382 28.6327538495249954
 80.3300852721974650  0.8136511961352557 28.6327538495249954
 40.8696427666115980  5.6956316022867357 28.6327538495249954
 -26.7767097210161431 64.2791035587447084 28.6327538495249954
 57.7812730862174604  0.8136511961352557 28.6327538495249954
 70.4650063448698489  3.2546047845410229 28.6327538495249954
 -21.1394855350361439 64.2791035587447084 28.6327538495249954
 -4.2278975350361501 64.2791035587447084 28.6327538495249954
 -21.1394855756713831 69.1610107355562462 28.6327538495249954
 -29.5952795756713840 69.1610107355562462 28.6327538495249954
  1.4093266509438596 64.2791035587447084 28.6327538495249954
 -35.2324192037113804 69.1610107355562462 28.6327538495249954
  4.2278964649638544 64.2791035587447084 28.6327538495249954
 -38.0510735756713814 69.1610107355562462 28.6327538495249954
 66.2370670862174649  0.8136511961352557 28.6327538495249954
 50.7347639729098461  3.2546047845410229 28.6327538495249954
 18.3209146509438554 64.2791035587447084 28.6327538495249954
 42.2789699729098274  3.2546047845410229 28.6327538495249954
 26.7767086509438528 64.2791035587447084 28.6327538495249954
 29.5952784649638616 64.2791035587447084 28.6327538495249954
 45.0975815376362448 66.7200571471504844 28.6327538495249954
 33.8231759729098371  3.2546047845410229 28.6327538495249954
 16.9115879729098388  3.2546047845410229 28.6327538495249954
 -14.0929764623637634 66.7200571471504844 28.6327538495249954
 69.0556369002374737  0.8136511961352557 28.6327538495249954
 -5.6371824623637705 66.7200571471504844 28.6327538495249954
 31.0045633516562411 66.7200571471504844 28.6327538495249954
  2.8186543448698407  3.2546047845410229 28.6327538495249954
 25.3674237236162377 66.7200571471504844 28.6327538495249954
  2.8186115376362340 66.7200571471504844 28.6327538495249954
 -7.0464673896913883 69.1610107355562462 28.6327538495249954
 -4.2278975756713866 69.1610107355562462 28.6327538495249954
 -1.4092432037113782 69.1610107355562462 28.6327538495249954
 47.9161936712620928 61.8380767409990000 28.6327538495249954
 12.6837327845697061 59.3971231525932382 28.6327538495249954
 21.1395267845696964 59.3971231525932382 28.6327538495249954
 22.5487693516562366 66.7200571471504844 28.6327538495249954
 26.7766664126097069 59.3971231525932382 28.6327538495249954
 29.5953207845697079 59.3971231525932382 28.6327538495249954
 29.5952789525916060  5.6956316022867357 28.6327538495249954
 35.2324604126097114 59.3971231525932382 28.6327538495249954
 43.6882544126097088 59.3971231525932382 28.6327538495249954
 23.9580547666116068  5.6956316022867357 28.6327538495249954
 21.1394849525916122  5.6956316022867357 28.6327538495249954
 18.3209151385716105  5.6956316022867357 28.6327538495249954
 18.3209146103086198 69.1610107355562462 28.6327538495249954
 -19.7301583287379145 61.8380767409990000 28.6327538495249954
  7.0465085985897025 59.3971231525932382 28.6327538495249954
 15.5022607666116095  5.6956316022867357 28.6327538495249954
 12.6836909525916113  5.6956316022867357 28.6327538495249954
 -0.0000005147179177 61.8380767409990000 28.6327538495249954
  8.4557934852820722 61.8380767409990000 28.6327538495249954
 14.0930176712620749 61.8380767409990000 28.6327538495249954
  9.8651211385716078  5.6956316022867357 28.6327538495249954
 12.6836904243286224 69.1610107355562462 28.6327538495249954
 19.7302418572420777 61.8380767409990000 28.6327538495249954
 28.1860358572420893 61.8380767409990000 28.6327538495249954
  7.0465507962886189 69.1610107355562462 28.6327538495249954
 36.6418298572420866 61.8380767409990000 28.6327538495249954
  7.0464667666116103  5.6956316022867357 28.6327538495249954
  1.4093271385716108  5.6956316022867357 28.6327538495249954
  4.2278964243286037 69.1610107355562462 28.6327538495249954
 -11.2743643287379136 61.8380767409990000 28.6327538495249954
 32.4138487666116077  5.6956316022867357 28.6327538495249954
 22.5487697173770485 22.7824531798069998 28.6327538495249954
 -1.4092427160836287 10.5775387790982709 28.6327538495249954
 39.4603999150759606 32.5463407627700150 28.6327538495249954
 28.1860361010559650 32.5463407627700150 28.6327538495249954
 16.9115877290959595 32.5463407627700150 28.6327538495249954
 42.2789698510029055 17.9004727736555189 28.6327538495249954
 45.0976242229628923 17.9004727736555189 28.6327538495249954
 -11.2743640849240396 32.5463407627700150 28.6327538495249954
 33.8231758510028868 17.9004727736555189 28.6327538495249954
 -16.9115882709040370 32.5463407627700150 28.6327538495249954
 63.4184970283835838 30.1053871743642461 28.6327538495249954
 43.6882546564235881 30.1053871743642461 28.6327538495249954
 59.1905578510029073 17.9004727736555189 28.6327538495249954
 18.3208726564235782 30.1053871743642461 28.6327538495249954
 12.6837330283835765 30.1053871743642461 28.6327538495249954
  9.8650786564235791 30.1053871743642461 28.6327538495249954
 66.2370668424035927 30.1053871743642461 28.6327538495249954
 67.6463518510029047 17.9004727736555189 28.6327538495249954
 25.3673818510029001 17.9004727736555189 28.6327538495249954
 56.3719879150759695 32.5463407627700150 28.6327538495249954
 -8.4557520325698885 37.4283211689214923 28.6327538495249954
 25.3673814040103807 71.6020375533019688 28.6327538495249954
 35.2325028947577295 34.9873675805157234 28.6327538495249954
 32.4138485227977426 34.9873675805157234 28.6327538495249954
  2.8186542229628988 17.9004727736555189 28.6327538495249954
 23.9580545227977240 34.9873675805157234 28.6327538495249954
 47.9161939150759579 32.5463407627700150 28.6327538495249954
  8.4557938510029000 17.9004727736555189 28.6327538495249954
  1.4093268947577322 34.9873675805157234 28.6327538495249954
 16.9115878510028992 17.9004727736555189 28.6327538495249954
 -18.3209154772022664 34.9873675805157234 28.6327538495249954
 64.8277819150759740 32.5463407627700150 28.6327538495249954
 62.0092121010559580 32.5463407627700150 28.6327538495249954
 59.1905577290959641 32.5463407627700150 28.6327538495249954
  7.0464665227977319 34.9873675805157234 28.6327538495249954
 70.4650062229628986 17.9004727736555189 28.6327538495249954
 -4.2278549716164209 30.1053871743642461 28.6327538495249954
 -12.6836489716164174 30.1053871743642461 28.6327538495249954
 21.1394847900494298 25.2234067682127652 28.6327538495249954
 52.1440910166646745 20.3414995914012344 28.6327538495249954
 66.2370246447046753 20.3414995914012344 28.6327538495249954
 -5.6371820966429516 22.7824531798069998 28.6327538495249954
 -9.8650368379905675 25.2234067682127652 28.6327538495249954
  0.0000420893370479 22.7824531798069998 28.6327538495249954
 38.0510727900494388 25.2234067682127652 28.6327538495249954
  8.4558360893370512 22.7824531798069998 28.6327538495249954
 62.0091699033570620 22.7824531798069998 28.6327538495249954
 56.3719457173770593 22.7824531798069998 28.6327538495249954
 14.0929757173770476 22.7824531798069998 28.6327538495249954
 47.9161517173770548 22.7824531798069998 28.6327538495249954
 42.2790120893370442 22.7824531798069998 28.6327538495249954
 36.6417879033570415 22.7824531798069998 28.6327538495249954
 64.8277397173770566 22.7824531798069998 28.6327538495249954
 43.6882969760294344 25.2234067682127652 28.6327538495249954
 46.5068667900494361 25.2234067682127652 28.6327538495249954
 52.1440909760294318 25.2234067682127652 28.6327538495249954
 23.9580546447046672 20.3414995914012344 28.6327538495249954
 33.8231757697311934 27.6644335859584807 28.6327538495249954
 31.0046059557112059 27.6644335859584807 28.6327538495249954
 26.7767090166646753 20.3414995914012344 28.6327538495249954
 25.3673817697312032 27.6644335859584807 28.6327538495249954
 22.5488119557112086 27.6644335859584807 28.6327538495249954
 19.7301575837512004 27.6644335859584807 28.6327538495249954
 16.9115877697311987 27.6644335859584807 28.6327538495249954
  5.6372239557112023 27.6644335859584807 28.6327538495249954
 29.5952788306846699 20.3414995914012344 28.6327538495249954
 -0.0000002302687971 27.6644335859584807 28.6327538495249954
 69.0556789760294407 25.2234067682127652 28.6327538495249954
 63.4184547900494380 25.2234067682127652 28.6327538495249954
 60.5998849760294434 25.2234067682127652 28.6327538495249954
 54.9626607900494406 25.2234067682127652 28.6327538495249954
 69.0556367783305234 15.4595191852497500 28.6327538495249954
 -25.3673401544768282 52.0741891580359919 28.6327538495249954
 52.1440487783305286 15.4595191852497500 28.6327538495249954
 22.5487695954701017 37.4283211689214923 28.6327538495249954
 25.3673816071890279 47.1922087518845075 28.6327538495249954
 19.7302419791490244 47.1922087518845075 28.6327538495249954
 54.9626609119563767 10.5775387790982709 28.6327538495249954
 57.7813152839163777 10.5775387790982709 28.6327538495249954
  5.6372237931690181 47.1922087518845075 28.6327538495249954
 60.5998850979363723 10.5775387790982709 28.6327538495249954
 28.1860359791490147 47.1922087518845075 28.6327538495249954
 -14.0929340208509810 47.1922087518845075 28.6327538495249954
 66.2371092839163680 10.5775387790982709 28.6327538495249954
 -22.5487280208509766 47.1922087518845075 28.6327538495249954
  5.6372240776181393 13.0185655968439828 28.6327538495249954
  8.4557938916381428 13.0185655968439828 28.6327538495249954
 38.0511149064766485 44.7512551634787386 28.6327538495249954
 14.0930180776181420 13.0185655968439828 28.6327538495249954
 63.4184549119563812 10.5775387790982709 28.6327538495249954
 19.7301577056581365 13.0185655968439828 28.6327538495249954
 33.8231756071890288 47.1922087518845075 28.6327538495249954
 42.2789696071890333 47.1922087518845075 28.6327538495249954
 43.6882967728507978 49.6332355696302230 28.6327538495249954
  7.0465512839163686 10.5775387790982709 28.6327538495249954
 35.2325027728508005 49.6332355696302230 28.6327538495249954
 29.5952789119563668 10.5775387790982709 28.6327538495249954
 21.1394845868707826 49.6332355696302230 28.6327538495249954
 12.6836905868707941 49.6332355696302230 28.6327538495249954
 36.6418299791490298 47.1922087518845075 28.6327538495249954
 32.4139332839163785 10.5775387790982709 28.6327538495249954
 -9.8651215991092069 49.6332355696302230 28.6327538495249954
 -15.5022612271492086 49.6332355696302230 28.6327538495249954
 38.0510729119563607 10.5775387790982709 28.6327538495249954
 40.8697272839163759 10.5775387790982709 28.6327538495249954
 53.5534179791490246 47.1922087518845075 28.6327538495249954
 50.7347636071890307 47.1922087518845075 28.6327538495249954
 -4.2278974131292042 49.6332355696302230 28.6327538495249954
 -7.0465094654833562 44.7512551634787386 28.6327538495249954
 28.1859517056581375 13.0185655968439828 28.6327538495249954
 45.0975394618442706 42.3103015750729767 28.6327538495249954
 15.5023450401024956 39.8692747573272612 28.6327538495249954
 76.1021458916381448 13.0185655968439828 28.6327538495249954
 -4.2278973318575099 39.8692747573272612 28.6327538495249954
 -7.0464671458775081 39.8692747573272612 28.6327538495249954
 -9.8650369598975125 39.8692747573272612 28.6327538495249954
 -12.6836913318575100 39.8692747573272612 28.6327538495249954
 21.1394846681424795 39.8692747573272612 28.6327538495249954
 56.3719455954701161 37.4283211689214923 28.6327538495249954
 47.9161515954701187 37.4283211689214923 28.6327538495249954
 -1.4092850356894804 15.4595191852497500 28.6327538495249954
 42.2790119674301152 37.4283211689214923 28.6327538495249954
  9.8650787783305205 15.4595191852497500 28.6327538495249954
 33.8232179674301037 37.4283211689214923 28.6327538495249954
 26.7766667783305188 15.4595191852497500 28.6327538495249954
 50.7348059674301126 37.4283211689214923 28.6327538495249954
 23.9581390401024947 39.8692747573272612 28.6327538495249954
 29.5952786681424982 39.8692747573272612 28.6327538495249954
 32.4139330401024850 39.8692747573272612 28.6327538495249954
 39.4603998338042672 42.3103015750729767 28.6327538495249954
 36.6417454618442662 42.3103015750729767 28.6327538495249954
 31.0046058338042556 42.3103015750729767 28.6327538495249954
 22.5488118338042653 42.3103015750729767 28.6327538495249954
 42.2789698916381340 13.0185655968439828 28.6327538495249954
 11.2743634618442599 42.3103015750729767 28.6327538495249954
  8.4557936478242581 42.3103015750729767 28.6327538495249954
 56.3719880776181483 13.0185655968439828 28.6327538495249954
 -0.0000003521757358 42.3103015750729767 28.6327538495249954
 -5.6372245381557384 42.3103015750729767 28.6327538495249954
 -19.7301581661957393 42.3103015750729767 28.6327538495249954
 57.7813150401024913 39.8692747573272612 28.6327538495249954
 67.6463518916381474 13.0185655968439828 28.6327538495249954
 70.4649217056581421 13.0185655968439828 28.6327538495249954
 35.2325028541224938 39.8692747573272612 28.6327538495249954
 43.6882547783305313 15.4595191852497500 28.6327538495249954
 33.8231754040103922 71.6020375533019688 28.6327538495249954
