 H  O 
 1.0000000000000000
    84.5579400000000021    0.0000000000000000    0.0000000000000000
   -42.2789706095346958   73.2293399455724767    0.0000000000000000
     0.0000000000000000    0.0000000000000000   46.9039550000000034
 H   O  
 205 256
Cartesian
 -0.0000000135450799  1.6273023922705114 28.1128704123049964
  8.4557936613693432 40.6829991828024689 28.1128704123049964
 -2.8186547105906588 40.6829991828024689 28.1128704123049964
 -19.7302427105906588 40.6829991828024689 28.1128704123049964
 49.3254364957075708 38.2419723650567462 28.1128704123049964
 43.6882968676675674 38.2419723650567462 28.1128704123049964
 40.8696424957075664 38.2419723650567462 28.1128704123049964
 19.7301574753893405 40.6829991828024689 28.1128704123049964
 35.2325028676675771 38.2419723650567462 28.1128704123049964
 38.0510301182678390 72.4156887494372228 28.1128704123049964
 11.2744057949951930 35.8010187766509844 28.1128704123049964
  5.6371816090151947 35.8010187766509844 28.1128704123049964
 -0.0000425769648080 35.8010187766509844 28.1128704123049964
 -2.8186123909848098 35.8010187766509844 28.1128704123049964
 -8.4558365769648098 35.8010187766509844 28.1128704123049964
 12.6836906816875779 38.2419723650567462 28.1128704123049964
 -14.0929762050048097 35.8010187766509844 28.1128704123049964
 25.3673816613693432 40.6829991828024689 28.1128704123049964
 59.1905576613693398 40.6829991828024689 28.1128704123049964
 -12.6836913995841307 48.0059331773597151 28.1128704123049964
 -15.5023457715441282 48.0059331773597151 28.1128704123049964
 -26.7767095855641273 48.0059331773597151 28.1128704123049964
 39.4603998067140935 45.5649063596139996 28.1128704123049964
 33.8231756207340979 45.5649063596139996 28.1128704123049964
 28.1859514347540951 45.5649063596139996 28.1128704123049964
 28.1859514753893379 40.6829991828024689 28.1128704123049964
 22.5488118067141059 45.5649063596139996 28.1128704123049964
 -22.5488125652458997 45.5649063596139996 28.1128704123049964
 52.1440485480617184 43.1239527712082307 28.1128704123049964
 43.6882545480617210 43.1239527712082307 28.1128704123049964
 23.9580967340417281 43.1239527712082307 28.1128704123049964
 12.6836483620817209 43.1239527712082307 28.1128704123049964
 -12.6837336379182783 43.1239527712082307 28.1128704123049964
 -8.4557943792659014 45.5649063596139996 28.1128704123049964
 -9.8651215855641290 48.0059331773597151 28.1128704123049964
 -16.9116305769648072 35.8010187766509844 28.1128704123049964
 54.9626607223228163 33.3600651882452155 28.1128704123049964
 18.3208726699686650 28.4780847820937346 28.1128704123049964
  9.8650786699686659 28.4780847820937346 28.1128704123049964
 -4.2279395160113378 28.4780847820937346 28.1128704123049964
 67.6463517832762875 26.0371311936879657 28.1128704123049964
 50.7347637832762715 26.0371311936879657 28.1128704123049964
 19.7301575972962873 26.0371311936879657 28.1128704123049964
 26.7766666699686624 28.4780847820937346 28.1128704123049964
 11.2743635972962863 26.0371311936879657 28.1128704123049964
 63.4184548035945070 23.5961043759422537 28.1128704123049964
 54.9626608035945097 23.5961043759422537 28.1128704123049964
 43.6882969895745106 23.5961043759422537 28.1128704123049964
 35.2325029895745132 23.5961043759422537 28.1128704123049964
 32.4138486176145122 23.5961043759422537 28.1128704123049964
 26.7767089895745123 23.5961043759422537 28.1128704123049964
 69.0556789895745169 23.5961043759422537 28.1128704123049964
 63.4184547223228137 33.3600651882452155 28.1128704123049964
 35.2324606699686598 28.4780847820937346 28.1128704123049964
 49.3254788559486528 28.4780847820937346 28.1128704123049964
 49.3254365363428136 33.3600651882452155 28.1128704123049964
 46.5068667223228047 33.3600651882452155 28.1128704123049964
 38.0510727223228145 33.3600651882452155 28.1128704123049964
 23.9580545363428143 33.3600651882452155 28.1128704123049964
 15.5022605363428152 33.3600651882452155 28.1128704123049964
 59.1905577426410403 30.9190383704995000 28.1128704123049964
 40.8696848559486625 28.4780847820937346 28.1128704123049964
 47.9161939286210341 30.9190383704995000 28.1128704123049964
  2.8185695566610427 30.9190383704995000 28.1128704123049964
 -8.4557942573589582 30.9190383704995000 28.1128704123049964
 -11.2743640713789581 30.9190383704995000 28.1128704123049964
 66.2370668559486688 28.4780847820937346 28.1128704123049964
 60.5998426699686590 28.4780847820937346 28.1128704123049964
 54.9626184839886562 28.4780847820937346 28.1128704123049964
 22.5488119286210420 30.9190383704995000 28.1128704123049964
  7.0464666176145112 23.5961043759422537 28.1128704123049964
 -1.4093275855641247 48.0059331773597151 28.1128704123049964
 15.5022604144358738 48.0059331773597151 28.1128704123049964
 39.4603573652013111 65.0927547548799765 28.1128704123049964
 22.5487693652013093 65.0927547548799765 28.1128704123049964
 -19.7302006347986882 65.0927547548799765 28.1128704123049964
 -25.3674248207786874 65.0927547548799765 28.1128704123049964
 35.2324181065489270 62.6518011664742076 28.1128704123049964
 32.4138482925289324 62.6518011664742076 28.1128704123049964
 -32.4138493761463025 67.5337083432857384 28.1128704123049964
 23.9580542925289315 62.6518011664742076 28.1128704123049964
  4.2278964785089341 62.6518011664742076 28.1128704123049964
  1.4092421065489333 62.6518011664742076 28.1128704123049964
 -4.2278975214910632 62.6518011664742076 28.1128704123049964
 -35.2325037074710679 62.6518011664742076 28.1128704123049964
 39.4603996848071645 60.2107743487284921 28.1128704123049964
 31.0046056848071565 60.2107743487284921 28.1128704123049964
 15.5022602925289341 62.6518011664742076 28.1128704123049964
 16.9115874988271635 60.2107743487284921 28.1128704123049964
 -21.1394855621263069 67.5337083432857384 28.1128704123049964
 -7.0464673761463033 67.5337083432857384 28.1128704123049964
 32.4138904902278497 72.4156887494372228 28.1128704123049964
 23.9580964902278346 72.4156887494372228 28.1128704123049964
 -9.8650795097721549 72.4156887494372228 28.1128704123049964
 -18.3208735097721558 72.4156887494372228 28.1128704123049964
 -29.5953218817321577 72.4156887494372228 28.1128704123049964
 28.1859512315754728 69.9747351610314468 28.1128704123049964
 -12.6836915621263024 67.5337083432857384 28.1128704123049964
 22.5487270455954629 69.9747351610314468 28.1128704123049964
 -0.0000005824445366 69.9747351610314468 28.1128704123049964
 -16.9115885824445336 69.9747351610314468 28.1128704123049964
 43.6882966238536952 67.5337083432857384 28.1128704123049964
 32.4138482518936897 67.5337083432857384 28.1128704123049964
 26.7767086238536862 67.5337083432857384 28.1128704123049964
  1.4093266238536943 67.5337083432857384 28.1128704123049964
 14.0929330455954638 69.9747351610314468 28.1128704123049964
  4.2278966004158747 48.0059331773597151 28.1128704123049964
 -16.9115885011728366 60.2107743487284921 28.1128704123049964
 -25.3673825011728376 60.2107743487284921 28.1128704123049964
 -28.1860368324975958 55.3288671719169614 28.1128704123049964
 26.7767087457606330 52.8878403541712458 28.1128704123049964
  1.4093267457606342 52.8878403541712458 28.1128704123049964
 47.9161514871082517 50.4468867657654769 28.1128704123049964
 31.0045634871082498 50.4468867657654769 28.1128704123049964
 22.5487694871082525 50.4468867657654769 28.1128704123049964
 -22.5488126465175966 55.3288671719169614 28.1128704123049964
 14.0929754871082551 50.4468867657654769 28.1128704123049964
 -19.7302005128917450 50.4468867657654769 28.1128704123049964
 -28.1859945128917460 50.4468867657654769 28.1128704123049964
 54.9626606004158731 48.0059331773597151 28.1128704123049964
 46.5068666004158757 48.0059331773597151 28.1128704123049964
 38.0510726004158641 48.0059331773597151 28.1128704123049964
 23.9580544144358711 48.0059331773597151 28.1128704123049964
 11.2744056730882534 50.4468867657654769 28.1128704123049964
 -22.5488126871528358 60.2107743487284921 28.1128704123049964
 -14.0930186465175975 55.3288671719169614 28.1128704123049964
 -8.4557944605375948 55.3288671719169614 28.1128704123049964
 -31.0046066871528367 60.2107743487284921 28.1128704123049964
 35.2324604261547876 57.7698207603227232 28.1128704123049964
 29.5952362401747777 57.7698207603227232 28.1128704123049964
 50.7347635394624064 55.3288671719169614 28.1128704123049964
 47.9161091675023982 55.3288671719169614 28.1128704123049964
 42.2789695394624090 55.3288671719169614 28.1128704123049964
 -11.2744488324975958 55.3288671719169614 28.1128704123049964
 36.6417453534824062 55.3288671719169614 28.1128704123049964
 22.5487271675023955 55.3288671719169614 28.1128704123049964
 19.7301573534824009 55.3288671719169614 28.1128704123049964
 14.0929331675024070 55.3288671719169614 28.1128704123049964
  5.6371391675024016 55.3288671719169614 28.1128704123049964
 -0.0000004605375943 55.3288671719169614 28.1128704123049964
 -5.6372246465175939 55.3288671719169614 28.1128704123049964
 31.0045211675023928 55.3288671719169614 28.1128704123049964
 -1.4093273823854895 23.5961043759422537 28.1128704123049964
 56.3719456090151922 35.8010187766509844 28.1128704123049964
  8.4557939051832172 11.3912632045734714 28.1128704123049964
 19.7302000388090732  6.5092827984219914 28.1128704123049964
 57.7812729778555934 13.8322167929792403 28.1128704123049964
 16.9115456668490722  6.5092827984219914 28.1128704123049964
 11.2743636785679815 16.2731703813850075 28.1128704123049964
 16.9115878645479825 16.2731703813850075 28.1128704123049964
 -2.8186121471709296  6.5092827984219914 28.1128704123049964
 22.5488120505279817 16.2731703813850075 28.1128704123049964
 69.0555945941766822  4.0683292100162243 28.1128704123049964
 31.0046060505279790 16.2731703813850075 28.1128704123049964
 60.5998005941766849  4.0683292100162243 28.1128704123049964
 39.4604000505279870 16.2731703813850075 28.1128704123049964
 52.1440065941766875  4.0683292100162243 28.1128704123049964
 43.6882125941766972  4.0683292100162243 28.1128704123049964
 64.8277820505279863 16.2731703813850075 28.1128704123049964
 35.2324185941766927  4.0683292100162243 28.1128704123049964
 -7.0465515277302488 18.7141971991307194 28.1128704123049964
 29.5952789661366928  4.0683292100162243 28.1128704123049964
 23.9580547801566937  4.0683292100162243 28.1128704123049964
  4.2278968442297478 18.7141971991307194 28.1128704123049964
 28.1859940388090742  6.5092827984219914 28.1128704123049964
 21.1394849661366919  4.0683292100162243 28.1128704123049964
 15.5023029778556030 13.8322167929792403 28.1128704123049964
 45.0975820388090725  6.5092827984219914 28.1128704123049964
 60.5998851114814414  8.9502363868277595 28.1128704123049964
 54.9626609255014458  8.9502363868277595 28.1128704123049964
 -7.0464670104254905 23.5961043759422537 28.1128704123049964
 11.2743637192032189 11.3912632045734714 28.1128704123049964
 16.9115879051832216 11.3912632045734714 28.1128704123049964
 28.1859517192032243 11.3912632045734714 28.1128704123049964
 31.0045215332232189 11.3912632045734714 28.1128704123049964
 33.8231759051832199 11.3912632045734714 28.1128704123049964
 36.6417457192032217 11.3912632045734714 28.1128704123049964
 39.4603155332232234 11.3912632045734714 28.1128704123049964
 50.7347639051832218 11.3912632045734714 28.1128704123049964
 64.8276975332232155 11.3912632045734714 28.1128704123049964
 23.9580547395214474  8.9502363868277595 28.1128704123049964
 15.5022607395214518  8.9502363868277595 28.1128704123049964
 -4.2278970744985491  8.9502363868277595 28.1128704123049964
 76.1021459051832210 11.3912632045734714 28.1128704123049964
 70.4649640388090717  6.5092827984219914 28.1128704123049964
 -4.2279393941043990 13.8322167929792403 28.1128704123049964
  1.4092847918756004 13.8322167929792403 28.1128704123049964
 36.6417880388090680  6.5092827984219914 28.1128704123049964
 15.5022607801566892  4.0683292100162243 28.1128704123049964
 80.3300429661366877  4.0683292100162243 28.1128704123049964
 78.9207158004749090  1.6273023922705114 28.1128704123049964
 39.4604001724349231  1.6273023922705114 28.1128704123049964
 11.2744059169021327 21.1551507875364884 28.1128704123049964
  8.4557939864549194  1.6273023922705114 28.1128704123049964
 45.0975819169021293 21.1551507875364884 28.1128704123049964
 63.4184548442297569 18.7141971991307194 28.1128704123049964
 71.8742488442297542 18.7141971991307194 28.1128704123049964
 -8.4558364550578684 21.1551507875364884 28.1128704123049964
 59.1905579864549196  1.6273023922705114 28.1128704123049964
 53.5533759169021195 21.1551507875364884 28.1128704123049964
 57.7812306582497541 18.7141971991307194 28.1128704123049964
 52.1440064722697443 18.7141971991307194 28.1128704123049964
 15.5022606582497549 18.7141971991307194 28.1128704123049964
 14.0929757309221344 21.1551507875364884 28.1128704123049964
 46.5068668442297550 18.7141971991307194 28.1128704123049964
  4.2278965462355513 54.5151427464417537 28.6327538495249954
 28.1859940252639873  8.1365851906925037 28.6327538495249954
 19.7302000252639935  8.1365851906925037 28.6327538495249954
 26.7766669002374584  0.8136511961352557 28.6327538495249954
 14.0929758392839890  8.1365851906925037 28.6327538495249954
  8.4558362112439873  8.1365851906925037 28.6327538495249954
 33.8232182112439972  8.1365851906925037 28.6327538495249954
 32.4139329181955560 54.5151427464417537 28.6327538495249954
 18.3208729002374611  0.8136511961352557 28.6327538495249954
 -14.0930187819696204 71.6020375533019688 28.6327538495249954
  2.8186115376362340 66.7200571471504844 28.6327538495249954
 -5.6372247819696195 71.6020375533019688 28.6327538495249954
 46.5068665462355568 54.5151427464417537 28.6327538495249954
 66.2370247666116256  5.6956316022867357 28.6327538495249954
 40.8697267962886173 69.1610107355562462 28.6327538495249954
 57.7812307666116141  5.6956316022867357 28.6327538495249954
 -19.7301582881026789 56.9561695641874692 28.6327538495249954
  2.8185693399373224 56.9561695641874692 28.6327538495249954
 25.3673815259173274 56.9561695641874692 28.6327538495249954
 43.6882549002374461  0.8136511961352557 28.6327538495249954
 23.9581387962886225 69.1610107355562462 28.6327538495249954
 40.8696427666115980  5.6956316022867357 28.6327538495249954
 -33.8231765959896151 71.6020375533019688 28.6327538495249954
 -39.4604007819696179 71.6020375533019688 28.6327538495249954
 50.7348062112439848  8.1365851906925037 28.6327538495249954
 39.4603578392839793  8.1365851906925037 28.6327538495249954
 -25.3673401544768282 52.0741891580359919 28.6327538495249954
 -22.5487703404568300 52.0741891580359919 28.6327538495249954
 -19.7302005264368283 52.0741891580359919 28.6327538495249954
 -16.9115461544768308 52.0741891580359919 28.6327538495249954
 -11.2744065264368292 52.0741891580359919 28.6327538495249954
 -8.4557521544768282 52.0741891580359919 28.6327538495249954
 -2.8186125264368322 52.0741891580359919 28.6327538495249954
 33.8231754040103922 71.6020375533019688 28.6327538495249954
  5.6371814735631682 52.0741891580359919 28.6327538495249954
 11.2744056595431719 52.0741891580359919 28.6327538495249954
 16.9116298455231728 52.0741891580359919 28.6327538495249954
 22.5487694735631763 52.0741891580359919 28.6327538495249954
 36.6417880252639918  8.1365851906925037 28.6327538495249954
 39.4603574735631781 52.0741891580359919 28.6327538495249954
 45.0975816595431809 52.0741891580359919 28.6327538495249954
  9.8650789002374601  0.8136511961352557 28.6327538495249954
 47.9161514735631755 52.0741891580359919 28.6327538495249954
 50.7348058455231694 52.0741891580359919 28.6327538495249954
 53.5533756595431782 52.0741891580359919 28.6327538495249954
 11.2743632180303894 71.6020375533019688 28.6327538495249954
  8.4557934040103735 71.6020375533019688 28.6327538495249954
 53.5533760252639937  8.1365851906925037 28.6327538495249954
  2.8185692180303707 71.6020375533019688 28.6327538495249954
 -0.0000005959896168 71.6020375533019688 28.6327538495249954
 54.9627032721974516  0.8136511961352557 28.6327538495249954
 42.2790122112439946  8.1365851906925037 28.6327538495249954
 28.1859512180303895 71.6020375533019688 28.6327538495249954
 -26.7766674014102968 59.3971231525932382 28.6327538495249954
 -12.6836492154302967 59.3971231525932382 28.6327538495249954
 32.4138487666116077  5.6956316022867357 28.6327538495249954
 28.1860358572420893 61.8380767409990000 28.6327538495249954
 56.3719881588898417  3.2546047845410229 28.6327538495249954
 25.3674237236162377 66.7200571471504844 28.6327538495249954
 45.0976238572420840 61.8380767409990000 28.6327538495249954
 -35.2325037210161440 64.2791035587447084 28.6327538495249954
 -32.4138493490561430 64.2791035587447084 28.6327538495249954
 -29.5952795350361448 64.2791035587447084 28.6327538495249954
 47.9161941588898301  3.2546047845410229 28.6327538495249954
 -18.3209157210161457 64.2791035587447084 28.6327538495249954
 22.5487693516562366 66.7200571471504844 28.6327538495249954
 -15.5022613490561429 64.2791035587447084 28.6327538495249954
 -9.8651217210161430 64.2791035587447084 28.6327538495249954
 11.2744483448698372  3.2546047845410229 28.6327538495249954
 18.3209146509438554 64.2791035587447084 28.6327538495249954
 26.7767086509438528 64.2791035587447084 28.6327538495249954
 29.5952784649638616 64.2791035587447084 28.6327538495249954
 35.2325026509438644 64.2791035587447084 28.6327538495249954
 33.8231759729098371  3.2546047845410229 28.6327538495249954
 43.6882966509438617 64.2791035587447084 28.6327538495249954
 46.5068664649638706 64.2791035587447084 28.6327538495249954
 -36.6417886483437698 66.7200571471504844 28.6327538495249954
 31.0046061588898354  3.2546047845410229 28.6327538495249954
 -16.9115462763837670 66.7200571471504844 28.6327538495249954
 11.2744055376362251 66.7200571471504844 28.6327538495249954
  8.4558357236162376 66.7200571471504844 28.6327538495249954
 -2.8186126483437688 66.7200571471504844 28.6327538495249954
 16.9116297236162261 66.7200571471504844 28.6327538495249954
 57.7812730862174604  0.8136511961352557 28.6327538495249954
 64.8277821588898462  3.2546047845410229 28.6327538495249954
 14.0930176712620749 61.8380767409990000 28.6327538495249954
  9.8651206103086064 69.1610107355562462 28.6327538495249954
 -21.1394432154303011 59.3971231525932382 28.6327538495249954
 -7.0465095873903012 59.3971231525932382 28.6327538495249954
 -1.4092854014103018 59.3971231525932382 28.6327538495249954
  1.4092844126096999 59.3971231525932382 28.6327538495249954
  4.2279387845697078 59.3971231525932382 28.6327538495249954
  7.0465085985897025 59.3971231525932382 28.6327538495249954
 12.6837327845697061 59.3971231525932382 28.6327538495249954
 -15.5022613896913821 69.1610107355562462 28.6327538495249954
 21.1395267845696964 59.3971231525932382 28.6327538495249954
 26.7766664126097069 59.3971231525932382 28.6327538495249954
  1.4093271385716108  5.6956316022867357 28.6327538495249954
  5.6372241588898389  3.2546047845410229 28.6327538495249954
 63.4184972721974631  0.8136511961352557 28.6327538495249954
 -21.1394855756713831 69.1610107355562462 28.6327538495249954
 43.6882544126097088 59.3971231525932382 28.6327538495249954
 49.3254785985897115 59.3971231525932382 28.6327538495249954
 81.7393701588898551  3.2546047845410229 28.6327538495249954
 -26.7766252037113830 69.1610107355562462 28.6327538495249954
 -33.8231765147179146 61.8380767409990000 28.6327538495249954
 -22.5487281427579163 61.8380767409990000 28.6327538495249954
 -19.7301583287379145 61.8380767409990000 28.6327538495249954
 -28.1859945264368292 52.0741891580359919 28.6327538495249954
 -0.0000005147179177 61.8380767409990000 28.6327538495249954
 73.2835761588898578  3.2546047845410229 28.6327538495249954
  5.6372236712620847 61.8380767409990000 28.6327538495249954
 35.2324604126097114 59.3971231525932382 28.6327538495249954
 52.1440907728507952 49.6332355696302230 28.6327538495249954
  2.8186119033570516 22.7824531798069998 28.6327538495249954
 35.2325027728508005 49.6332355696302230 28.6327538495249954
 18.3208726564235782 30.1053871743642461 28.6327538495249954
 21.1395270283835863 30.1053871743642461 28.6327538495249954
 43.6882546564235881 30.1053871743642461 28.6327538495249954
 -0.0000001489970986 17.9004727736555189 28.6327538495249954
 -2.8185699630171004 17.9004727736555189 28.6327538495249954
 -16.9115882709040370 32.5463407627700150 28.6327538495249954
 -5.6371398989440404 32.5463407627700150 28.6327538495249954
 -0.0000002709040391 32.5463407627700150 28.6327538495249954
  2.8186541010559618 32.5463407627700150 28.6327538495249954
  8.4557937290959586 32.5463407627700150 28.6327538495249954
 19.7302421010559677 32.5463407627700150 28.6327538495249954
 74.6928609643105261 15.4595191852497500 28.6327538495249954
 28.1860361010559650 32.5463407627700150 28.6327538495249954
 33.8231757290959649 32.5463407627700150 28.6327538495249954
 69.0556367783305234 15.4595191852497500 28.6327538495249954
 42.2789697290959623 32.5463407627700150 28.6327538495249954
 66.2370669643105288 15.4595191852497500 28.6327538495249954
 43.6882968947577410 34.9873675805157234 28.6327538495249954
 40.8696425227977400 34.9873675805157234 28.6327538495249954
 35.2324607783305126 15.4595191852497500 28.6327538495249954
  1.4093268947577322 34.9873675805157234 28.6327538495249954
 40.8696849643105153 15.4595191852497500 28.6327538495249954
 43.6882547783305313 15.4595191852497500 28.6327538495249954
 12.6837330283835765 30.1053871743642461 28.6327538495249954
 -12.6836912912222672 34.9873675805157234 28.6327538495249954
 54.9627031502905297 15.4595191852497500 28.6327538495249954
 57.7812729643105243 15.4595191852497500 28.6327538495249954
 59.1905577290959641 32.5463407627700150 28.6327538495249954
 60.5998427783305331 15.4595191852497500 28.6327538495249954
 53.5534181010559607 32.5463407627700150 28.6327538495249954
 50.7347637290959668 32.5463407627700150 28.6327538495249954
 52.1440487783305286 15.4595191852497500 28.6327538495249954
 14.0930180369829028 17.9004727736555189 28.6327538495249954
 50.7347638510029029 17.9004727736555189 28.6327538495249954
 62.0091275837512086 27.6644335859584807 28.6327538495249954
 29.5952788306846699 20.3414995914012344 28.6327538495249954
 15.5023451620094264 25.2234067682127652 28.6327538495249954
 32.4138486447046574 20.3414995914012344 28.6327538495249954
 38.0510728306846602 20.3414995914012344 28.6327538495249954
 40.8696426447046761 20.3414995914012344 28.6327538495249954
 59.1906000893370532 22.7824531798069998 28.6327538495249954
 21.1394847900494298 25.2234067682127652 28.6327538495249954
 43.6882970166646629 20.3414995914012344 28.6327538495249954
 47.9161517173770548 22.7824531798069998 28.6327538495249954
 49.3254366447046735 20.3414995914012344 28.6327538495249954
 66.2370246447046753 20.3414995914012344 28.6327538495249954
 22.5487697173770485 22.7824531798069998 28.6327538495249954
 16.9116300893370450 22.7824531798069998 28.6327538495249954
 -11.2744062826229499 22.7824531798069998 28.6327538495249954
 50.7348060893370558 22.7824531798069998 28.6327538495249954
 46.5068667087777357 34.9873675805157234 28.6327538495249954
 23.9581391620094379 25.2234067682127652 28.6327538495249954
 38.0510727900494388 25.2234067682127652 28.6327538495249954
 45.0975395837512067 27.6644335859584807 28.6327538495249954
 67.6463518510029047 17.9004727736555189 28.6327538495249954
 31.0046059557112059 27.6644335859584807 28.6327538495249954
 25.3673817697312032 27.6644335859584807 28.6327538495249954
 22.5488119557112086 27.6644335859584807 28.6327538495249954
 -4.2278971693153311 20.3414995914012344 28.6327538495249954
 32.4139331620094353 25.2234067682127652 28.6327538495249954
  9.8651210166646699 20.3414995914012344 28.6327538495249954
 -0.0000002302687971 27.6644335859584807 28.6327538495249954
 -8.4557942302688005 27.6644335859584807 28.6327538495249954
 -14.0930184162487979 27.6644335859584807 28.6327538495249954
 57.7813151620094345 25.2234067682127652 28.6327538495249954
 52.1440909760294318 25.2234067682127652 28.6327538495249954
 23.9580546447046672 20.3414995914012344 28.6327538495249954
  5.6372239557112023 27.6644335859584807 28.6327538495249954
 64.8277398392839928  8.1365851906925037 28.6327538495249954
 52.1440908947577384 34.9873675805157234 28.6327538495249954
  0.0000419674301133 37.4283211689214923 28.6327538495249954
 -9.8650792795033553 44.7512551634787386 28.6327538495249954
 71.8742489119563714 10.5775387790982709 28.6327538495249954
 -4.2278550935233552 44.7512551634787386 28.6327538495249954
  1.4092845345166412 44.7512551634787386 28.6327538495249954
  4.2279389064766386 44.7512551634787386 28.6327538495249954
 18.3208725345166314 44.7512551634787386 28.6327538495249954
 63.4184549119563812 10.5775387790982709 28.6327538495249954
 52.1440910979363750 10.5775387790982709 28.6327538495249954
 54.9627029064766432 44.7512551634787386 28.6327538495249954
 57.7812727204966521 44.7512551634787386 28.6327538495249954
 46.5068669119563793 10.5775387790982709 28.6327538495249954
 -25.3673823928109776 47.1922087518845075 28.6327538495249954
 -11.2743642068309775 47.1922087518845075 28.6327538495249954
  8.4557936071890190 47.1922087518845075 28.6327538495249954
 11.2744479791490271 47.1922087518845075 28.6327538495249954
 19.7302419791490244 47.1922087518845075 28.6327538495249954
 36.6418299791490298 47.1922087518845075 28.6327538495249954
 67.6463942112439867  8.1365851906925037 28.6327538495249954
 26.7767087728507853 49.6332355696302230 28.6327538495249954
 70.4649640252639955  8.1365851906925037 28.6327538495249954
 73.2835338392839901  8.1365851906925037 28.6327538495249954
 76.1021882112439840  8.1365851906925037 28.6327538495249954
 -9.8651215991092069 49.6332355696302230 28.6327538495249954
 -12.6836490935233588 44.7512551634787386 28.6327538495249954
 -12.6836914131292051 49.6332355696302230 28.6327538495249954
 -23.9580552271492060 49.6332355696302230 28.6327538495249954
 -1.4092427160836287 10.5775387790982709 28.6327538495249954
  4.2278969119563712 10.5775387790982709 28.6327538495249954
 50.7347636071890307 47.1922087518845075 28.6327538495249954
  7.0465512839163686 10.5775387790982709 28.6327538495249954
 42.2789696071890333 47.1922087518845075 28.6327538495249954
 78.9207580252639929  8.1365851906925037 28.6327538495249954
 -18.3208732795033562 44.7512551634787386 28.6327538495249954
 56.3719878338042619 42.3103015750729767 28.6327538495249954
 77.5114730979363742 10.5775387790982709 28.6327538495249954
 -7.0464671458775081 39.8692747573272612 28.6327538495249954
 -9.8650369598975125 39.8692747573272612 28.6327538495249954
 -15.5022611458775117 39.8692747573272612 28.6327538495249954
  4.2279391502905188 15.4595191852497500 28.6327538495249954
 62.0091697814501188 37.4283211689214923 28.6327538495249954
  7.0465089643105223 15.4595191852497500 28.6327538495249954
 62.0091277056581518 13.0185655968439828 28.6327538495249954
 39.4603575954701142 37.4283211689214923 28.6327538495249954
 31.0045635954701204 37.4283211689214923 28.6327538495249954
 22.5487695954701017 37.4283211689214923 28.6327538495249954
 16.9116299674301196 37.4283211689214923 28.6327538495249954
  8.4558359674301080 37.4283211689214923 28.6327538495249954
  5.6371815954701097 37.4283211689214923 28.6327538495249954
  2.8186117814501150 37.4283211689214923 28.6327538495249954
 18.3208727783305179 15.4595191852497500 28.6327538495249954
 26.7766667783305188 15.4595191852497500 28.6327538495249954
  4.2278966681424874 39.8692747573272612 28.6327538495249954
 15.5023450401024956 39.8692747573272612 28.6327538495249954
 47.9161938338042646 42.3103015750729767 28.6327538495249954
 39.4603998338042672 42.3103015750729767 28.6327538495249954
 36.6417454618442662 42.3103015750729767 28.6327538495249954
 31.0046058338042556 42.3103015750729767 28.6327538495249954
 28.1859514618442688 42.3103015750729767 28.6327538495249954
 22.5488118338042653 42.3103015750729767 28.6327538495249954
 12.6836906681424875 39.8692747573272612 28.6327538495249954
  5.6372240776181393 13.0185655968439828 28.6327538495249954
 14.0930180776181420 13.0185655968439828 28.6327538495249954
 54.9626606681424974 39.8692747573272612 28.6327538495249954
 38.0510726681424956 39.8692747573272612 28.6327538495249954
 22.5488120776181340 13.0185655968439828 28.6327538495249954
 33.8231758916381438 13.0185655968439828 28.6327538495249954
 53.5533337056581473 13.0185655968439828 28.6327538495249954
 11.2743634618442599 42.3103015750729767 28.6327538495249954
 39.4603995899903808 71.6020375533019688 28.6327538495249954
