 H  O 
 1.0000000000000000
    84.5579400000000021    0.0000000000000000    0.0000000000000000
   -42.2789706095346958   73.2293399455724767    0.0000000000000000
     0.0000000000000000    0.0000000000000000   46.9039550000000034
 H   O  
 205 281
Cartesian
  5.6372241724349186  1.6273023922705114 28.1128704123049964
 45.0975394753893397 40.6829991828024689 28.1128704123049964
 36.6417454753893352 40.6829991828024689 28.1128704123049964
 25.3673816613693432 40.6829991828024689 28.1128704123049964
 19.7301574753893405 40.6829991828024689 28.1128704123049964
 14.0929332894093395 40.6829991828024689 28.1128704123049964
 11.2743634753893449 40.6829991828024689 28.1128704123049964
 -2.8186547105906588 40.6829991828024689 28.1128704123049964
 -5.6372245246106605 40.6829991828024689 28.1128704123049964
 -11.2744487105906597 40.6829991828024689 28.1128704123049964
 -16.9115883386306614 40.6829991828024689 28.1128704123049964
 -19.7302427105906588 40.6829991828024689 28.1128704123049964
 40.8696424957075664 38.2419723650567462 28.1128704123049964
 32.4138484957075690 38.2419723650567462 28.1128704123049964
 21.1394846816875770 38.2419723650567462 28.1128704123049964
  7.0464664957075716 38.2419723650567462 28.1128704123049964
 53.5533334753893371 40.6829991828024689 28.1128704123049964
  1.4093268676675752 38.2419723650567462 28.1128704123049964
 59.1905576613693398 40.6829991828024689 28.1128704123049964
 18.3208725480617254 43.1239527712082307 28.1128704123049964
  1.4092422284558699 48.0059331773597151 28.1128704123049964
 -1.4093275855641247 48.0059331773597151 28.1128704123049964
 -15.5023457715441282 48.0059331773597151 28.1128704123049964
 -26.7767095855641273 48.0059331773597151 28.1128704123049964
 56.3719878067141025 45.5649063596139996 28.1128704123049964
 45.0975394347540970 45.5649063596139996 28.1128704123049964
 39.4603998067140935 45.5649063596139996 28.1128704123049964
 28.1859514347540951 45.5649063596139996 28.1128704123049964
 14.0930178067140996 45.5649063596139996 28.1128704123049964
 -14.0930185652459006 45.5649063596139996 28.1128704123049964
 49.3254787340417238 43.1239527712082307 28.1128704123049964
 43.6882545480617210 43.1239527712082307 28.1128704123049964
 32.4138907340417219 43.1239527712082307 28.1128704123049964
 26.7766665480617228 43.1239527712082307 28.1128704123049964
 23.9580967340417281 43.1239527712082307 28.1128704123049964
  4.2278543620817208 43.1239527712082307 28.1128704123049964
 21.1394846004158765 48.0059331773597151 28.1128704123049964
  4.2278541182678469 72.4156887494372228 28.1128704123049964
 59.1905154230351869 35.8010187766509844 28.1128704123049964
 29.5952364839886641 28.4780847820937346 28.1128704123049964
 23.9580968559486607 28.4780847820937346 28.1128704123049964
 18.3208726699686650 28.4780847820937346 28.1128704123049964
 -4.2279395160113378 28.4780847820937346 28.1128704123049964
 -12.6837335160113369 28.4780847820937346 28.1128704123049964
 59.1905577832762830 26.0371311936879657 28.1128704123049964
 33.8231757832762838 26.0371311936879657 28.1128704123049964
 19.7301575972962873 26.0371311936879657 28.1128704123049964
  2.8185695972962814 26.0371311936879657 28.1128704123049964
 66.2370246176145088 23.5961043759422537 28.1128704123049964
 52.1440909895745008 23.5961043759422537 28.1128704123049964
 49.3254366176144998 23.5961043759422537 28.1128704123049964
 43.6882969895745106 23.5961043759422537 28.1128704123049964
 38.0510728035945078 23.5961043759422537 28.1128704123049964
  9.8651209895745122 23.5961043759422537 28.1128704123049964
 35.2324606699686598 28.4780847820937346 28.1128704123049964
 62.0091697949951950 35.8010187766509844 28.1128704123049964
 40.8696848559486625 28.4780847820937346 28.1128704123049964
 63.4184124839886536 28.4780847820937346 28.1128704123049964
 50.7347214230351895 35.8010187766509844 28.1128704123049964
 45.0975817949951860 35.8010187766509844 28.1128704123049964
 39.4603576090151904 35.8010187766509844 28.1128704123049964
 11.2744057949951930 35.8010187766509844 28.1128704123049964
 -8.4558365769648098 35.8010187766509844 28.1128704123049964
 -16.9116305769648072 35.8010187766509844 28.1128704123049964
 32.4138485363428117 33.3600651882452155 28.1128704123049964
 29.5952787223228171 33.3600651882452155 28.1128704123049964
 23.9580545363428143 33.3600651882452155 28.1128704123049964
 -1.4093274636571897 33.3600651882452155 28.1128704123049964
 -7.0465516496371885 33.3600651882452155 28.1128704123049964
 -15.5023456496371885 33.3600651882452155 28.1128704123049964
 56.3719879286210457 30.9190383704995000 28.1128704123049964
  5.6372239286210437 30.9190383704995000 28.1128704123049964
 -2.8185700713789608 30.9190383704995000 28.1128704123049964
 49.3254788559486528 28.4780847820937346 28.1128704123049964
  4.2278968035945095 23.5961043759422537 28.1128704123049964
 26.7766242284558658 48.0059331773597151 28.1128704123049964
 40.8696424144358730 48.0059331773597151 28.1128704123049964
 16.9115451792213065 65.0927547548799765 28.1128704123049964
 11.2744055511813173 65.0927547548799765 28.1128704123049964
  8.4557511792213162 65.0927547548799765 28.1128704123049964
  2.8186115511813119 65.0927547548799765 28.1128704123049964
 -14.0929764488186855 65.0927547548799765 28.1128704123049964
 -22.5487704488186900 65.0927547548799765 28.1128704123049964
 -28.1859946347986892 65.0927547548799765 28.1128704123049964
 -31.0045644488186873 65.0927547548799765 28.1128704123049964
 -36.6417886347986865 65.0927547548799765 28.1128704123049964
 43.6882121065489244 62.6518011664742076 28.1128704123049964
 40.8696422925289298 62.6518011664742076 28.1128704123049964
 35.2324181065489270 62.6518011664742076 28.1128704123049964
 23.9580542925289315 62.6518011664742076 28.1128704123049964
 15.5022602925289341 62.6518011664742076 28.1128704123049964
 -4.2278975214910632 62.6518011664742076 28.1128704123049964
 28.1859935511813049 65.0927547548799765 28.1128704123049964
 -9.8651217074710615 62.6518011664742076 28.1128704123049964
 31.0045633652013137 65.0927547548799765 28.1128704123049964
 -39.4604007684245346 69.9747351610314468 28.1128704123049964
 -1.4092855097721566 72.4156887494372228 28.1128704123049964
 -4.2279398817321576 72.4156887494372228 28.1128704123049964
 -9.8650795097721549 72.4156887494372228 28.1128704123049964
 -18.3208735097721558 72.4156887494372228 28.1128704123049964
 -26.7766675097721567 72.4156887494372228 28.1128704123049964
 -32.4138916957521559 72.4156887494372228 28.1128704123049964
 -35.2324615097721576 72.4156887494372228 28.1128704123049964
 -40.8696856957521533 72.4156887494372228 28.1128704123049964
 39.4603150455954648 69.9747351610314468 28.1128704123049964
 36.6417452315754701 69.9747351610314468 28.1128704123049964
 19.7301572315754683 69.9747351610314468 28.1128704123049964
 14.0929330455954638 69.9747351610314468 28.1128704123049964
  8.4557934175554603 69.9747351610314468 28.1128704123049964
 -2.8186549544045376 69.9747351610314468 28.1128704123049964
 -25.3673825824445345 69.9747351610314468 28.1128704123049964
 -35.2325037481063035 67.5337083432857384 28.1128704123049964
 35.2324182284558631 48.0059331773597151 28.1128704123049964
 -35.2325037074710679 62.6518011664742076 28.1128704123049964
 28.1859513128471555 60.2107743487284921 28.1128704123049964
 46.5068665597806330 52.8878403541712458 28.1128704123049964
 43.6882967457606384 52.8878403541712458 28.1128704123049964
 38.0510725597806356 52.8878403541712458 28.1128704123049964
 35.2325027457606268 52.8878403541712458 28.1128704123049964
  9.8651207457606311 52.8878403541712458 28.1128704123049964
  4.2278965597806355 52.8878403541712458 28.1128704123049964
 -4.2278974402193654 52.8878403541712458 28.1128704123049964
 -18.3209156261993691 52.8878403541712458 28.1128704123049964
 -23.9580552542393690 52.8878403541712458 28.1128704123049964
 -26.7767096261993700 52.8878403541712458 28.1128704123049964
 39.4603574871082543 50.4468867657654769 28.1128704123049964
 22.5487694871082525 50.4468867657654769 28.1128704123049964
 -11.2744065128917477 50.4468867657654769 28.1128704123049964
 46.5068666004158757 48.0059331773597151 28.1128704123049964
 43.6882122284558676 48.0059331773597151 28.1128704123049964
 52.1440907457606357 52.8878403541712458 28.1128704123049964
 39.4603996848071645 60.2107743487284921 28.1128704123049964
 14.0929331675024070 55.3288671719169614 28.1128704123049964
 -26.7766673878652135 57.7698207603227232 28.1128704123049964
 22.5488116848071662 60.2107743487284921 28.1128704123049964
 11.2743633128471661 60.2107743487284921 28.1128704123049964
  5.6372236848071626 60.2107743487284921 28.1128704123049964
 -5.6372246871528393 60.2107743487284921 28.1128704123049964
 -14.0930186871528367 60.2107743487284921 28.1128704123049964
 -28.1859523151928357 60.2107743487284921 28.1128704123049964
 49.3254786121347877 57.7698207603227232 28.1128704123049964
 35.2324604261547876 57.7698207603227232 28.1128704123049964
 26.7766664261547831 57.7698207603227232 28.1128704123049964
 21.1394422401747804 57.7698207603227232 28.1128704123049964
 12.6836482401747883 57.7698207603227232 28.1128704123049964
 -1.4092853878652121 57.7698207603227232 28.1128704123049964
 -9.8650793878652134 57.7698207603227232 28.1128704123049964
 -12.6837337598252144 57.7698207603227232 28.1128704123049964
 -18.3208733878652161 57.7698207603227232 28.1128704123049964
 31.0045211675023928 55.3288671719169614 28.1128704123049964
 -1.4093273823854895 23.5961043759422537 28.1128704123049964
 23.9580964902278346 72.4156887494372228 28.1128704123049964
 26.7766667918756056 13.8322167929792403 28.1128704123049964
  1.4092424722697507 18.7141971991307194 28.1128704123049964
 63.4184549661366859  4.0683292100162243 28.1128704123049964
 60.5998005941766849  4.0683292100162243 28.1128704123049964
 52.1440487918755977 13.8322167929792403 28.1128704123049964
 54.9626609661366956  4.0683292100162243 28.1128704123049964
 43.6882125941766972  4.0683292100162243 28.1128704123049964
 60.5998427918756022 13.8322167929792403 28.1128704123049964
 35.2324185941766927  4.0683292100162243 28.1128704123049964
  7.0464667395214500  8.9502363868277595 28.1128704123049964
 26.7766245941766883  4.0683292100162243 28.1128704123049964
  9.8651211114814483  8.9502363868277595 28.1128704123049964
 21.1394849661366919  4.0683292100162243 28.1128704123049964
 43.6882124722697469 18.7141971991307194 28.1128704123049964
 12.6836909661366875  4.0683292100162243 28.1128704123049964
  1.4093271114814494  8.9502363868277595 28.1128704123049964
 70.4649216785679755 16.2731703813850075 28.1128704123049964
 69.0555945941766822  4.0683292100162243 28.1128704123049964
 62.0091276785679781 16.2731703813850075 28.1128704123049964
 28.1859940388090742  6.5092827984219914 28.1128704123049964
 33.8231758645479843 16.2731703813850075 28.1128704123049964
 50.7347216668490617  6.5092827984219914 28.1128704123049964
 36.6417456785679860 16.2731703813850075 28.1128704123049964
  8.4557516668490695  6.5092827984219914 28.1128704123049964
 11.2743636785679815 16.2731703813850075 28.1128704123049964
  5.6372240505279780 16.2731703813850075 28.1128704123049964
 42.2789698645479817 16.2731703813850075 28.1128704123049964
 80.3300429661366877  4.0683292100162243 28.1128704123049964
 77.5113885941766796  4.0683292100162243 28.1128704123049964
 47.9161940505279844 16.2731703813850075 28.1128704123049964
 -2.8186544667767790 11.3912632045734714 28.1128704123049964
 -5.6372243214320203 16.2731703813850075 28.1128704123049964
 74.6928187801566850  4.0683292100162243 28.1128704123049964
 53.5533336785679737 16.2731703813850075 28.1128704123049964
  7.0464667801566900  4.0683292100162243 28.1128704123049964
 63.4184548442297569 18.7141971991307194 28.1128704123049964
 19.7301576785679771 16.2731703813850075 28.1128704123049964
 36.6417458004749221  1.6273023922705114 28.1128704123049964
 22.5487697309221353 21.1551507875364884 28.1128704123049964
 53.5533337192032164 11.3912632045734714 28.1128704123049964
 46.5068669255014484  8.9502363868277595 28.1128704123049964
  8.4557515449421317 21.1551507875364884 28.1128704123049964
 33.8231335449421309 21.1551507875364884 28.1128704123049964
 39.4603155332232234 11.3912632045734714 28.1128704123049964
 57.7812307395214404  8.9502363868277595 28.1128704123049964
 81.7393701724349171  1.6273023922705114 28.1128704123049964
 76.1021459051832210 11.3912632045734714 28.1128704123049964
 31.0045215332232189 11.3912632045734714 28.1128704123049964
 16.9115879051832216 11.3912632045734714 28.1128704123049964
 62.0091278004749142  1.6273023922705114 28.1128704123049964
 -9.8651213823854889 23.5961043759422537 28.1128704123049964
 56.3719457309221283 21.1551507875364884 28.1128704123049964
 47.9161095332232136 11.3912632045734714 28.1128704123049964
 63.4184549525916097  5.6956316022867357 28.6327538495249954
 31.0046057118973302 56.9561695641874692 28.6327538495249954
 22.5488117118973186 56.9561695641874692 28.6327538495249954
 66.2370247666116256  5.6956316022867357 28.6327538495249954
 49.3254364008908013 49.6332355696302230 28.6327538495249954
 43.6882967728507978 49.6332355696302230 28.6327538495249954
 33.8232178455231747 52.0741891580359919 28.6327538495249954
 54.9626609525916123  5.6956316022867357 28.6327538495249954
 38.0510725868707951 49.6332355696302230 28.6327538495249954
 16.9115875259173158 56.9561695641874692 28.6327538495249954
 39.4603997118973240 56.9561695641874692 28.6327538495249954
 78.9207580252639929  8.1365851906925037 28.6327538495249954
 12.6836905868707941 49.6332355696302230 28.6327538495249954
 42.2789695259173328 56.9561695641874692 28.6327538495249954
 45.0975393399373274 56.9561695641874692 28.6327538495249954
  7.0464664008907913 49.6332355696302230 28.6327538495249954
 -7.0464672271492059 49.6332355696302230 28.6327538495249954
 -9.8651215991092069 49.6332355696302230 28.6327538495249954
 46.5068669525916008  5.6956316022867357 28.6327538495249954
 73.2835338392839901  8.1365851906925037 28.6327538495249954
 -28.1859945264368292 52.0741891580359919 28.6327538495249954
  2.8185693399373224 56.9561695641874692 28.6327538495249954
 69.0556791385716195  5.6956316022867357 28.6327538495249954
 42.2790122112439946  8.1365851906925037 28.6327538495249954
 36.6417880252639918  8.1365851906925037 28.6327538495249954
 28.1859940252639873  8.1365851906925037 28.6327538495249954
 22.5487698392839881  8.1365851906925037 28.6327538495249954
 47.9161514735631755 52.0741891580359919 28.6327538495249954
 19.7302000252639935  8.1365851906925037 28.6327538495249954
 -15.5022612677844460 54.5151427464417537 28.6327538495249954
 -12.6836914537644478 54.5151427464417537 28.6327538495249954
 19.7301996595431604 52.0741891580359919 28.6327538495249954
 14.0929758392839890  8.1365851906925037 28.6327538495249954
 15.5023449181955559 54.5151427464417537 28.6327538495249954
 11.2744060252639908  8.1365851906925037 28.6327538495249954
 32.4138487666116077  5.6956316022867357 28.6327538495249954
 -31.0046066600626737 56.9561695641874692 28.6327538495249954
  5.6371814735631682 52.0741891580359919 28.6327538495249954
 -28.1859522881026763 56.9561695641874692 28.6327538495249954
 56.3719458392839954  8.1365851906925037 28.6327538495249954
 -22.5488126600626764 56.9561695641874692 28.6327538495249954
  0.0000418455231652 52.0741891580359919 28.6327538495249954
  5.6371818392839907  8.1365851906925037 28.6327538495249954
 -8.4557521544768282 52.0741891580359919 28.6327538495249954
 -5.6372246600626781 56.9561695641874692 28.6327538495249954
 -2.8185702881026811 56.9561695641874692 28.6327538495249954
 -2.8186121607160102  8.1365851906925037 28.6327538495249954
 -14.0929763404568273 52.0741891580359919 28.6327538495249954
 62.0091700252639910  8.1365851906925037 28.6327538495249954
 67.6463942112439867  8.1365851906925037 28.6327538495249954
 28.1859936595431719 52.0741891580359919 28.6327538495249954
  8.4557935259173256 56.9561695641874692 28.6327538495249954
 70.4649640252639955  8.1365851906925037 28.6327538495249954
  2.8186119033570516 22.7824531798069998 28.6327538495249954
 -28.1859523287379155 61.8380767409990000 28.6327538495249954
 -4.2278552154303037 59.3971231525932382 28.6327538495249954
 71.8742912721974676  0.8136511961352557 28.6327538495249954
  7.0465507962886189 69.1610107355562462 28.6327538495249954
  4.2278964243286037 69.1610107355562462 28.6327538495249954
  1.4093266103086164 69.1610107355562462 28.6327538495249954
 77.5114309002374711  0.8136511961352557 28.6327538495249954
 -15.5022613896913821 69.1610107355562462 28.6327538495249954
 12.6836904243286224 69.1610107355562462 28.6327538495249954
 -21.1394855756713831 69.1610107355562462 28.6327538495249954
 -29.5952795756713840 69.1610107355562462 28.6327538495249954
 42.2790117236162359 66.7200571471504844 28.6327538495249954
 36.6417875376362474 66.7200571471504844 28.6327538495249954
 22.5487693516562366 66.7200571471504844 28.6327538495249954
 16.9116297236162261 66.7200571471504844 28.6327538495249954
 14.0929753516562410 66.7200571471504844 28.6327538495249954
 80.3300852721974650  0.8136511961352557 28.6327538495249954
  5.6371813516562215 66.7200571471504844 28.6327538495249954
 63.4184972721974631  0.8136511961352557 28.6327538495249954
 26.7767086103086172 69.1610107355562462 28.6327538495249954
 15.5023030862174611  0.8136511961352557 28.6327538495249954
 18.3208729002374611  0.8136511961352557 28.6327538495249954
 -5.6372247819696195 71.6020375533019688 28.6327538495249954
 21.1395272721974621  0.8136511961352557 28.6327538495249954
 -14.0930187819696204 71.6020375533019688 28.6327538495249954
 23.9580970862174638  0.8136511961352557 28.6327538495249954
 15.5023447962886092 69.1610107355562462 28.6327538495249954
 -22.5488127819696196 71.6020375533019688 28.6327538495249954
 40.8696850862174585  0.8136511961352557 28.6327538495249954
 -36.6417464100096169 71.6020375533019688 28.6327538495249954
 49.3254790862174488  0.8136511961352557 28.6327538495249954
 54.9627032721974516  0.8136511961352557 28.6327538495249954
 57.7812730862174604  0.8136511961352557 28.6327538495249954
 32.4139327962886199 69.1610107355562462 28.6327538495249954
 35.2324609002374558  0.8136511961352557 28.6327538495249954
 -5.6371824623637705 66.7200571471504844 28.6327538495249954
 -11.2744066483437688 66.7200571471504844 28.6327538495249954
 -0.0000000270901599  3.2546047845410229 28.6327538495249954
 64.8277821588898462  3.2546047845410229 28.6327538495249954
 14.0930176712620749 61.8380767409990000 28.6327538495249954
  8.4557934852820722 61.8380767409990000 28.6327538495249954
  5.6372236712620847 61.8380767409990000 28.6327538495249954
 -0.0000005147179177 61.8380767409990000 28.6327538495249954
 -2.8185703287379194 61.8380767409990000 28.6327538495249954
 25.3673814852820882 61.8380767409990000 28.6327538495249954
 -14.0929341427579153 61.8380767409990000 28.6327538495249954
 -31.0045221427579136 61.8380767409990000 28.6327538495249954
 -1.4093272333883895  5.6956316022867357 28.6327538495249954
  4.2278969525916086  5.6956316022867357 28.6327538495249954
 18.3208724126097096 59.3971231525932382 28.6327538495249954
 15.5023025985896936 59.3971231525932382 28.6327538495249954
 23.9580547666116068  5.6956316022867357 28.6327538495249954
 -19.7301583287379145 61.8380767409990000 28.6327538495249954
 28.1860358572420893 61.8380767409990000 28.6327538495249954
 31.0046056712620839 61.8380767409990000 28.6327538495249954
 36.6418298572420866 61.8380767409990000 28.6327538495249954
 38.0510724649638732 64.2791035587447084 28.6327538495249954
  8.4557939729098397  3.2546047845410229 28.6327538495249954
 26.7767086509438528 64.2791035587447084 28.6327538495249954
 21.1394844649638500 64.2791035587447084 28.6327538495249954
 12.6836904649638509 64.2791035587447084 28.6327538495249954
 16.9115879729098388  3.2546047845410229 28.6327538495249954
  7.0464662789838490 64.2791035587447084 28.6327538495249954
 22.5488121588898416  3.2546047845410229 28.6327538495249954
 -1.4093277210161486 64.2791035587447084 28.6327538495249954
 -18.3209157210161457 64.2791035587447084 28.6327538495249954
 31.0046061588898354  3.2546047845410229 28.6327538495249954
 -26.7767097210161431 64.2791035587447084 28.6327538495249954
 39.4604001588898399  3.2546047845410229 28.6327538495249954
 45.0976238572420840 61.8380767409990000 28.6327538495249954
 47.9161941588898301  3.2546047845410229 28.6327538495249954
 -9.8650794014102949 59.3971231525932382 28.6327538495249954
 -12.6836914131292051 49.6332355696302230 28.6327538495249954
 -2.8185702068309761 47.1922087518845075 28.6327538495249954
 -23.9580552271492060 49.6332355696302230 28.6327538495249954
 31.0046060369829029 17.9004727736555189 28.6327538495249954
 19.7302421010559677 32.5463407627700150 28.6327538495249954
 14.0930179150759578 32.5463407627700150 28.6327538495249954
 11.2744481010559561 32.5463407627700150 28.6327538495249954
  8.4557937290959586 32.5463407627700150 28.6327538495249954
 36.6418302229629020 17.9004727736555189 28.6327538495249954
 -5.6371398989440404 32.5463407627700150 28.6327538495249954
 39.4604000369828896 17.9004727736555189 28.6327538495249954
 -11.2743640849240396 32.5463407627700150 28.6327538495249954
 59.1905578510029073 17.9004727736555189 28.6327538495249954
 52.1440486564235925 30.1053871743642461 28.6327538495249954
 32.4138908424035748 30.1053871743642461 28.6327538495249954
 21.1395270283835863 30.1053871743642461 28.6327538495249954
  9.8650786564235791 30.1053871743642461 28.6327538495249954
  1.4092846564235810 30.1053871743642461 28.6327538495249954
 25.3673817290959498 32.5463407627700150 28.6327538495249954
 67.6463518510029047 17.9004727736555189 28.6327538495249954
 28.1860361010559650 32.5463407627700150 28.6327538495249954
  5.6372240369829028 17.9004727736555189 28.6327538495249954
 66.2370669643105288 15.4595191852497500 28.6327538495249954
 26.7767088947577392 34.9873675805157234 28.6327538495249954
 12.6836907087777320 34.9873675805157234 28.6327538495249954
 74.6928609643105261 15.4595191852497500 28.6327538495249954
  4.2278967087777302 34.9873675805157234 28.6327538495249954
 -4.2278972912222672 34.9873675805157234 28.6327538495249954
  2.8186542229628988 17.9004727736555189 28.6327538495249954
 64.8277819150759740 32.5463407627700150 28.6327538495249954
 62.0092121010559580 32.5463407627700150 28.6327538495249954
 56.3719879150759695 32.5463407627700150 28.6327538495249954
 53.5534181010559607 32.5463407627700150 28.6327538495249954
 50.7347637290959668 32.5463407627700150 28.6327538495249954
 47.9161939150759579 32.5463407627700150 28.6327538495249954
 42.2789697290959623 32.5463407627700150 28.6327538495249954
 36.6418301010559517 32.5463407627700150 28.6327538495249954
 25.3673818510029001 17.9004727736555189 28.6327538495249954
 67.6463517697312113 27.6644335859584807 28.6327538495249954
 -7.0464669833353293 20.3414995914012344 28.6327538495249954
 59.1905577697312140 27.6644335859584807 28.6327538495249954
 26.7767089760294326 25.2234067682127652 28.6327538495249954
 23.9581391620094379 25.2234067682127652 28.6327538495249954
 43.6882970166646629 20.3414995914012344 28.6327538495249954
 15.5023451620094264 25.2234067682127652 28.6327538495249954
  7.0465511620094325 25.2234067682127652 28.6327538495249954
 46.5068668306846718 20.3414995914012344 28.6327538495249954
 70.4649639033570594 22.7824531798069998 28.6327538495249954
 49.3254366447046735 20.3414995914012344 28.6327538495249954
 62.0091699033570620 22.7824531798069998 28.6327538495249954
 52.1440910166646745 20.3414995914012344 28.6327538495249954
 60.5998850166646719 20.3414995914012344 28.6327538495249954
 69.0556790166646692 20.3414995914012344 28.6327538495249954
 25.3674240893370566 22.7824531798069998 28.6327538495249954
 71.8742488306846781 20.3414995914012344 28.6327538495249954
  5.6371817173770493 22.7824531798069998 28.6327538495249954
 29.5952787900494201 25.2234067682127652 28.6327538495249954
 32.4139331620094353 25.2234067682127652 28.6327538495249954
 40.8696426447046761 20.3414995914012344 28.6327538495249954
 54.9626607900494406 25.2234067682127652 28.6327538495249954
 53.5533335837512112 27.6644335859584807 28.6327538495249954
 50.7347637697312024 27.6644335859584807 28.6327538495249954
 -4.2278971693153311 20.3414995914012344 28.6327538495249954
 45.0975395837512067 27.6644335859584807 28.6327538495249954
  1.4093270166646681 20.3414995914012344 28.6327538495249954
 39.4603999557111962 27.6644335859584807 28.6327538495249954
  4.2278968306846716 20.3414995914012344 28.6327538495249954
 49.3254365227977445 34.9873675805157234 28.6327538495249954
 12.6836908306846716 20.3414995914012344 28.6327538495249954
 18.3209150166646637 20.3414995914012344 28.6327538495249954
 11.2743635837511977 27.6644335859584807 28.6327538495249954
 -2.8185700442888009 27.6644335859584807 28.6327538495249954
 -8.4557942302688005 27.6644335859584807 28.6327538495249954
 69.0556789760294407 25.2234067682127652 28.6327538495249954
 63.4184547900494380 25.2234067682127652 28.6327538495249954
 35.2325030166646727 20.3414995914012344 28.6327538495249954
 22.5488119557112086 27.6644335859584807 28.6327538495249954
 -21.1394854131292078 49.6332355696302230 28.6327538495249954
 49.3254789643105269 15.4595191852497500 28.6327538495249954
 -19.7302004045298887 37.4283211689214923 28.6327538495249954
 23.9580967204966342 44.7512551634787386 28.6327538495249954
 21.1395269064766467 44.7512551634787386 28.6327538495249954
 18.3208725345166314 44.7512551634787386 28.6327538495249954
 16.9115878916381419 13.0185655968439828 28.6327538495249954
  9.8650785345166412 44.7512551634787386 28.6327538495249954
  7.0465087204966403 44.7512551634787386 28.6327538495249954
  4.2279389064766386 44.7512551634787386 28.6327538495249954
  1.4092845345166412 44.7512551634787386 28.6327538495249954
 -1.4092852795033535 44.7512551634787386 28.6327538495249954
 -4.2278550935233552 44.7512551634787386 28.6327538495249954
 -9.8650792795033553 44.7512551634787386 28.6327538495249954
 -12.6836490935233588 44.7512551634787386 28.6327538495249954
 19.7301577056581365 13.0185655968439828 28.6327538495249954
 -18.3208732795033562 44.7512551634787386 28.6327538495249954
 -23.9580974654833554 44.7512551634787386 28.6327538495249954
 14.0930180776181420 13.0185655968439828 28.6327538495249954
 22.5488120776181340 13.0185655968439828 28.6327538495249954
 32.4138907204966458 44.7512551634787386 28.6327538495249954
  8.4557938916381428 13.0185655968439828 28.6327538495249954
 53.5534179791490246 47.1922087518845075 28.6327538495249954
 21.1394849119563659 10.5775387790982709 28.6327538495249954
 35.2325030979363731 10.5775387790982709 28.6327538495249954
 31.0046057931690235 47.1922087518845075 28.6327538495249954
 43.6882970979363634 10.5775387790982709 28.6327538495249954
 19.7302419791490244 47.1922087518845075 28.6327538495249954
  2.8186539791490159 47.1922087518845075 28.6327538495249954
 49.3255212839163661 10.5775387790982709 28.6327538495249954
 -5.6371820966429516 22.7824531798069998 28.6327538495249954
 -11.2743642068309775 47.1922087518845075 28.6327538495249954
 -0.0000001083618602 13.0185655968439828 28.6327538495249954
 54.9627029064766432 44.7512551634787386 28.6327538495249954
 52.1440485345166493 44.7512551634787386 28.6327538495249954
 49.3254787204966547 44.7512551634787386 28.6327538495249954
  2.8185697056581414 13.0185655968439828 28.6327538495249954
 38.0511149064766485 44.7512551634787386 28.6327538495249954
 31.0046060776181456 13.0185655968439828 28.6327538495249954
 28.1859514618442688 42.3103015750729767 28.6327538495249954
 36.6417457056581313 13.0185655968439828 28.6327538495249954
 15.5023029643105232 15.4595191852497500 28.6327538495249954
 -15.5022611458775117 39.8692747573272612 28.6327538495249954
 23.9580969643105171 15.4595191852497500 28.6327538495249954
 62.0091697814501188 37.4283211689214923 28.6327538495249954
 56.3719455954701161 37.4283211689214923 28.6327538495249954
 36.6417877814501125 37.4283211689214923 28.6327538495249954
 28.1859937814501045 37.4283211689214923 28.6327538495249954
 25.3674239674301170 37.4283211689214923 28.6327538495249954
 38.0511151502905278 15.4595191852497500 28.6327538495249954
 16.9116299674301196 37.4283211689214923 28.6327538495249954
 40.8696849643105153 15.4595191852497500 28.6327538495249954
 -2.8186124045298877 37.4283211689214923 28.6327538495249954
 -5.6371822185498859 37.4283211689214923 28.6327538495249954
 -8.4557520325698885 37.4283211689214923 28.6327538495249954
 -16.9115460325698876 37.4283211689214923 28.6327538495249954
 -7.0464671458775081 39.8692747573272612 28.6327538495249954
 -1.4092429598975091 39.8692747573272612 28.6327538495249954
  9.8651208541224857 39.8692747573272612 28.6327538495249954
  1.4092847783305213 15.4595191852497500 28.6327538495249954
 45.0975397056581500 13.0185655968439828 28.6327538495249954
 22.5488118338042653 42.3103015750729767 28.6327538495249954
 47.9161940776181368 13.0185655968439828 28.6327538495249954
 14.0930178338042680 42.3103015750729767 28.6327538495249954
  8.4557936478242581 42.3103015750729767 28.6327538495249954
 50.7347638916381456 13.0185655968439828 28.6327538495249954
 -0.0000003521757358 42.3103015750729767 28.6327538495249954
 63.4184547087777446 34.9873675805157234 28.6327538495249954
 57.7813150401024913 39.8692747573272612 28.6327538495249954
 49.3255210401024939 39.8692747573272612 28.6327538495249954
 46.5068666681425000 39.8692747573272612 28.6327538495249954
 40.8697270401024966 39.8692747573272612 28.6327538495249954
 64.8277820776181386 13.0185655968439828 28.6327538495249954
 73.2835760776181360 13.0185655968439828 28.6327538495249954
 23.9581390401024947 39.8692747573272612 28.6327538495249954
 -1.4092850356894804 15.4595191852497500 28.6327538495249954
 56.3719880776181483 13.0185655968439828 28.6327538495249954
 -14.0929762185498877 37.4283211689214923 28.6327538495249954
