 H  O 
 1.0000000000000000
    84.5579400000000021    0.0000000000000000    0.0000000000000000
   -42.2789706095346958   73.2293399455724767    0.0000000000000000
     0.0000000000000000    0.0000000000000000   46.9039550000000034
 H   O  
 194 337
Cartesian
 67.6463095449421274 21.1551507875364884 28.1128704123049964
 -5.6372244027037182 26.0371311936879657 28.1128704123049964
 -21.1395277598252136 57.7698207603227232 28.1128704123049964
 -29.5953217598252145 57.7698207603227232 28.1128704123049964
 50.7347635394624064 55.3288671719169614 28.1128704123049964
 47.9161091675023982 55.3288671719169614 28.1128704123049964
 16.9115877832762855 26.0371311936879657 28.1128704123049964
 19.7301575972962873 26.0371311936879657 28.1128704123049964
 45.0975393534824036 55.3288671719169614 28.1128704123049964
 28.1859515972962846 26.0371311936879657 28.1128704123049964
 33.8231757832762838 26.0371311936879657 28.1128704123049964
 36.6417455972962784 26.0371311936879657 28.1128704123049964
 39.4603154113162731 26.0371311936879657 28.1128704123049964
 42.2789697832762812 26.0371311936879657 28.1128704123049964
 -15.5023035738452162 57.7698207603227232 28.1128704123049964
 45.0975395972962758 26.0371311936879657 28.1128704123049964
 50.7347637832762715 26.0371311936879657 28.1128704123049964
 53.5533335972962803 26.0371311936879657 28.1128704123049964
 42.2789695394624090 55.3288671719169614 28.1128704123049964
 59.1905577832762830 26.0371311936879657 28.1128704123049964
 62.0091275972962777 26.0371311936879657 28.1128704123049964
 67.6463517832762875 26.0371311936879657 28.1128704123049964
 -15.5023033300313369 28.4780847820937346 28.1128704123049964
 36.6417453534824062 55.3288671719169614 28.1128704123049964
 31.0045211675023928 55.3288671719169614 28.1128704123049964
 16.9115875394624062 55.3288671719169614 28.1128704123049964
 12.6836484839886605 28.4780847820937346 28.1128704123049964
 23.9580968559486607 28.4780847820937346 28.1128704123049964
 14.0929331675024070 55.3288671719169614 28.1128704123049964
 47.9161094113162704 26.0371311936879657 28.1128704123049964
 46.5068244839886518 28.4780847820937346 28.1128704123049964
 60.5998849895745124 23.5961043759422537 28.1128704123049964
 46.5068668035945052 23.5961043759422537 28.1128704123049964
 11.2743633128471661 60.2107743487284921 28.1128704123049964
  8.4557934988271644 60.2107743487284921 28.1128704123049964
  2.8185693128471621 60.2107743487284921 28.1128704123049964
 -2.8185703151928343 60.2107743487284921 28.1128704123049964
 38.0510728442297577 18.7141971991307194 28.1128704123049964
 43.6882124722697469 18.7141971991307194 28.1128704123049964
 49.3254366582497497 18.7141971991307194 28.1128704123049964
 -14.0930186871528367 60.2107743487284921 28.1128704123049964
 -19.7301583151928384 60.2107743487284921 28.1128704123049964
 66.2370246582497515 18.7141971991307194 28.1128704123049964
 -25.3673825011728376 60.2107743487284921 28.1128704123049964
 71.8742488442297542 18.7141971991307194 28.1128704123049964
 -33.8231765011728385 60.2107743487284921 28.1128704123049964
 52.1440909895745008 23.5961043759422537 28.1128704123049964
 46.5068242401747796 57.7698207603227232 28.1128704123049964
 31.0045637309221327 21.1551507875364884 28.1128704123049964
 26.7766664261547831 57.7698207603227232 28.1128704123049964
 36.6417879169021319 21.1551507875364884 28.1128704123049964
 39.4603577309221265 21.1551507875364884 28.1128704123049964
 50.7347215449421185 21.1551507875364884 28.1128704123049964
 18.3208724261547857 57.7698207603227232 28.1128704123049964
 64.8277397309221328 21.1551507875364884 28.1128704123049964
  8.4557936207341040 45.5649063596139996 28.1128704123049964
 15.5023026121347893 57.7698207603227232 28.1128704123049964
  9.8650784261547866 57.7698207603227232 28.1128704123049964
 -1.4093273823854895 23.5961043759422537 28.1128704123049964
 40.8696426176145025 23.5961043759422537 28.1128704123049964
 43.6882969895745106 23.5961043759422537 28.1128704123049964
 19.7301999169021336 21.1551507875364884 28.1128704123049964
 14.0930176848071671 60.2107743487284921 28.1128704123049964
 54.9626184839886562 28.4780847820937346 28.1128704123049964
  2.8185693534824074 55.3288671719169614 28.1128704123049964
  7.0464664957075716 38.2419723650567462 28.1128704123049964
 12.6836906816875779 38.2419723650567462 28.1128704123049964
 23.9580544957075787 38.2419723650567462 28.1128704123049964
 46.5068666004158757 48.0059331773597151 28.1128704123049964
 43.6882968676675674 38.2419723650567462 28.1128704123049964
 52.1440908676675789 38.2419723650567462 28.1128704123049964
 60.5998848676675763 38.2419723650567462 28.1128704123049964
 -14.0930185246106596 40.6829991828024689 28.1128704123049964
 32.4138484144358685 48.0059331773597151 28.1128704123049964
 29.5952786004158739 48.0059331773597151 28.1128704123049964
 -0.0000003386306579 40.6829991828024689 28.1128704123049964
  8.4557936613693432 40.6829991828024689 28.1128704123049964
 28.1859514753893379 40.6829991828024689 28.1128704123049964
 -28.1859945128917460 50.4468867657654769 28.1128704123049964
 33.8231756613693406 40.6829991828024689 28.1128704123049964
 -7.0465517715441273 48.0059331773597151 28.1128704123049964
 -9.8651215855641290 48.0059331773597151 28.1128704123049964
 -23.9580974519382757 43.1239527712082307 28.1128704123049964
 -18.3208732659582765 43.1239527712082307 28.1128704123049964
 -12.6837336379182783 43.1239527712082307 28.1128704123049964
 -12.6836913995841307 48.0059331773597151 28.1128704123049964
 -4.2279396379182765 43.1239527712082307 28.1128704123049964
 -18.3209155855641299 48.0059331773597151 28.1128704123049964
 18.3208725480617254 43.1239527712082307 28.1128704123049964
 47.9161938067141051 45.5649063596139996 28.1128704123049964
 46.5068243620817157 43.1239527712082307 28.1128704123049964
 14.0930178067140996 45.5649063596139996 28.1128704123049964
 -11.2743641932859031 45.5649063596139996 28.1128704123049964
 -1.4093275855641247 48.0059331773597151 28.1128704123049964
 11.2743633534824053 55.3288671719169614 28.1128704123049964
 -22.5487703269117468 50.4468867657654769 28.1128704123049964
 56.3719456090151922 35.8010187766509844 28.1128704123049964
 -5.6372244433389582 30.9190383704995000 28.1128704123049964
  5.6372239286210437 30.9190383704995000 28.1128704123049964
 -16.9115884605376010 55.3288671719169614 28.1128704123049964
 -22.5488126465175966 55.3288671719169614 28.1128704123049964
 -28.1860368324975958 55.3288671719169614 28.1128704123049964
 -31.0046066465175976 55.3288671719169614 28.1128704123049964
 52.1440907457606357 52.8878403541712458 28.1128704123049964
 49.3254363738006276 52.8878403541712458 28.1128704123049964
 46.5068665597806330 52.8878403541712458 28.1128704123049964
 43.6882967457606384 52.8878403541712458 28.1128704123049964
 -18.3209154636571903 33.3600651882452155 28.1128704123049964
 15.5022603738006346 52.8878403541712458 28.1128704123049964
 -4.2278972776771910 33.3600651882452155 28.1128704123049964
 35.2324603042478444 72.4156887494372228 28.1128704123049964
  7.0464663738006301 52.8878403541712458 28.1128704123049964
 23.9580545363428143 33.3600651882452155 28.1128704123049964
 29.5952787223228171 33.3600651882452155 28.1128704123049964
 -19.7302003909848089 35.8010187766509844 28.1128704123049964
 -16.9116305769648072 35.8010187766509844 28.1128704123049964
 50.7347213011282463 50.4468867657654769 28.1128704123049964
 -8.4558365769648098 35.8010187766509844 28.1128704123049964
 -0.0000425769648080 35.8010187766509844 28.1128704123049964
 47.9161514871082517 50.4468867657654769 28.1128704123049964
 45.0975816730882570 50.4468867657654769 28.1128704123049964
 33.8231333011282445 50.4468867657654769 28.1128704123049964
 31.0045634871082498 50.4468867657654769 28.1128704123049964
 31.0045636090151895 35.8010187766509844 28.1128704123049964
 14.0929754871082551 50.4468867657654769 28.1128704123049964
 12.6836907223228135 33.3600651882452155 28.1128704123049964
 19.7301573128471581 60.2107743487284921 28.1128704123049964
  2.8185694347540982 45.5649063596139996 28.1128704123049964
  7.0464666582497495 18.7141971991307194 28.1128704123049964
  9.8650365941766900  4.0683292100162243 28.1128704123049964
 16.9115451792213065 65.0927547548799765 28.1128704123049964
 -7.0465092081243990 13.8322167929792403 28.1128704123049964
 14.0929753652013119 65.0927547548799765 28.1128704123049964
 21.1394849255014528  8.9502363868277595 28.1128704123049964
  9.8650787918756002 13.8322167929792403 28.1128704123049964
  5.6371813652013136 65.0927547548799765 28.1128704123049964
 18.3208727918756047 13.8322167929792403 28.1128704123049964
 23.9580969778556039 13.8322167929792403 28.1128704123049964
 26.7767086238536862 67.5337083432857384 28.1128704123049964
 38.0510306058956047 13.8322167929792403 28.1128704123049964
 -1.4093272198433096  4.0683292100162243 28.1128704123049964
 40.8696849778556057 13.8322167929792403 28.1128704123049964
 -0.0000423331509293  6.5092827984219914 28.1128704123049964
 54.9626609661366956  4.0683292100162243 28.1128704123049964
 74.6928187801566850  4.0683292100162243 28.1128704123049964
 64.8276975332232155 11.3912632045734714 28.1128704123049964
 53.5533337192032164 11.3912632045734714 28.1128704123049964
 18.3208305941766909  4.0683292100162243 28.1128704123049964
 57.7812307395214404  8.9502363868277595 28.1128704123049964
 60.5998851114814414  8.9502363868277595 28.1128704123049964
 40.8696427801566955  4.0683292100162243 28.1128704123049964
 -4.2278975621263015 67.5337083432857384 28.1128704123049964
 -38.0511158817321586 72.4156887494372228 28.1128704123049964
 -29.5953218817321577 72.4156887494372228 28.1128704123049964
  2.8185697192032206 11.3912632045734714 28.1128704123049964
 22.5488116848071662 60.2107743487284921 28.1128704123049964
 23.9580547801566937  4.0683292100162243 28.1128704123049964
 -21.1394855621263069 67.5337083432857384 28.1128704123049964
 -26.7767097481063061 67.5337083432857384 28.1128704123049964
 63.4184549661366859  4.0683292100162243 28.1128704123049964
 21.1394844378736906 67.5337083432857384 28.1128704123049964
 39.4603573652013111 65.0927547548799765 28.1128704123049964
 31.0045633652013137 65.0927547548799765 28.1128704123049964
 45.0975397192032190 11.3912632045734714 28.1128704123049964
 -18.3209157481063052 67.5337083432857384 28.1128704123049964
 78.9207158004749090  1.6273023922705114 28.1128704123049964
 35.2325031114814493  8.9502363868277595 28.1128704123049964
 73.2835761724349197  1.6273023922705114 28.1128704123049964
 50.7347216668490617  6.5092827984219914 28.1128704123049964
 42.2789276668490714  6.5092827984219914 28.1128704123049964
 45.0975393128471538 60.2107743487284921 28.1128704123049964
 16.9115879864549186  1.6273023922705114 28.1128704123049964
 -21.1394855214910677 62.6518011664742076 28.1128704123049964
 -18.3209157074710660 62.6518011664742076 28.1128704123049964
 -12.6836915214910633 62.6518011664742076 28.1128704123049964
 36.6417880388090680  6.5092827984219914 28.1128704123049964
 47.9161940505279844 16.2731703813850075 28.1128704123049964
 -14.0930187684245301 69.9747351610314468 28.1128704123049964
 16.9115874175554666 69.9747351610314468 28.1128704123049964
 39.4604000505279870 16.2731703813850075 28.1128704123049964
 76.1021459864549144  1.6273023922705114 28.1128704123049964
 21.1394844785089369 62.6518011664742076 28.1128704123049964
 36.6417458004749221  1.6273023922705114 28.1128704123049964
 28.1859518004749177  1.6273023922705114 28.1128704123049964
 25.3673818645479834 16.2731703813850075 28.1128704123049964
 67.6463519864549170  1.6273023922705114 28.1128704123049964
 35.2324181065489270 62.6518011664742076 28.1128704123049964
 14.0929758528290687  6.5092827984219914 28.1128704123049964
  8.4557516668490695  6.5092827984219914 28.1128704123049964
 40.8696422925289298 62.6518011664742076 28.1128704123049964
 15.5023024902278443 72.4156887494372228 28.1128704123049964
 66.2370669778556049 13.8322167929792403 28.1128704123049964
 -4.2279398817321576 72.4156887494372228 28.1128704123049964
 -33.8232188207786848 65.0927547548799765 28.1128704123049964
 43.6882966103086261 69.1610107355562462 28.6327538495249954
  7.0465507962886189 69.1610107355562462 28.6327538495249954
 12.6836905868707941 49.6332355696302230 28.6327538495249954
 38.0510724243286234 69.1610107355562462 28.6327538495249954
 -28.1859945264368292 52.0741891580359919 28.6327538495249954
 26.7767087728507853 49.6332355696302230 28.6327538495249954
  9.8651206103086064 69.1610107355562462 28.6327538495249954
 26.7767086103086172 69.1610107355562462 28.6327538495249954
 -18.3209155991092061 49.6332355696302230 28.6327538495249954
 -21.1394854131292078 49.6332355696302230 28.6327538495249954
 12.6836904243286224 69.1610107355562462 28.6327538495249954
 35.2325026103086287 69.1610107355562462 28.6327538495249954
 18.3209146103086198 69.1610107355562462 28.6327538495249954
 40.8696424008908039 49.6332355696302230 28.6327538495249954
 29.5952784243286260 69.1610107355562462 28.6327538495249954
  1.4093267728507877 49.6332355696302230 28.6327538495249954
 -22.5488127819696196 71.6020375533019688 28.6327538495249954
 50.7347636071890307 47.1922087518845075 28.6327538495249954
  9.8650785345166412 44.7512551634787386 28.6327538495249954
 31.0046055899903834 71.6020375533019688 28.6327538495249954
 12.6837329064766493 44.7512551634787386 28.6327538495249954
 23.9580967204966342 44.7512551634787386 28.6327538495249954
 26.7766665345166501 44.7512551634787386 28.6327538495249954
 29.5953209064766369 44.7512551634787386 28.6327538495249954
 25.3673814040103807 71.6020375533019688 28.6327538495249954
 38.0511149064766485 44.7512551634787386 28.6327538495249954
 40.8696847204966431 44.7512551634787386 28.6327538495249954
 49.3254787204966547 44.7512551634787386 28.6327538495249954
 52.1440485345166493 44.7512551634787386 28.6327538495249954
 54.9627029064766432 44.7512551634787386 28.6327538495249954
 -25.3673823928109776 47.1922087518845075 28.6327538495249954
 -19.7301582068309784 47.1922087518845075 28.6327538495249954
 11.2743632180303894 71.6020375533019688 28.6327538495249954
  8.4557934040103735 71.6020375533019688 28.6327538495249954
  2.8185692180303707 71.6020375533019688 28.6327538495249954
  8.4557936071890190 47.1922087518845075 28.6327538495249954
 -11.2743644100096230 71.6020375533019688 28.6327538495249954
 11.2744479791490271 47.1922087518845075 28.6327538495249954
 14.0930177931690217 47.1922087518845075 28.6327538495249954
 -16.9115885959896168 71.6020375533019688 28.6327538495249954
 16.9115876071890092 47.1922087518845075 28.6327538495249954
 22.5488117931690120 47.1922087518845075 28.6327538495249954
 -22.5487703404568300 52.0741891580359919 28.6327538495249954
 -25.3673825959896213 71.6020375533019688 28.6327538495249954
 36.6418299791490298 47.1922087518845075 28.6327538495249954
 39.4603997931690245 47.1922087518845075 28.6327538495249954
 42.2789696071890333 47.1922087518845075 28.6327538495249954
 53.5534179791490246 47.1922087518845075 28.6327538495249954
 -16.9115461544768308 52.0741891580359919 28.6327538495249954
 -38.0510735756713814 69.1610107355562462 28.6327538495249954
 -11.2744065264368292 52.0741891580359919 28.6327538495249954
 -29.5952795350361448 64.2791035587447084 28.6327538495249954
 -23.9580553490561456 64.2791035587447084 28.6327538495249954
 14.0930177118973283 56.9561695641874692 28.6327538495249954
  5.6372237118973310 56.9561695641874692 28.6327538495249954
 -12.6836915350361448 64.2791035587447084 28.6327538495249954
 -0.0000004740826793 56.9561695641874692 28.6327538495249954
 -5.6372246600626781 56.9561695641874692 28.6327538495249954
 -9.8651217210161430 64.2791035587447084 28.6327538495249954
 -4.2278975350361501 64.2791035587447084 28.6327538495249954
 -1.4093277210161486 64.2791035587447084 28.6327538495249954
 -8.4557944740826727 56.9561695641874692 28.6327538495249954
 -11.2743642881026744 56.9561695641874692 28.6327538495249954
  1.4093266509438596 64.2791035587447084 28.6327538495249954
 -19.7301582881026789 56.9561695641874692 28.6327538495249954
  9.8651206509438563 64.2791035587447084 28.6327538495249954
 -35.2325037210161440 64.2791035587447084 28.6327538495249954
 18.3209146509438554 64.2791035587447084 28.6327538495249954
 19.7301573399373318 56.9561695641874692 28.6327538495249954
 36.6418298572420866 61.8380767409990000 28.6327538495249954
 32.4138905985897026 59.3971231525932382 28.6327538495249954
 38.0511147845697053 59.3971231525932382 28.6327538495249954
 40.8696845985897141 59.3971231525932382 28.6327538495249954
 -33.8231765147179146 61.8380767409990000 28.6327538495249954
 -28.1859523287379155 61.8380767409990000 28.6327538495249954
 -16.9115885147179164 61.8380767409990000 28.6327538495249954
 -23.9580975873902986 59.3971231525932382 28.6327538495249954
 -8.4557945147179190 61.8380767409990000 28.6327538495249954
 14.0930176712620749 61.8380767409990000 28.6327538495249954
 -29.5952372154302985 59.3971231525932382 28.6327538495249954
 50.7347635259173302 56.9561695641874692 28.6327538495249954
 25.3673814852820882 61.8380767409990000 28.6327538495249954
 39.4603997118973240 56.9561695641874692 28.6327538495249954
 36.6417453399373301 56.9561695641874692 28.6327538495249954
 31.0046056712620839 61.8380767409990000 28.6327538495249954
 22.5488117118973186 56.9561695641874692 28.6327538495249954
 23.9580542789838589 64.2791035587447084 28.6327538495249954
 26.7767086509438528 64.2791035587447084 28.6327538495249954
 29.5952784649638616 64.2791035587447084 28.6327538495249954
 -35.2324192037113804 69.1610107355562462 28.6327538495249954
 -32.4138493896913857 69.1610107355562462 28.6327538495249954
 39.4603574735631781 52.0741891580359919 28.6327538495249954
 31.0045634735631737 52.0741891580359919 28.6327538495249954
 25.3674238455231631 52.0741891580359919 28.6327538495249954
 22.5487694735631763 52.0741891580359919 28.6327538495249954
 -29.5952795756713840 69.1610107355562462 28.6327538495249954
 19.7301996595431604 52.0741891580359919 28.6327538495249954
 -9.8650372037113900 69.1610107355562462 28.6327538495249954
  8.4558358455231772 52.0741891580359919 28.6327538495249954
 -1.4092432037113782 69.1610107355562462 28.6327538495249954
  2.8186116595431669 52.0741891580359919 28.6327538495249954
  1.4093266103086164 69.1610107355562462 28.6327538495249954
  4.2278964243286037 69.1610107355562462 28.6327538495249954
 -8.4557521544768282 52.0741891580359919 28.6327538495249954
 47.9161514735631755 52.0741891580359919 28.6327538495249954
 45.0975815376362448 66.7200571471504844 28.6327538495249954
 39.4603573516562420 66.7200571471504844 28.6327538495249954
 25.3674237236162377 66.7200571471504844 28.6327538495249954
 43.6882966509438617 64.2791035587447084 28.6327538495249954
 -28.1859946483437653 66.7200571471504844 28.6327538495249954
 -14.0929764623637634 66.7200571471504844 28.6327538495249954
 26.7767087322155568 54.5151427464417537 28.6327538495249954
 23.9581389181955480 54.5151427464417537 28.6327538495249954
 -8.4557522763837714 66.7200571471504844 28.6327538495249954
  2.8186115376362340 66.7200571471504844 28.6327538495249954
 -14.0929763404568273 52.0741891580359919 28.6327538495249954
  5.6371813516562215 66.7200571471504844 28.6327538495249954
  9.8651207322155532 54.5151427464417537 28.6327538495249954
  1.4093267322155492 54.5151427464417537 28.6327538495249954
 19.7301995376362349 66.7200571471504844 28.6327538495249954
 -1.4092430818044526 54.5151427464417537 28.6327538495249954
 -4.2278974537644496 54.5151427464417537 28.6327538495249954
 -7.0464672677844442 54.5151427464417537 28.6327538495249954
 -18.3208310818044460 54.5151427464417537 28.6327538495249954
  8.4558357236162376 66.7200571471504844 28.6327538495249954
  1.4092849002374601  0.8136511961352557 28.6327538495249954
 -11.2744064045298860 37.4283211689214923 28.6327538495249954
 -4.2278550935233552 44.7512551634787386 28.6327538495249954
 43.6882547783305313 15.4595191852497500 28.6327538495249954
 35.2324607783305126 15.4595191852497500 28.6327538495249954
 32.4138909643105251 15.4595191852497500 28.6327538495249954
 29.5953211502905269 15.4595191852497500 28.6327538495249954
 21.1395271502905153 15.4595191852497500 28.6327538495249954
 12.6837331502905215 15.4595191852497500 28.6327538495249954
  7.0465089643105223 15.4595191852497500 28.6327538495249954
  4.2279391502905188 15.4595191852497500 28.6327538495249954
  1.4092847783305213 15.4595191852497500 28.6327538495249954
 -1.4092850356894804 15.4595191852497500 28.6327538495249954
 46.5069091502905181 15.4595191852497500 28.6327538495249954
 76.1021458916381448 13.0185655968439828 28.6327538495249954
 56.3719880776181483 13.0185655968439828 28.6327538495249954
 50.7347638916381456 13.0185655968439828 28.6327538495249954
 47.9161940776181368 13.0185655968439828 28.6327538495249954
 19.7301577056581365 13.0185655968439828 28.6327538495249954
 14.0930180776181420 13.0185655968439828 28.6327538495249954
  8.4557938916381428 13.0185655968439828 28.6327538495249954
 -0.0000001083618602 13.0185655968439828 28.6327538495249954
 77.5114730979363742 10.5775387790982709 28.6327538495249954
 74.6929032839163654 10.5775387790982709 28.6327538495249954
 69.0556790979363768 10.5775387790982709 28.6327538495249954
 62.0091277056581518 13.0185655968439828 28.6327538495249954
 49.3255212839163661 10.5775387790982709 28.6327538495249954
 52.1440487783305286 15.4595191852497500 28.6327538495249954
 57.7812729643105243 15.4595191852497500 28.6327538495249954
 18.3209150166646637 20.3414995914012344 28.6327538495249954
 12.6836908306846716 20.3414995914012344 28.6327538495249954
  9.8651210166646699 20.3414995914012344 28.6327538495249954
 -7.0464669833353293 20.3414995914012344 28.6327538495249954
 70.4650062229628986 17.9004727736555189 28.6327538495249954
 59.1905578510029073 17.9004727736555189 28.6327538495249954
 56.3719880369828985 17.9004727736555189 28.6327538495249954
 53.5534182229629039 17.9004727736555189 28.6327538495249954
 33.8231758510028868 17.9004727736555189 28.6327538495249954
 31.0046060369829029 17.9004727736555189 28.6327538495249954
 54.9627031502905297 15.4595191852497500 28.6327538495249954
 28.1860362229629082 17.9004727736555189 28.6327538495249954
 22.5488120369828984 17.9004727736555189 28.6327538495249954
 14.0930180369829028 17.9004727736555189 28.6327538495249954
  8.4557938510029000 17.9004727736555189 28.6327538495249954
  2.8186542229628988 17.9004727736555189 28.6327538495249954
 -0.0000001489970986 17.9004727736555189 28.6327538495249954
 -8.4557941489970982 17.9004727736555189 28.6327538495249954
 74.6928609643105261 15.4595191852497500 28.6327538495249954
 71.8742911502905173 15.4595191852497500 28.6327538495249954
 63.4184971502905270 15.4595191852497500 28.6327538495249954
 60.5998427783305331 15.4595191852497500 28.6327538495249954
 25.3673818510029001 17.9004727736555189 28.6327538495249954
 46.5068669119563793 10.5775387790982709 28.6327538495249954
 40.8697272839163759 10.5775387790982709 28.6327538495249954
 38.0510729119563607 10.5775387790982709 28.6327538495249954
 38.0510729525916105  5.6956316022867357 28.6327538495249954
 32.4138487666116077  5.6956316022867357 28.6327538495249954
 26.7767091385716043  5.6956316022867357 28.6327538495249954
 23.9580547666116068  5.6956316022867357 28.6327538495249954
 15.5022607666116095  5.6956316022867357 28.6327538495249954
  4.2278969525916086  5.6956316022867357 28.6327538495249954
 70.4650063448698489  3.2546047845410229 28.6327538495249954
 62.0092123448698445  3.2546047845410229 28.6327538495249954
 59.1905579729098434  3.2546047845410229 28.6327538495249954
 33.8231759729098371  3.2546047845410229 28.6327538495249954
 46.5068669525916008  5.6956316022867357 28.6327538495249954
 28.1860363448698337  3.2546047845410229 28.6327538495249954
 14.0930181588898407  3.2546047845410229 28.6327538495249954
  2.8186543448698407  3.2546047845410229 28.6327538495249954
 83.1486550862174738  0.8136511961352557 28.6327538495249954
 63.4184972721974631  0.8136511961352557 28.6327538495249954
 52.1440489002374647  0.8136511961352557 28.6327538495249954
 49.3254790862174488  0.8136511961352557 28.6327538495249954
 43.6882549002374461  0.8136511961352557 28.6327538495249954
 40.8696850862174585  0.8136511961352557 28.6327538495249954
 23.9580970862174638  0.8136511961352557 28.6327538495249954
  7.0465090862174584  0.8136511961352557 28.6327538495249954
 22.5488121588898416  3.2546047845410229 28.6327538495249954
 52.1440911385716035  5.6956316022867357 28.6327538495249954
 63.4184549525916097  5.6956316022867357 28.6327538495249954
 66.2370247666116256  5.6956316022867357 28.6327538495249954
 32.4139332839163785 10.5775387790982709 28.6327538495249954
 26.7767090979363651 10.5775387790982709 28.6327538495249954
 18.3209150979363713 10.5775387790982709 28.6327538495249954
 15.5023452839163713 10.5775387790982709 28.6327538495249954
  9.8651210979363722 10.5775387790982709 28.6327538495249954
  4.2278969119563712 10.5775387790982709 28.6327538495249954
 -1.4092427160836287 10.5775387790982709 28.6327538495249954
 78.9207580252639929  8.1365851906925037 28.6327538495249954
 70.4649640252639955  8.1365851906925037 28.6327538495249954
 50.7348062112439848  8.1365851906925037 28.6327538495249954
 47.9161518392839980  8.1365851906925037 28.6327538495249954
 31.0045638392839891  8.1365851906925037 28.6327538495249954
 28.1859940252639873  8.1365851906925037 28.6327538495249954
 16.9116302112439918  8.1365851906925037 28.6327538495249954
 14.0929758392839890  8.1365851906925037 28.6327538495249954
 11.2744060252639908  8.1365851906925037 28.6327538495249954
  2.8186120252639890  8.1365851906925037 28.6327538495249954
  0.0000422112439907  8.1365851906925037 28.6327538495249954
 -2.8186121607160102  8.1365851906925037 28.6327538495249954
 77.5114731385716169  5.6956316022867357 28.6327538495249954
 74.6928187666116230  5.6956316022867357 28.6327538495249954
 71.8742489525916284  5.6956316022867357 28.6327538495249954
 69.0556791385716195  5.6956316022867357 28.6327538495249954
 21.1394848306846654 20.3414995914012344 28.6327538495249954
 29.5952788306846699 20.3414995914012344 28.6327538495249954
 32.4138486447046574 20.3414995914012344 28.6327538495249954
 43.6882970166646629 20.3414995914012344 28.6327538495249954
 62.0091697814501188 37.4283211689214923 28.6327538495249954
 47.9161515954701187 37.4283211689214923 28.6327538495249954
 39.4603575954701142 37.4283211689214923 28.6327538495249954
 33.8232179674301037 37.4283211689214923 28.6327538495249954
 19.7301997814501142 37.4283211689214923 28.6327538495249954
 -5.6371822185498859 37.4283211689214923 28.6327538495249954
 -8.4557520325698885 37.4283211689214923 28.6327538495249954
 -14.0929762185498877 37.4283211689214923 28.6327538495249954
 60.5998848947577358 34.9873675805157234 28.6327538495249954
 52.1440908947577384 34.9873675805157234 28.6327538495249954
 -18.3208309598975099 39.8692747573272612 28.6327538495249954
 46.5068667087777357 34.9873675805157234 28.6327538495249954
 35.2325028947577295 34.9873675805157234 28.6327538495249954
 23.9580545227977240 34.9873675805157234 28.6327538495249954
 18.3209148947577418 34.9873675805157234 28.6327538495249954
 15.5022605227977337 34.9873675805157234 28.6327538495249954
  9.8651208947577302 34.9873675805157234 28.6327538495249954
  7.0464665227977319 34.9873675805157234 28.6327538495249954
 -9.8651214772022673 34.9873675805157234 28.6327538495249954
 -12.6836912912222672 34.9873675805157234 28.6327538495249954
 50.7347637290959668 32.5463407627700150 28.6327538495249954
 45.0976241010559633 32.5463407627700150 28.6327538495249954
 40.8696425227977400 34.9873675805157234 28.6327538495249954
 -9.8650369598975125 39.8692747573272612 28.6327538495249954
 -4.2278973318575099 39.8692747573272612 28.6327538495249954
  1.4093268541224926 39.8692747573272612 28.6327538495249954
 -7.0465094654833562 44.7512551634787386 28.6327538495249954
 -15.5023034654833562 44.7512551634787386 28.6327538495249954
 56.3719878338042619 42.3103015750729767 28.6327538495249954
 53.5533334618442680 42.3103015750729767 28.6327538495249954
 50.7347636478242734 42.3103015750729767 28.6327538495249954
 47.9161938338042646 42.3103015750729767 28.6327538495249954
 42.2789696478242618 42.3103015750729767 28.6327538495249954
 31.0046058338042556 42.3103015750729767 28.6327538495249954
 28.1859514618442688 42.3103015750729767 28.6327538495249954
 25.3673816478242529 42.3103015750729767 28.6327538495249954
 19.7301574618442501 42.3103015750729767 28.6327538495249954
 11.2743634618442599 42.3103015750729767 28.6327538495249954
  5.6372238338042564 42.3103015750729767 28.6327538495249954
  2.8185694618442589 42.3103015750729767 28.6327538495249954
 -0.0000003521757358 42.3103015750729767 28.6327538495249954
 -8.4557943521757366 42.3103015750729767 28.6327538495249954
 60.5998848541225001 39.8692747573272612 28.6327538495249954
 54.9626606681424974 39.8692747573272612 28.6327538495249954
 52.1440908541225028 39.8692747573272612 28.6327538495249954
 49.3255210401024939 39.8692747573272612 28.6327538495249954
 32.4139330401024850 39.8692747573272612 28.6327538495249954
 18.3209148541224920 39.8692747573272612 28.6327538495249954
  4.2278966681424874 39.8692747573272612 28.6327538495249954
 42.2789697290959623 32.5463407627700150 28.6327538495249954
 -1.4092852795033535 44.7512551634787386 28.6327538495249954
 39.4603999150759606 32.5463407627700150 28.6327538495249954
 11.2744481010559561 32.5463407627700150 28.6327538495249954
  2.8185695837512008 27.6644335859584807 28.6327538495249954
 -0.0000002302687971 27.6644335859584807 28.6327538495249954
 -2.8185700442888009 27.6644335859584807 28.6327538495249954
 -11.2743640442888005 27.6644335859584807 28.6327538495249954
 57.7813151620094345 25.2234067682127652 28.6327538495249954
 23.9581391620094379 25.2234067682127652 28.6327538495249954
 12.6836907900494289 25.2234067682127652 28.6327538495249954
  7.0465511620094325 25.2234067682127652 28.6327538495249954
  4.2278967900494315 25.2234067682127652 28.6327538495249954
  1.4093269760294336 25.2234067682127652 28.6327538495249954
 11.2743635837511977 27.6644335859584807 28.6327538495249954
 -4.2278972099505676 25.2234067682127652 28.6327538495249954
 70.4649639033570594 22.7824531798069998 28.6327538495249954
 56.3719457173770593 22.7824531798069998 28.6327538495249954
 25.3674240893370566 22.7824531798069998 28.6327538495249954
 14.0929757173770476 22.7824531798069998 28.6327538495249954
 -5.6371820966429516 22.7824531798069998 28.6327538495249954
 -8.4557519106629488 22.7824531798069998 28.6327538495249954
 -11.2744062826229499 22.7824531798069998 28.6327538495249954
 71.8742488306846781 20.3414995914012344 28.6327538495249954
 60.5998850166646719 20.3414995914012344 28.6327538495249954
 54.9626608306846691 20.3414995914012344 28.6327538495249954
 -7.0464670239705693 25.2234067682127652 28.6327538495249954
 33.8231757697311934 27.6644335859584807 28.6327538495249954
 56.3719879557112051 27.6644335859584807 28.6327538495249954
 59.1905577697312140 27.6644335859584807 28.6327538495249954
  2.8186541010559618 32.5463407627700150 28.6327538495249954
 -0.0000002709040391 32.5463407627700150 28.6327538495249954
 -8.4557942709040379 32.5463407627700150 28.6327538495249954
 -14.0929338989440378 32.5463407627700150 28.6327538495249954
 63.4184970283835838 30.1053871743642461 28.6327538495249954
 60.5998426564235899 30.1053871743642461 28.6327538495249954
 57.7812728424035953 30.1053871743642461 28.6327538495249954
 54.9627030283835865 30.1053871743642461 28.6327538495249954
 49.3254788424035837 30.1053871743642461 28.6327538495249954
 46.5069090283835891 30.1053871743642461 28.6327538495249954
 43.6882546564235881 30.1053871743642461 28.6327538495249954
 40.8696848424035863 30.1053871743642461 28.6327538495249954
 38.0511150283835775 30.1053871743642461 28.6327538495249954
 32.4138908424035748 30.1053871743642461 28.6327538495249954
 29.5953210283835837 30.1053871743642461 28.6327538495249954
 26.7766666564235685 30.1053871743642461 28.6327538495249954
 21.1395270283835863 30.1053871743642461 28.6327538495249954
 15.5023028424035783 30.1053871743642461 28.6327538495249954
 12.6837330283835765 30.1053871743642461 28.6327538495249954
  9.8650786564235791 30.1053871743642461 28.6327538495249954
  1.4092846564235810 30.1053871743642461 28.6327538495249954
 64.8277819557112025 27.6644335859584807 28.6327538495249954
 62.0091275837512086 27.6644335859584807 28.6327538495249954
 33.8231757290959649 32.5463407627700150 28.6327538495249954
 42.2789694040103896 71.6020375533019688 28.6327538495249954
