 H  O 
 1.0000000000000000
    84.5579400000000021    0.0000000000000000    0.0000000000000000
   -42.2789706095346958   73.2293399455724767    0.0000000000000000
     0.0000000000000000    0.0000000000000000   46.9039550000000034
 H   O  
 220 423
Cartesian
  9.8650361065489385 62.6518011664742076 28.1128704123049964
 36.6417453128471564 60.2107743487284921 28.1128704123049964
 26.7766244722697486 18.7141971991307194 28.1128704123049964
 -11.2744065128917477 50.4468867657654769 28.1128704123049964
 22.5488116848071662 60.2107743487284921 28.1128704123049964
 46.5068668442297550 18.7141971991307194 28.1128704123049964
 -16.9116305769648072 35.8010187766509844 28.1128704123049964
 60.5998004722697488 18.7141971991307194 28.1128704123049964
 63.4184548442297569 18.7141971991307194 28.1128704123049964
 19.7301573128471581 60.2107743487284921 28.1128704123049964
 69.0555944722697461 18.7141971991307194 28.1128704123049964
  8.4557934988271644 60.2107743487284921 28.1128704123049964
 -2.8186125128917427 50.4468867657654769 28.1128704123049964
 39.4603996848071645 60.2107743487284921 28.1128704123049964
 -5.6371820830978701 21.1551507875364884 28.1128704123049964
 63.4184547223228137 33.3600651882452155 28.1128704123049964
  2.8185693128471621 60.2107743487284921 28.1128704123049964
  5.6371817309221299 21.1551507875364884 28.1128704123049964
 -0.0000005011728327 60.2107743487284921 28.1128704123049964
  8.4557515449421317 21.1551507875364884 28.1128704123049964
 -0.0000426988717480 50.4468867657654769 28.1128704123049964
 -11.2743643151928357 60.2107743487284921 28.1128704123049964
 25.3673395449421299 21.1551507875364884 28.1128704123049964
 57.7812305363428109 33.3600651882452155 28.1128704123049964
 28.1859939169021310 21.1551507875364884 28.1128704123049964
 31.0045637309221327 21.1551507875364884 28.1128704123049964
 -16.9115885011728366 60.2107743487284921 28.1128704123049964
  5.6372236848071626 60.2107743487284921 28.1128704123049964
 18.3208304722697477 18.7141971991307194 28.1128704123049964
 -0.0000425769648080 35.8010187766509844 28.1128704123049964
 -29.5952795214910651 62.6518011664742076 28.1128704123049964
 32.4138482925289324 62.6518011664742076 28.1128704123049964
 47.9161516090151949 35.8010187766509844 28.1128704123049964
 60.5998427918756022 13.8322167929792403 28.1128704123049964
 18.3208301065489287 62.6518011664742076 28.1128704123049964
 71.8742066058955942 13.8322167929792403 28.1128704123049964
 -2.8185699494720202 16.2731703813850075 28.1128704123049964
  5.6372239286210437 30.9190383704995000 28.1128704123049964
 -0.0000001354520196 16.2731703813850075 28.1128704123049964
  8.4557938645479798 16.2731703813850075 28.1128704123049964
 31.0045636090151895 35.8010187766509844 28.1128704123049964
 14.0930180505279825 16.2731703813850075 28.1128704123049964
  7.0464662925289359 62.6518011664742076 28.1128704123049964
 16.9115878645479825 16.2731703813850075 28.1128704123049964
 19.7301576785679771 16.2731703813850075 28.1128704123049964
 22.5488120505279817 16.2731703813850075 28.1128704123049964
 28.1859937949951949 35.8010187766509844 28.1128704123049964
 36.6417456785679860 16.2731703813850075 28.1128704123049964
 49.3254364144358703 48.0059331773597151 28.1128704123049964
 -4.2278975214910632 62.6518011664742076 28.1128704123049964
 16.9115454230351894 35.8010187766509844 28.1128704123049964
 56.3719880505279747 16.2731703813850075 28.1128704123049964
 14.0929756090151947 35.8010187766509844 28.1128704123049964
 -18.3209157074710660 62.6518011664742076 28.1128704123049964
  8.4557514230351885 35.8010187766509844 28.1128704123049964
 -4.2278971557702505 18.7141971991307194 28.1128704123049964
 -16.9116306988717469 50.4468867657654769 28.1128704123049964
 -1.4093273417502492 18.7141971991307194 28.1128704123049964
 39.4603577309221265 21.1551507875364884 28.1128704123049964
 35.2324605480617166 43.1239527712082307 28.1128704123049964
 -28.1859523151928357 60.2107743487284921 28.1128704123049964
 -33.8231765011728385 60.2107743487284921 28.1128704123049964
 36.6417876730882455 50.4468867657654769 28.1128704123049964
 -28.1860368324975958 55.3288671719169614 28.1128704123049964
 59.1905577426410403 30.9190383704995000 28.1128704123049964
 47.9161094113162704 26.0371311936879657 28.1128704123049964
 52.1440907457606357 52.8878403541712458 28.1128704123049964
 56.3719879286210457 30.9190383704995000 28.1128704123049964
 40.8696423738006303 52.8878403541712458 28.1128704123049964
 -1.4092851440513405 28.4780847820937346 28.1128704123049964
 47.9161514871082517 50.4468867657654769 28.1128704123049964
 45.0975395566610331 30.9190383704995000 28.1128704123049964
 15.5023028559486651 28.4780847820937346 28.1128704123049964
 42.2789697426410385 30.9190383704995000 28.1128704123049964
 21.1394424839886597 28.4780847820937346 28.1128704123049964
 50.7347213011282463 50.4468867657654769 28.1128704123049964
 23.9580968559486607 28.4780847820937346 28.1128704123049964
 29.5952364839886641 28.4780847820937346 28.1128704123049964
 39.4603999286210438 30.9190383704995000 28.1128704123049964
 38.0510304839886544 28.4780847820937346 28.1128704123049964
 40.8696848559486625 28.4780847820937346 28.1128704123049964
 -29.5952794402193682 52.8878403541712458 28.1128704123049964
 54.9626184839886562 28.4780847820937346 28.1128704123049964
 19.7301575566610410 30.9190383704995000 28.1128704123049964
 57.7812728559486644 28.4780847820937346 28.1128704123049964
 66.2370668559486688 28.4780847820937346 28.1128704123049964
 -11.2743640713789581 30.9190383704995000 28.1128704123049964
 -21.1394854402193673 52.8878403541712458 28.1128704123049964
 -8.4557942573589582 30.9190383704995000 28.1128704123049964
 22.5487274113162819 26.0371311936879657 28.1128704123049964
 38.0510724785089351 62.6518011664742076 28.1128704123049964
 16.9115877832762855 26.0371311936879657 28.1128704123049964
 11.2743635972962863 26.0371311936879657 28.1128704123049964
 50.7347215449421185 21.1551507875364884 28.1128704123049964
 40.8696846121347903 57.7698207603227232 28.1128704123049964
 53.5533759169021195 21.1551507875364884 28.1128704123049964
  2.8186116730882564 50.4468867657654769 28.1128704123049964
 62.0091699169021311 21.1551507875364884 28.1128704123049964
 29.5952362401747777 57.7698207603227232 28.1128704123049964
 64.8277397309221328 21.1551507875364884 28.1128704123049964
  4.2278542401747847 57.7698207603227232 28.1128704123049964
 -9.8651213823854889 23.5961043759422537 28.1128704123049964
 -7.0465095738452108 57.7698207603227232 28.1128704123049964
 -21.1395277598252136 57.7698207603227232 28.1128704123049964
 40.8696425363428091 33.3600651882452155 28.1128704123049964
  7.0464666176145112 23.5961043759422537 28.1128704123049964
 45.0975393534824036 55.3288671719169614 28.1128704123049964
 29.5952788035945140 23.5961043759422537 28.1128704123049964
 35.2324183503628063 33.3600651882452155 28.1128704123049964
  8.4557513011282524 50.4468867657654769 28.1128704123049964
 35.2325029895745132 23.5961043759422537 28.1128704123049964
 29.5952787223228171 33.3600651882452155 28.1128704123049964
 31.0045211675023928 55.3288671719169614 28.1128704123049964
 23.9580545363428143 33.3600651882452155 28.1128704123049964
 57.7812306176145043 23.5961043759422537 28.1128704123049964
 66.2370246176145088 23.5961043759422537 28.1128704123049964
 19.7301573534824009 55.3288671719169614 28.1128704123049964
 19.7301996730882578 50.4468867657654769 28.1128704123049964
 -4.2278972776771910 33.3600651882452155 28.1128704123049964
 31.0045634871082498 50.4468867657654769 28.1128704123049964
 -9.8651214636571893 33.3600651882452155 28.1128704123049964
 23.9580544144358711 48.0059331773597151 28.1128704123049964
  8.4557937426410454 30.9190383704995000 28.1128704123049964
 46.5068664785089325 62.6518011664742076 28.1128704123049964
  5.6371390455954664 69.9747351610314468 28.1128704123049964
 -2.8186549544045376 69.9747351610314468 28.1128704123049964
 -23.9580974519382757 43.1239527712082307 28.1128704123049964
 57.7812307801566902  4.0683292100162243 28.1128704123049964
 -14.0930187684245301 69.9747351610314468 28.1128704123049964
 66.2370247801566876  4.0683292100162243 28.1128704123049964
 56.3719032894093317 40.6829991828024689 28.1128704123049964
 -0.0000003792658964 45.5649063596139996 28.1128704123049964
 50.7347636613693425 40.6829991828024689 28.1128704123049964
  2.8186120388090696  6.5092827984219914 28.1128704123049964
 -39.4604007684245346 69.9747351610314468 28.1128704123049964
 11.2744060388090670  6.5092827984219914 28.1128704123049964
 26.7766245941766883  4.0683292100162243 28.1128704123049964
 38.0510724378736924 67.5337083432857384 28.1128704123049964
 22.5487272894093422 40.6829991828024689 28.1128704123049964
 19.7302000388090732  6.5092827984219914 28.1128704123049964
 29.5952784378736951 67.5337083432857384 28.1128704123049964
 28.1859940388090742  6.5092827984219914 28.1128704123049964
 40.8696422925289298 62.6518011664742076 28.1128704123049964
 28.1859514347540951 45.5649063596139996 28.1128704123049964
 64.8277398528290689  6.5092827984219914 28.1128704123049964
 16.9115876613693388 40.6829991828024689 28.1128704123049964
 67.6463096668490635  6.5092827984219914 28.1128704123049964
 78.9207580388090690  6.5092827984219914 28.1128704123049964
 31.0046058067141033 45.5649063596139996 28.1128704123049964
 -12.6836915621263024 67.5337083432857384 28.1128704123049964
 14.0929758528290687  6.5092827984219914 28.1128704123049964
 -1.4093272604785494  8.9502363868277595 28.1128704123049964
 21.1394849661366919  4.0683292100162243 28.1128704123049964
 18.3208305941766909  4.0683292100162243 28.1128704123049964
  2.8185698004749202  1.6273023922705114 28.1128704123049964
 40.8696847340417122 43.1239527712082307 28.1128704123049964
  5.6372241724349186  1.6273023922705114 28.1128704123049964
 14.0930181724349168  1.6273023922705114 28.1128704123049964
 16.9115879864549186  1.6273023922705114 28.1128704123049964
 29.5952363620817174 43.1239527712082307 28.1128704123049964
 23.9580964902278346 72.4156887494372228 28.1128704123049964
 18.3208723042478390 72.4156887494372228 28.1128704123049964
 15.5023024902278443 72.4156887494372228 28.1128704123049964
 39.4604001724349231  1.6273023922705114 28.1128704123049964
 26.7766665480617228 43.1239527712082307 28.1128704123049964
  9.8650783042478416 72.4156887494372228 28.1128704123049964
 -4.2279396379182765 43.1239527712082307 28.1128704123049964
 18.3208725480617254 43.1239527712082307 28.1128704123049964
 15.5023027340417219 43.1239527712082307 28.1128704123049964
 53.5533338004749169  1.6273023922705114 28.1128704123049964
  1.4092843042478451 72.4156887494372228 28.1128704123049964
 -1.4092855097721566 72.4156887494372228 28.1128704123049964
  9.8650785480617262 43.1239527712082307 28.1128704123049964
 -12.6837338817321594 72.4156887494372228 28.1128704123049964
 76.1021459864549144  1.6273023922705114 28.1128704123049964
 -23.9580976957521585 72.4156887494372228 28.1128704123049964
 81.7393701724349171  1.6273023922705114 28.1128704123049964
 -38.0511158817321586 72.4156887494372228 28.1128704123049964
 15.5022607801566892  4.0683292100162243 28.1128704123049964
 33.8231754175554755 69.9747351610314468 28.1128704123049964
 47.9161941724349276  1.6273023922705114 28.1128704123049964
  5.6371392894093386 40.6829991828024689 28.1128704123049964
 45.0975820388090725  6.5092827984219914 28.1128704123049964
 66.2370247395214449  8.9502363868277595 28.1128704123049964
 28.1859517192032243 11.3912632045734714 28.1128704123049964
 25.3673391792213039 65.0927547548799765 28.1128704123049964
 -21.1394853995841281 48.0059331773597151 28.1128704123049964
 -2.8186544667767790 11.3912632045734714 28.1128704123049964
 39.4603155332232234 11.3912632045734714 28.1128704123049964
 15.5022604144358738 48.0059331773597151 28.1128704123049964
 52.1440908676675789 38.2419723650567462 28.1128704123049964
 76.1021459051832210 11.3912632045734714 28.1128704123049964
 -4.2278973183124275 38.2419723650567462 28.1128704123049964
 49.3254364957075708 38.2419723650567462 28.1128704123049964
  8.4557939051832172 11.3912632045734714 28.1128704123049964
 -22.5487704488186900 65.0927547548799765 28.1128704123049964
  1.4092422284558699 48.0059331773597151 28.1128704123049964
 -9.8651215855641290 48.0059331773597151 28.1128704123049964
 16.9115879051832216 11.3912632045734714 28.1128704123049964
 46.5068666816875762 38.2419723650567462 28.1128704123049964
 67.6463519051832236 11.3912632045734714 28.1128704123049964
 56.3719035332232110 11.3912632045734714 28.1128704123049964
  9.8650362284558710 48.0059331773597151 28.1128704123049964
 32.4138487395214483  8.9502363868277595 28.1128704123049964
 -0.0000003386306579 40.6829991828024689 28.1128704123049964
 53.5533334347540944 45.5649063596139996 28.1128704123049964
 45.0975397192032190 11.3912632045734714 28.1128704123049964
 -33.8232188207786848 65.0927547548799765 28.1128704123049964
 -8.4558368207786891 65.0927547548799765 28.1128704123049964
 -16.9115883386306614 40.6829991828024689 28.1128704123049964
 42.2789271792213057 65.0927547548799765 28.1128704123049964
 36.6417457192032217 11.3912632045734714 28.1128704123049964
 49.3254367395214430  8.9502363868277595 28.1128704123049964
 -1.4093275855641247 48.0059331773597151 28.1128704123049964
 -23.9581397715441291 48.0059331773597151 28.1128704123049964
 52.1440911114814512  8.9502363868277595 28.1128704123049964
 15.5022604957075725 38.2419723650567462 28.1128704123049964
 60.5998851114814414  8.9502363868277595 28.1128704123049964
 45.0975394347540970 45.5649063596139996 28.1128704123049964
 -26.7767097481063061 67.5337083432857384 28.1128704123049964
 49.3254364008908013 49.6332355696302230 28.6327538495249954
 47.9161937931690360 47.1922087518845075 28.6327538495249954
 56.3719878338042619 42.3103015750729767 28.6327538495249954
 46.5068665868708067 49.6332355696302230 28.6327538495249954
 32.4138907204966458 44.7512551634787386 28.6327538495249954
 52.1440907728507952 49.6332355696302230 28.6327538495249954
 11.2744479791490271 47.1922087518845075 28.6327538495249954
 45.0976239791490272 47.1922087518845075 28.6327538495249954
 16.9115876071890092 47.1922087518845075 28.6327538495249954
 42.2789696071890333 47.1922087518845075 28.6327538495249954
 19.7302419791490244 47.1922087518845075 28.6327538495249954
 31.0046057931690235 47.1922087518845075 28.6327538495249954
 -28.1859945264368292 52.0741891580359919 28.6327538495249954
 -22.5487703404568300 52.0741891580359919 28.6327538495249954
 22.5488117931690120 47.1922087518845075 28.6327538495249954
 28.1860359791490147 47.1922087518845075 28.6327538495249954
 42.2789696478242618 42.3103015750729767 28.6327538495249954
 38.0510725868707951 49.6332355696302230 28.6327538495249954
 -8.4557943928109793 47.1922087518845075 28.6327538495249954
 -0.0000003928109814 47.1922087518845075 28.6327538495249954
 -1.4093275991092098 49.6332355696302230 28.6327538495249954
 29.5953209064766369 44.7512551634787386 28.6327538495249954
  1.4093267728507877 49.6332355696302230 28.6327538495249954
 57.7812727204966521 44.7512551634787386 28.6327538495249954
 -9.8651215991092069 49.6332355696302230 28.6327538495249954
 26.7766665345166501 44.7512551634787386 28.6327538495249954
 -22.5487280208509766 47.1922087518845075 28.6327538495249954
 15.5023027204966439 44.7512551634787386 28.6327538495249954
  4.2278965868707896 49.6332355696302230 28.6327538495249954
 -12.6836914131292051 49.6332355696302230 28.6327538495249954
  9.8650785345166412 44.7512551634787386 28.6327538495249954
  7.0465087204966403 44.7512551634787386 28.6327538495249954
  7.0464664008907913 49.6332355696302230 28.6327538495249954
 -15.5022612271492086 49.6332355696302230 28.6327538495249954
 -11.2743642068309775 47.1922087518845075 28.6327538495249954
 -9.8650792795033553 44.7512551634787386 28.6327538495249954
  9.8651207728507995 49.6332355696302230 28.6327538495249954
 18.3209147728507951 49.6332355696302230 28.6327538495249954
 -12.6836490935233588 44.7512551634787386 28.6327538495249954
 -21.1394430935233544 44.7512551634787386 28.6327538495249954
 40.8696847204966431 44.7512551634787386 28.6327538495249954
 21.1394845868707826 49.6332355696302230 28.6327538495249954
 23.9580544008907985 49.6332355696302230 28.6327538495249954
 -2.8185702068309761 47.1922087518845075 28.6327538495249954
 -18.3209155991092061 49.6332355696302230 28.6327538495249954
 -21.1394854131292078 49.6332355696302230 28.6327538495249954
 -23.9580974654833554 44.7512551634787386 28.6327538495249954
 59.1905576478242708 42.3103015750729767 28.6327538495249954
  1.4092849002374601  0.8136511961352557 28.6327538495249954
 -21.1394432154303011 59.3971231525932382 28.6327538495249954
 -11.2744065264368292 52.0741891580359919 28.6327538495249954
 -28.1859946483437653 66.7200571471504844 28.6327538495249954
 -31.0045644623637671 66.7200571471504844 28.6327538495249954
 -36.6417886483437698 66.7200571471504844 28.6327538495249954
 46.5068664649638706 64.2791035587447084 28.6327538495249954
 40.8696422789838678 64.2791035587447084 28.6327538495249954
 38.0510724649638732 64.2791035587447084 28.6327538495249954
 35.2325026509438644 64.2791035587447084 28.6327538495249954
 23.9580542789838589 64.2791035587447084 28.6327538495249954
 21.1394844649638500 64.2791035587447084 28.6327538495249954
 18.3209146509438554 64.2791035587447084 28.6327538495249954
 15.5022602789838597 64.2791035587447084 28.6327538495249954
 12.6836904649638509 64.2791035587447084 28.6327538495249954
 -25.3673402763837679 66.7200571471504844 28.6327538495249954
  9.8651206509438563 64.2791035587447084 28.6327538495249954
 -1.4093277210161486 64.2791035587447084 28.6327538495249954
 -4.2278975350361501 64.2791035587447084 28.6327538495249954
 -7.0464673490561447 64.2791035587447084 28.6327538495249954
 -9.8651217210161430 64.2791035587447084 28.6327538495249954
 -12.6836915350361448 64.2791035587447084 28.6327538495249954
 -18.3209157210161457 64.2791035587447084 28.6327538495249954
 -21.1394855350361439 64.2791035587447084 28.6327538495249954
 -23.9580553490561456 64.2791035587447084 28.6327538495249954
 -26.7767097210161431 64.2791035587447084 28.6327538495249954
 -29.5952795350361448 64.2791035587447084 28.6327538495249954
 -32.4138493490561430 64.2791035587447084 28.6327538495249954
 -35.2325037210161440 64.2791035587447084 28.6327538495249954
  7.0464662789838490 64.2791035587447084 28.6327538495249954
 39.4603996712620955 61.8380767409990000 28.6327538495249954
 -22.5487704623637697 66.7200571471504844 28.6327538495249954
 -11.2744066483437688 66.7200571471504844 28.6327538495249954
 31.0046055899903834 71.6020375533019688 28.6327538495249954
 25.3673814040103807 71.6020375533019688 28.6327538495249954
 14.0930175899903762 71.6020375533019688 28.6327538495249954
  8.4557934040103735 71.6020375533019688 28.6327538495249954
  5.6372235899903860 71.6020375533019688 28.6327538495249954
  2.8185692180303707 71.6020375533019688 28.6327538495249954
 -0.0000005959896168 71.6020375533019688 28.6327538495249954
 -2.8185704100096114 71.6020375533019688 28.6327538495249954
 -14.0930187819696204 71.6020375533019688 28.6327538495249954
 -36.6417464100096169 71.6020375533019688 28.6327538495249954
 32.4139327962886199 69.1610107355562462 28.6327538495249954
 29.5952784243286260 69.1610107355562462 28.6327538495249954
 -14.0929764623637634 66.7200571471504844 28.6327538495249954
 23.9581387962886225 69.1610107355562462 28.6327538495249954
 -12.6836915756713875 69.1610107355562462 28.6327538495249954
 -15.5022613896913821 69.1610107355562462 28.6327538495249954
 -26.7766252037113830 69.1610107355562462 28.6327538495249954
 -35.2324192037113804 69.1610107355562462 28.6327538495249954
 -38.0510735756713814 69.1610107355562462 28.6327538495249954
 45.0975815376362448 66.7200571471504844 28.6327538495249954
 33.8232177236162386 66.7200571471504844 28.6327538495249954
 31.0045633516562411 66.7200571471504844 28.6327538495249954
 16.9116297236162261 66.7200571471504844 28.6327538495249954
 14.0929753516562410 66.7200571471504844 28.6327538495249954
 11.2744055376362251 66.7200571471504844 28.6327538495249954
 -5.6371824623637705 66.7200571471504844 28.6327538495249954
 -9.8650372037113900 69.1610107355562462 28.6327538495249954
 -19.7302005264368283 52.0741891580359919 28.6327538495249954
 36.6418298572420866 61.8380767409990000 28.6327538495249954
 22.5488116712620865 61.8380767409990000 28.6327538495249954
 38.0510725462355595 54.5151427464417537 28.6327538495249954
 32.4139329181955560 54.5151427464417537 28.6327538495249954
 29.5952785462355585 54.5151427464417537 28.6327538495249954
 21.1394845462355612 54.5151427464417537 28.6327538495249954
 18.3209147322155452 54.5151427464417537 28.6327538495249954
  9.8651207322155532 54.5151427464417537 28.6327538495249954
 -4.2278974537644496 54.5151427464417537 28.6327538495249954
 -7.0464672677844442 54.5151427464417537 28.6327538495249954
 -9.8650370818044468 54.5151427464417537 28.6327538495249954
 -23.9580552677844487 54.5151427464417537 28.6327538495249954
 -26.7766250818044469 54.5151427464417537 28.6327538495249954
 -29.5952794537644479 54.5151427464417537 28.6327538495249954
 40.8697269181955534 54.5151427464417537 28.6327538495249954
 53.5533756595431782 52.0741891580359919 28.6327538495249954
 42.2790118455231720 52.0741891580359919 28.6327538495249954
 39.4603574735631781 52.0741891580359919 28.6327538495249954
 36.6417876595431693 52.0741891580359919 28.6327538495249954
 31.0045634735631737 52.0741891580359919 28.6327538495249954
 22.5487694735631763 52.0741891580359919 28.6327538495249954
 19.7301996595431604 52.0741891580359919 28.6327538495249954
 16.9116298455231728 52.0741891580359919 28.6327538495249954
  8.4558358455231772 52.0741891580359919 28.6327538495249954
  5.6371814735631682 52.0741891580359919 28.6327538495249954
  2.8186116595431669 52.0741891580359919 28.6327538495249954
 -5.6371823404568273 52.0741891580359919 28.6327538495249954
 -8.4557521544768282 52.0741891580359919 28.6327538495249954
 50.7348058455231694 52.0741891580359919 28.6327538495249954
 31.0046056712620839 61.8380767409990000 28.6327538495249954
 43.6882967322155622 54.5151427464417537 28.6327538495249954
 -28.1859522881026763 56.9561695641874692 28.6327538495249954
 19.7302418572420777 61.8380767409990000 28.6327538495249954
 11.2744478572420874 61.8380767409990000 28.6327538495249954
  8.4557934852820722 61.8380767409990000 28.6327538495249954
  5.6372236712620847 61.8380767409990000 28.6327538495249954
  2.8186538572420905 61.8380767409990000 28.6327538495249954
 -0.0000005147179177 61.8380767409990000 28.6327538495249954
 -2.8185703287379194 61.8380767409990000 28.6327538495249954
 -5.6371401427579215 61.8380767409990000 28.6327538495249954
 -14.0929341427579153 61.8380767409990000 28.6327538495249954
 -16.9115885147179164 61.8380767409990000 28.6327538495249954
 -19.7301583287379145 61.8380767409990000 28.6327538495249954
 -28.1859523287379155 61.8380767409990000 28.6327538495249954
 52.1440907322155596 54.5151427464417537 28.6327538495249954
 -33.8231765147179146 61.8380767409990000 28.6327538495249954
 29.5953207845697079 59.3971231525932382 28.6327538495249954
 23.9580965985897052 59.3971231525932382 28.6327538495249954
 21.1395267845696964 59.3971231525932382 28.6327538495249954
 18.3208724126097096 59.3971231525932382 28.6327538495249954
  7.0465085985897025 59.3971231525932382 28.6327538495249954
  4.2279387845697078 59.3971231525932382 28.6327538495249954
 -1.4092854014103018 59.3971231525932382 28.6327538495249954
 -9.8650794014102949 59.3971231525932382 28.6327538495249954
 -12.6836492154302967 59.3971231525932382 28.6327538495249954
 -15.5023035873902977 59.3971231525932382 28.6327538495249954
 31.0046057118973302 56.9561695641874692 28.6327538495249954
 19.7301573399373318 56.9561695641874692 28.6327538495249954
 40.8696845985897141 59.3971231525932382 28.6327538495249954
 39.4603998338042672 42.3103015750729767 28.6327538495249954
 26.7767088947577392 34.9873675805157234 28.6327538495249954
 31.0046058338042556 42.3103015750729767 28.6327538495249954
 -1.4092850356894804 15.4595191852497500 28.6327538495249954
 73.2835760776181360 13.0185655968439828 28.6327538495249954
 70.4649217056581421 13.0185655968439828 28.6327538495249954
 67.6463518916381474 13.0185655968439828 28.6327538495249954
 59.1905578916381430 13.0185655968439828 28.6327538495249954
 56.3719880776181483 13.0185655968439828 28.6327538495249954
 53.5533337056581473 13.0185655968439828 28.6327538495249954
 50.7347638916381456 13.0185655968439828 28.6327538495249954
 45.0975397056581500 13.0185655968439828 28.6327538495249954
 39.4604000776181465 13.0185655968439828 28.6327538495249954
 36.6417457056581313 13.0185655968439828 28.6327538495249954
 33.8231758916381438 13.0185655968439828 28.6327538495249954
 28.1859517056581375 13.0185655968439828 28.6327538495249954
  8.4557938916381428 13.0185655968439828 28.6327538495249954
  5.6372240776181393 13.0185655968439828 28.6327538495249954
 77.5114730979363742 10.5775387790982709 28.6327538495249954
 74.6929032839163654 10.5775387790982709 28.6327538495249954
 71.8742489119563714 10.5775387790982709 28.6327538495249954
 60.5998850979363723 10.5775387790982709 28.6327538495249954
 57.7813152839163777 10.5775387790982709 28.6327538495249954
 54.9626609119563767 10.5775387790982709 28.6327538495249954
 49.3255212839163661 10.5775387790982709 28.6327538495249954
 46.5068669119563793 10.5775387790982709 28.6327538495249954
 40.8697272839163759 10.5775387790982709 28.6327538495249954
 38.0510729119563607 10.5775387790982709 28.6327538495249954
 35.2325030979363731 10.5775387790982709 28.6327538495249954
 29.5952789119563668 10.5775387790982709 28.6327538495249954
  9.8650787783305205 15.4595191852497500 28.6327538495249954
 15.5023029643105232 15.4595191852497500 28.6327538495249954
 18.3208727783305179 15.4595191852497500 28.6327538495249954
 29.5953211502905269 15.4595191852497500 28.6327538495249954
 18.3209150166646637 20.3414995914012344 28.6327538495249954
 15.5022606447046662 20.3414995914012344 28.6327538495249954
  7.0464666447046698 20.3414995914012344 28.6327538495249954
  4.2278968306846716 20.3414995914012344 28.6327538495249954
 -1.4093273552953294 20.3414995914012344 28.6327538495249954
 -4.2278971693153311 20.3414995914012344 28.6327538495249954
 -7.0464669833353293 20.3414995914012344 28.6327538495249954
 -9.8651213552953294 20.3414995914012344 28.6327538495249954
 67.6463518510029047 17.9004727736555189 28.6327538495249954
 64.8277820369829101 17.9004727736555189 28.6327538495249954
 47.9161940369829011 17.9004727736555189 28.6327538495249954
 45.0976242229628923 17.9004727736555189 28.6327538495249954
 42.2789698510029055 17.9004727736555189 28.6327538495249954
 26.7767090979363651 10.5775387790982709 28.6327538495249954
 28.1860362229629082 17.9004727736555189 28.6327538495249954
 19.7302422229628966 17.9004727736555189 28.6327538495249954
 16.9115878510028992 17.9004727736555189 28.6327538495249954
 14.0930180369829028 17.9004727736555189 28.6327538495249954
 -0.0000001489970986 17.9004727736555189 28.6327538495249954
 -2.8185699630171004 17.9004727736555189 28.6327538495249954
 -5.6371397770370981 17.9004727736555189 28.6327538495249954
 74.6928609643105261 15.4595191852497500 28.6327538495249954
 71.8742911502905173 15.4595191852497500 28.6327538495249954
 54.9627031502905297 15.4595191852497500 28.6327538495249954
 52.1440487783305286 15.4595191852497500 28.6327538495249954
 43.6882547783305313 15.4595191852497500 28.6327538495249954
 40.8696849643105153 15.4595191852497500 28.6327538495249954
 38.0511151502905278 15.4595191852497500 28.6327538495249954
 22.5488120369828984 17.9004727736555189 28.6327538495249954
 21.1394849119563659 10.5775387790982709 28.6327538495249954
  9.8651210979363722 10.5775387790982709 28.6327538495249954
  7.0465512839163686 10.5775387790982709 28.6327538495249954
 64.8277821588898462  3.2546047845410229 28.6327538495249954
 56.3719881588898417  3.2546047845410229 28.6327538495249954
 50.7347639729098461  3.2546047845410229 28.6327538495249954
 47.9161941588898301  3.2546047845410229 28.6327538495249954
 39.4604001588898399  3.2546047845410229 28.6327538495249954
 36.6418303448698452  3.2546047845410229 28.6327538495249954
 33.8231759729098371  3.2546047845410229 28.6327538495249954
 19.7302423448698399  3.2546047845410229 28.6327538495249954
 16.9115879729098388  3.2546047845410229 28.6327538495249954
 14.0930181588898407  3.2546047845410229 28.6327538495249954
 -0.0000000270901599  3.2546047845410229 28.6327538495249954
 80.3300852721974650  0.8136511961352557 28.6327538495249954
 77.5114309002374711  0.8136511961352557 28.6327538495249954
 67.6463519729098550  3.2546047845410229 28.6327538495249954
 66.2370670862174649  0.8136511961352557 28.6327538495249954
 60.5998429002374621  0.8136511961352557 28.6327538495249954
 57.7812730862174604  0.8136511961352557 28.6327538495249954
 54.9627032721974516  0.8136511961352557 28.6327538495249954
 52.1440489002374647  0.8136511961352557 28.6327538495249954
 49.3254790862174488  0.8136511961352557 28.6327538495249954
 46.5069092721974613  0.8136511961352557 28.6327538495249954
 43.6882549002374461  0.8136511961352557 28.6327538495249954
 40.8696850862174585  0.8136511961352557 28.6327538495249954
 38.0511152721974639  0.8136511961352557 28.6327538495249954
 35.2324609002374558  0.8136511961352557 28.6327538495249954
 21.1395272721974621  0.8136511961352557 28.6327538495249954
 18.3208729002374611  0.8136511961352557 28.6327538495249954
  4.2279392721974602  0.8136511961352557 28.6327538495249954
 63.4184972721974631  0.8136511961352557 28.6327538495249954
 23.9580546447046672 20.3414995914012344 28.6327538495249954
 76.1021459729098524  3.2546047845410229 28.6327538495249954
 -1.4093272333883895  5.6956316022867357 28.6327538495249954
  4.2278969119563712 10.5775387790982709 28.6327538495249954
 -1.4092427160836287 10.5775387790982709 28.6327538495249954
 78.9207580252639929  8.1365851906925037 28.6327538495249954
 67.6463942112439867  8.1365851906925037 28.6327538495249954
 64.8277398392839928  8.1365851906925037 28.6327538495249954
 59.1906002112439964  8.1365851906925037 28.6327538495249954
 50.7348062112439848  8.1365851906925037 28.6327538495249954
 36.6417880252639918  8.1365851906925037 28.6327538495249954
 31.0045638392839891  8.1365851906925037 28.6327538495249954
 28.1859940252639873  8.1365851906925037 28.6327538495249954
 25.3674242112439856  8.1365851906925037 28.6327538495249954
 22.5487698392839881  8.1365851906925037 28.6327538495249954
 19.7302000252639935  8.1365851906925037 28.6327538495249954
 81.7393701588898551  3.2546047845410229 28.6327538495249954
 16.9116302112439918  8.1365851906925037 28.6327538495249954
  0.0000422112439907  8.1365851906925037 28.6327538495249954
 -2.8186121607160102  8.1365851906925037 28.6327538495249954
 80.3300429525916257  5.6956316022867357 28.6327538495249954
 69.0556791385716195  5.6956316022867357 28.6327538495249954
 66.2370247666116256  5.6956316022867357 28.6327538495249954
 46.5068669525916008  5.6956316022867357 28.6327538495249954
 29.5952789525916060  5.6956316022867357 28.6327538495249954
 26.7767091385716043  5.6956316022867357 28.6327538495249954
 18.3209151385716105  5.6956316022867357 28.6327538495249954
 15.5022607666116095  5.6956316022867357 28.6327538495249954
 12.6836909525916113  5.6956316022867357 28.6327538495249954
  9.8651211385716078  5.6956316022867357 28.6327538495249954
  7.0464667666116103  5.6956316022867357 28.6327538495249954
  8.4558362112439873  8.1365851906925037 28.6327538495249954
 36.6417454618442662 42.3103015750729767 28.6327538495249954
 26.7767090166646753 20.3414995914012344 28.6327538495249954
 38.0510728306846602 20.3414995914012344 28.6327538495249954
 -14.0929762185498877 37.4283211689214923 28.6327538495249954
 -16.9115460325698876 37.4283211689214923 28.6327538495249954
 -19.7302004045298887 37.4283211689214923 28.6327538495249954
 63.4184547087777446 34.9873675805157234 28.6327538495249954
 52.1440908947577384 34.9873675805157234 28.6327538495249954
 49.3254365227977445 34.9873675805157234 28.6327538495249954
 46.5068667087777357 34.9873675805157234 28.6327538495249954
 35.2325028947577295 34.9873675805157234 28.6327538495249954
 32.4138485227977426 34.9873675805157234 28.6327538495249954
 29.5952787087777267 34.9873675805157234 28.6327538495249954
 33.8231754040103922 71.6020375533019688 28.6327538495249954
 18.3209148947577418 34.9873675805157234 28.6327538495249954
 15.5022605227977337 34.9873675805157234 28.6327538495249954
  7.0464665227977319 34.9873675805157234 28.6327538495249954
 -1.4093274772022688 34.9873675805157234 28.6327538495249954
 -4.2278972912222672 34.9873675805157234 28.6327538495249954
 -15.5022611052422672 34.9873675805157234 28.6327538495249954
 -18.3209154772022664 34.9873675805157234 28.6327538495249954
 64.8277819150759740 32.5463407627700150 28.6327538495249954
 62.0092121010559580 32.5463407627700150 28.6327538495249954
 59.1905577290959641 32.5463407627700150 28.6327538495249954
 50.7347637290959668 32.5463407627700150 28.6327538495249954
 47.9161939150759579 32.5463407627700150 28.6327538495249954
 42.2789697290959623 32.5463407627700150 28.6327538495249954
 39.4603999150759606 32.5463407627700150 28.6327538495249954
 31.0046059150759525 32.5463407627700150 28.6327538495249954
 28.1860361010559650 32.5463407627700150 28.6327538495249954
 -2.8186124045298877 37.4283211689214923 28.6327538495249954
  0.0000419674301133 37.4283211689214923 28.6327538495249954
  2.8186117814501150 37.4283211689214923 28.6327538495249954
 16.9116299674301196 37.4283211689214923 28.6327538495249954
 16.9115876478242626 42.3103015750729767 28.6327538495249954
 11.2743634618442599 42.3103015750729767 28.6327538495249954
  8.4557936478242581 42.3103015750729767 28.6327538495249954
 -0.0000003521757358 42.3103015750729767 28.6327538495249954
 -11.2743641661957401 42.3103015750729767 28.6327538495249954
 -22.5488125381557367 42.3103015750729767 28.6327538495249954
 60.5998848541225001 39.8692747573272612 28.6327538495249954
 54.9626606681424974 39.8692747573272612 28.6327538495249954
 52.1440908541225028 39.8692747573272612 28.6327538495249954
 40.8697270401024966 39.8692747573272612 28.6327538495249954
 38.0510726681424956 39.8692747573272612 28.6327538495249954
 21.1394846681424795 39.8692747573272612 28.6327538495249954
 18.3209148541224920 39.8692747573272612 28.6327538495249954
 22.5488119150759623 32.5463407627700150 28.6327538495249954
 15.5023450401024956 39.8692747573272612 28.6327538495249954
  7.0465510401024849 39.8692747573272612 28.6327538495249954
  4.2278966681424874 39.8692747573272612 28.6327538495249954
  1.4093268541224926 39.8692747573272612 28.6327538495249954
 -1.4092429598975091 39.8692747573272612 28.6327538495249954
 -4.2278973318575099 39.8692747573272612 28.6327538495249954
 -9.8650369598975125 39.8692747573272612 28.6327538495249954
 -15.5022611458775117 39.8692747573272612 28.6327538495249954
 -21.1394853318575109 39.8692747573272612 28.6327538495249954
 50.7348059674301126 37.4283211689214923 28.6327538495249954
 47.9161515954701187 37.4283211689214923 28.6327538495249954
 33.8232179674301037 37.4283211689214923 28.6327538495249954
 31.0045635954701204 37.4283211689214923 28.6327538495249954
 28.1859937814501045 37.4283211689214923 28.6327538495249954
  9.8651208541224857 39.8692747573272612 28.6327538495249954
 16.9115877290959595 32.5463407627700150 28.6327538495249954
  5.6372239150759640 32.5463407627700150 28.6327538495249954
 -5.6371398989440404 32.5463407627700150 28.6327538495249954
 32.4139331620094353 25.2234067682127652 28.6327538495249954
 12.6836907900494289 25.2234067682127652 28.6327538495249954
  7.0465511620094325 25.2234067682127652 28.6327538495249954
  1.4093269760294336 25.2234067682127652 28.6327538495249954
 -9.8650368379905675 25.2234067682127652 28.6327538495249954
 -12.6836912099505668 25.2234067682127652 28.6327538495249954
 70.4649639033570594 22.7824531798069998 28.6327538495249954
 67.6463940893370506 22.7824531798069998 28.6327538495249954
 64.8277397173770566 22.7824531798069998 28.6327538495249954
 56.3719457173770593 22.7824531798069998 28.6327538495249954
 53.5533759033570504 22.7824531798069998 28.6327538495249954
 45.0975819033570531 22.7824531798069998 28.6327538495249954
 39.4603577173770574 22.7824531798069998 28.6327538495249954
 35.2325029760294228 25.2234067682127652 28.6327538495249954
 33.8232180893370540 22.7824531798069998 28.6327538495249954
 28.1859939033570512 22.7824531798069998 28.6327538495249954
  8.4558360893370512 22.7824531798069998 28.6327538495249954
  5.6371817173770493 22.7824531798069998 28.6327538495249954
  2.8186119033570516 22.7824531798069998 28.6327538495249954
 -8.4557519106629488 22.7824531798069998 28.6327538495249954
 -11.2744062826229499 22.7824531798069998 28.6327538495249954
 66.2370246447046753 20.3414995914012344 28.6327538495249954
 63.4184548306846807 20.3414995914012344 28.6327538495249954
 60.5998850166646719 20.3414995914012344 28.6327538495249954
 52.1440910166646745 20.3414995914012344 28.6327538495249954
 49.3254366447046735 20.3414995914012344 28.6327538495249954
 43.6882970166646629 20.3414995914012344 28.6327538495249954
 40.8696426447046761 20.3414995914012344 28.6327538495249954
 31.0045637173770388 22.7824531798069998 28.6327538495249954
 29.5952788306846699 20.3414995914012344 28.6327538495249954
 38.0510727900494388 25.2234067682127652 28.6327538495249954
 57.7813151620094345 25.2234067682127652 28.6327538495249954
 -8.4557942709040379 32.5463407627700150 28.6327538495249954
 60.5998426564235899 30.1053871743642461 28.6327538495249954
 57.7812728424035953 30.1053871743642461 28.6327538495249954
 54.9627030283835865 30.1053871743642461 28.6327538495249954
 46.5069090283835891 30.1053871743642461 28.6327538495249954
 43.6882546564235881 30.1053871743642461 28.6327538495249954
 40.8696848424035863 30.1053871743642461 28.6327538495249954
 29.5953210283835837 30.1053871743642461 28.6327538495249954
 21.1395270283835863 30.1053871743642461 28.6327538495249954
 18.3208726564235782 30.1053871743642461 28.6327538495249954
 15.5023028424035783 30.1053871743642461 28.6327538495249954
  9.8650786564235791 30.1053871743642461 28.6327538495249954
  7.0465088424035836 30.1053871743642461 28.6327538495249954
 54.9626607900494406 25.2234067682127652 28.6327538495249954
 -9.8650791575964192 30.1053871743642461 28.6327538495249954
 67.6463517697312113 27.6644335859584807 28.6327538495249954
 56.3719879557112051 27.6644335859584807 28.6327538495249954
 42.2789697697312050 27.6644335859584807 28.6327538495249954
 39.4603999557111962 27.6644335859584807 28.6327538495249954
 36.6417455837512094 27.6644335859584807 28.6327538495249954
 22.5488119557112086 27.6644335859584807 28.6327538495249954
 16.9115877697311987 27.6644335859584807 28.6327538495249954
 14.0930179557111952 27.6644335859584807 28.6327538495249954
 11.2743635837511977 27.6644335859584807 28.6327538495249954
 -0.0000002302687971 27.6644335859584807 28.6327538495249954
 -2.8185700442888009 27.6644335859584807 28.6327538495249954
 -11.2743640442888005 27.6644335859584807 28.6327538495249954
 69.0556789760294407 25.2234067682127652 28.6327538495249954
 -12.6836489716164174 30.1053871743642461 28.6327538495249954
 36.6417452180303869 71.6020375533019688 28.6327538495249954
