 H  O 
 1.0000000000000000
    84.5579400000000021    0.0000000000000000    0.0000000000000000
   -42.2789706095346958   73.2293399455724767    0.0000000000000000
     0.0000000000000000    0.0000000000000000   46.9039550000000034
 H   O  
 202 434
Cartesian
 32.4138907340417219 43.1239527712082307 28.1128704123049964
  4.2278968442297478 18.7141971991307194 28.1128704123049964
 -35.2325037074710679 62.6518011664742076 28.1128704123049964
  9.8650364722697521 18.7141971991307194 28.1128704123049964
 28.1859937949951949 35.8010187766509844 28.1128704123049964
 18.3208304722697477 18.7141971991307194 28.1128704123049964
 42.2789694988271592 60.2107743487284921 28.1128704123049964
 21.1394848442297523 18.7141971991307194 28.1128704123049964
  5.6371814871082586 50.4468867657654769 28.1128704123049964
 43.6882124722697469 18.7141971991307194 28.1128704123049964
  8.4557513011282524 50.4468867657654769 28.1128704123049964
 25.3673814988271609 60.2107743487284921 28.1128704123049964
 36.6417877949951958 35.8010187766509844 28.1128704123049964
  8.4557514230351885 35.8010187766509844 28.1128704123049964
 11.2743633128471661 60.2107743487284921 28.1128704123049964
  2.8186117949951930 35.8010187766509844 28.1128704123049964
  8.4557934988271644 60.2107743487284921 28.1128704123049964
 11.2744056730882534 50.4468867657654769 28.1128704123049964
 -0.0000005011728327 60.2107743487284921 28.1128704123049964
 -8.4557945011728339 60.2107743487284921 28.1128704123049964
 -5.6371822050048115 35.8010187766509844 28.1128704123049964
 16.9115453011282568 50.4468867657654769 28.1128704123049964
 31.0045637309221327 21.1551507875364884 28.1128704123049964
 19.7301996730882578 50.4468867657654769 28.1128704123049964
 42.2789275449421211 21.1551507875364884 28.1128704123049964
 22.5488116848071662 60.2107743487284921 28.1128704123049964
 -29.5952795214910651 62.6518011664742076 28.1128704123049964
 -9.8651213417502497 18.7141971991307194 28.1128704123049964
 39.4603576090151904 35.8010187766509844 28.1128704123049964
 52.1440487918755977 13.8322167929792403 28.1128704123049964
 38.0510724785089351 62.6518011664742076 28.1128704123049964
 -15.5022611323324266 38.2419723650567462 28.1128704123049964
 26.7766241065489261 62.6518011664742076 28.1128704123049964
 54.9626606004158731 48.0059331773597151 28.1128704123049964
 21.1394845597806302 52.8878403541712458 28.1128704123049964
 -5.6372243214320203 16.2731703813850075 28.1128704123049964
 21.1394844785089369 62.6518011664742076 28.1128704123049964
 -2.8185699494720202 16.2731703813850075 28.1128704123049964
  8.4557938645479798 16.2731703813850075 28.1128704123049964
 11.2743636785679815 16.2731703813850075 28.1128704123049964
  9.8650361065489385 62.6518011664742076 28.1128704123049964
  7.0464662925289359 62.6518011664742076 28.1128704123049964
 22.5488120505279817 16.2731703813850075 28.1128704123049964
 53.5533757949951976 35.8010187766509844 28.1128704123049964
 -5.6371823269117440 50.4468867657654769 28.1128704123049964
 33.8231758645479843 16.2731703813850075 28.1128704123049964
 50.7347214230351895 35.8010187766509844 28.1128704123049964
 42.2789698645479817 16.2731703813850075 28.1128704123049964
 -4.2278975214910632 62.6518011664742076 28.1128704123049964
 50.7347638645479790 16.2731703813850075 28.1128704123049964
 42.2789274230351850 35.8010187766509844 28.1128704123049964
 53.5533336785679737 16.2731703813850075 28.1128704123049964
 -15.5023458934510643 62.6518011664742076 28.1128704123049964
 -23.9581398934510652 62.6518011664742076 28.1128704123049964
 -19.7302003909848089 35.8010187766509844 28.1128704123049964
 43.6882547918756003 13.8322167929792403 28.1128704123049964
 60.5998003503628055 33.3600651882452155 28.1128704123049964
 59.1905155449421230 21.1551507875364884 28.1128704123049964
 50.7347637832762715 26.0371311936879657 28.1128704123049964
 -29.5952794402193682 52.8878403541712458 28.1128704123049964
 -15.5023456496371885 33.3600651882452155 28.1128704123049964
 14.0929331675024070 55.3288671719169614 28.1128704123049964
 62.0091275972962777 26.0371311936879657 28.1128704123049964
 64.8276974113162794 26.0371311936879657 28.1128704123049964
  2.8185693534824074 55.3288671719169614 28.1128704123049964
 -15.5023033300313369 28.4780847820937346 28.1128704123049964
 -23.9580552542393690 52.8878403541712458 28.1128704123049964
 -15.5022612542393716 52.8878403541712458 28.1128704123049964
 -8.4557944605375948 55.3288671719169614 28.1128704123049964
 45.0975395972962758 26.0371311936879657 28.1128704123049964
 25.3673817426410437 30.9190383704995000 28.1128704123049964
  7.0465088559486642 28.4780847820937346 28.1128704123049964
 -4.2278974402193654 52.8878403541712458 28.1128704123049964
  9.8650786699686659 28.4780847820937346 28.1128704123049964
 16.9115877426410464 30.9190383704995000 28.1128704123049964
 21.1394424839886597 28.4780847820937346 28.1128704123049964
 26.7766666699686624 28.4780847820937346 28.1128704123049964
 11.2743635566610401 30.9190383704995000 28.1128704123049964
 40.8696848559486625 28.4780847820937346 28.1128704123049964
 38.0510725597806356 52.8878403541712458 28.1128704123049964
 29.5952785597806276 52.8878403541712458 28.1128704123049964
  9.8651207457606311 52.8878403541712458 28.1128704123049964
 -19.7302428324975985 55.3288671719169614 28.1128704123049964
 -7.0465516496371885 33.3600651882452155 28.1128704123049964
 36.6417455972962784 26.0371311936879657 28.1128704123049964
 39.4603151675024009 55.3288671719169614 28.1128704123049964
 29.5952363620817174 43.1239527712082307 28.1128704123049964
 -12.6836911964054888 23.5961043759422537 28.1128704123049964
 35.2324604261547876 57.7698207603227232 28.1128704123049964
 -7.0464670104254905 23.5961043759422537 28.1128704123049964
 54.9626607223228163 33.3600651882452155 28.1128704123049964
  1.4093269895745080 23.5961043759422537 28.1128704123049964
 52.1440063503628082 33.3600651882452155 28.1128704123049964
 29.5952362401747777 57.7698207603227232 28.1128704123049964
 18.3209149895745149 23.5961043759422537 28.1128704123049964
 22.5487694871082525 50.4468867657654769 28.1128704123049964
 26.7767089895745123 23.5961043759422537 28.1128704123049964
 40.8696425363428091 33.3600651882452155 28.1128704123049964
 33.8231333011282445 50.4468867657654769 28.1128704123049964
 32.4138486176145122 23.5961043759422537 28.1128704123049964
 26.7766243503628161 33.3600651882452155 28.1128704123049964
 57.7812306176145043 23.5961043759422537 28.1128704123049964
 -12.6837337598252144 57.7698207603227232 28.1128704123049964
 60.5998849895745124 23.5961043759422537 28.1128704123049964
 39.4603574871082543 50.4468867657654769 28.1128704123049964
 63.4184548035945070 23.5961043759422537 28.1128704123049964
 45.0975816730882570 50.4468867657654769 28.1128704123049964
 -29.5953217598252145 57.7698207603227232 28.1128704123049964
  2.8185695972962814 26.0371311936879657 28.1128704123049964
 11.2743635972962863 26.0371311936879657 28.1128704123049964
 50.7347635394624064 55.3288671719169614 28.1128704123049964
 46.5068242401747796 57.7698207603227232 28.1128704123049964
 -7.0464671323324293 38.2419723650567462 28.1128704123049964
 66.2370669778556049 13.8322167929792403 28.1128704123049964
 -39.4604007684245346 69.9747351610314468 28.1128704123049964
 16.9115876613693388 40.6829991828024689 28.1128704123049964
  9.8650787918756002 13.8322167929792403 28.1128704123049964
 39.4603578528290697  6.5092827984219914 28.1128704123049964
 33.8231756207340979 45.5649063596139996 28.1128704123049964
 47.9161518528290671  6.5092827984219914 28.1128704123049964
 73.2835761724349197  1.6273023922705114 28.1128704123049964
 -9.8650795097721549 72.4156887494372228 28.1128704123049964
 11.2743634753893449 40.6829991828024689 28.1128704123049964
 39.4603998067140935 45.5649063596139996 28.1128704123049964
 70.4649640388090717  6.5092827984219914 28.1128704123049964
 50.7347636207340997 45.5649063596139996 28.1128704123049964
 73.2835338528290663  6.5092827984219914 28.1128704123049964
 -0.0000003386306579 40.6829991828024689 28.1128704123049964
  1.4093271114814494  8.9502363868277595 28.1128704123049964
 59.1905579864549196  1.6273023922705114 28.1128704123049964
  4.2278969255014500  8.9502363868277595 28.1128704123049964
  1.4092843042478451 72.4156887494372228 28.1128704123049964
 -18.3209157481063052 67.5337083432857384 28.1128704123049964
 -16.9115883792659005 45.5649063596139996 28.1128704123049964
 33.8231336668490670  6.5092827984219914 28.1128704123049964
  7.0465087340417254 43.1239527712082307 28.1128704123049964
 76.1021459864549144  1.6273023922705114 28.1128704123049964
 22.5487698528290750  6.5092827984219914 28.1128704123049964
 23.9580547801566937  4.0683292100162243 28.1128704123049964
 53.5533334753893371 40.6829991828024689 28.1128704123049964
 -21.1395276379182775 43.1239527712082307 28.1128704123049964
 -5.6372245652458988 45.5649063596139996 28.1128704123049964
 -26.7766675097721567 72.4156887494372228 28.1128704123049964
 28.1859512315754728 69.9747351610314468 28.1128704123049964
 57.7812307801566902  4.0683292100162243 28.1128704123049964
 -14.0930185652459006 45.5649063596139996 28.1128704123049964
 -21.1395278817321568 72.4156887494372228 28.1128704123049964
 -21.1394853995841281 48.0059331773597151 28.1128704123049964
 71.8742489661366903  4.0683292100162243 28.1128704123049964
 74.6928187801566850  4.0683292100162243 28.1128704123049964
 31.0045212894093325 40.6829991828024689 28.1128704123049964
 -0.0000005824445366 69.9747351610314468 28.1128704123049964
 -0.0000423331509293  6.5092827984219914 28.1128704123049964
 -15.5023034519382783 43.1239527712082307 28.1128704123049964
 19.7301574347541049 45.5649063596139996 28.1128704123049964
 11.2744060388090670  6.5092827984219914 28.1128704123049964
 -14.0930187684245301 69.9747351610314468 28.1128704123049964
 25.3673816613693432 40.6829991828024689 28.1128704123049964
  2.8185692315754580 69.9747351610314468 28.1128704123049964
 -23.9580553761463051 67.5337083432857384 28.1128704123049964
 56.3719881724349250  1.6273023922705114 28.1128704123049964
 -32.4138493761463025 67.5337083432857384 28.1128704123049964
  4.2278541182678469 72.4156887494372228 28.1128704123049964
  7.0464664144358764 48.0059331773597151 28.1128704123049964
 25.3673819051832226 11.3912632045734714 28.1128704123049964
 33.8231759051832199 11.3912632045734714 28.1128704123049964
 18.3208723042478390 72.4156887494372228 28.1128704123049964
  2.8186115511813119 65.0927547548799765 28.1128704123049964
 21.1394846004158765 48.0059331773597151 28.1128704123049964
 50.7347639051832218 11.3912632045734714 28.1128704123049964
 -2.8186126347986837 65.0927547548799765 28.1128704123049964
 53.5533337192032164 11.3912632045734714 28.1128704123049964
 62.0091277192032209 11.3912632045734714 28.1128704123049964
 11.2743638004749194  1.6273023922705114 28.1128704123049964
 46.5068243620817157 43.1239527712082307 28.1128704123049964
 -8.4558368207786891 65.0927547548799765 28.1128704123049964
 -19.7302006347986882 65.0927547548799765 28.1128704123049964
 38.0510726004158641 48.0059331773597151 28.1128704123049964
 21.1394421182678336 72.4156887494372228 28.1128704123049964
  2.8185698004749202  1.6273023922705114 28.1128704123049964
 -22.5487704488186900 65.0927547548799765 28.1128704123049964
 19.7301577192032234 11.3912632045734714 28.1128704123049964
 14.0929335332232206 11.3912632045734714 28.1128704123049964
 31.0046061724349222  1.6273023922705114 28.1128704123049964
 11.2743637192032189 11.3912632045734714 28.1128704123049964
 52.1440911114814512  8.9502363868277595 28.1128704123049964
 57.7812304957075682 38.2419723650567462 28.1128704123049964
 -15.5023457715441282 48.0059331773597151 28.1128704123049964
 45.0975398004749266  1.6273023922705114 28.1128704123049964
 -25.3673823792659014 45.5649063596139996 28.1128704123049964
 15.5023024902278443 72.4156887494372228 28.1128704123049964
 42.2789699864549249  1.6273023922705114 28.1128704123049964
 36.6417875511813165 65.0927547548799765 28.1128704123049964
 46.5068666816875762 38.2419723650567462 28.1128704123049964
 66.2370247395214449  8.9502363868277595 28.1128704123049964
 -8.4557943792659014 45.5649063596139996 28.1128704123049964
 33.8231331792213084 65.0927547548799765 28.1128704123049964
  7.0465084902278479 72.4156887494372228 28.1128704123049964
 -1.4093275855641247 48.0059331773597151 28.1128704123049964
 33.8231759864549275  1.6273023922705114 28.1128704123049964
 -4.2278973995841262 48.0059331773597151 28.1128704123049964
 -2.8186544667767790 11.3912632045734714 28.1128704123049964
 11.2744056595431719 52.0741891580359919 28.6327538495249954
 49.3254364008908013 49.6332355696302230 28.6327538495249954
 -5.6371823404568273 52.0741891580359919 28.6327538495249954
 54.9626605868708040 49.6332355696302230 28.6327538495249954
  0.0000418455231652 52.0741891580359919 28.6327538495249954
 -25.3673401544768282 52.0741891580359919 28.6327538495249954
 -15.5023034654833562 44.7512551634787386 28.6327538495249954
  8.4558358455231772 52.0741891580359919 28.6327538495249954
 47.9161938338042646 42.3103015750729767 28.6327538495249954
 -28.1859945264368292 52.0741891580359919 28.6327538495249954
 52.1440907728507952 49.6332355696302230 28.6327538495249954
 39.4603997931690245 47.1922087518845075 28.6327538495249954
 -7.0465094654833562 44.7512551634787386 28.6327538495249954
 -14.0929340208509810 47.1922087518845075 28.6327538495249954
 -1.4093275991092098 49.6332355696302230 28.6327538495249954
 -5.6371400208509774 47.1922087518845075 28.6327538495249954
 -4.2278974131292042 49.6332355696302230 28.6327538495249954
 -2.8185702068309761 47.1922087518845075 28.6327538495249954
 -0.0000003928109814 47.1922087518845075 28.6327538495249954
  2.8186539791490159 47.1922087518845075 28.6327538495249954
  4.2278965868707896 49.6332355696302230 28.6327538495249954
 -7.0464672271492059 49.6332355696302230 28.6327538495249954
 -21.1394854131292078 49.6332355696302230 28.6327538495249954
 -26.7767095991092070 49.6332355696302230 28.6327538495249954
 22.5488117931690120 47.1922087518845075 28.6327538495249954
 36.6418299791490298 47.1922087518845075 28.6327538495249954
 53.5534179791490246 47.1922087518845075 28.6327538495249954
 50.7347636071890307 47.1922087518845075 28.6327538495249954
 47.9161937931690360 47.1922087518845075 28.6327538495249954
 19.7302419791490244 47.1922087518845075 28.6327538495249954
 -16.9115883928109767 47.1922087518845075 28.6327538495249954
 -25.3673823928109776 47.1922087518845075 28.6327538495249954
  7.0464664008907913 49.6332355696302230 28.6327538495249954
 46.5068665868708067 49.6332355696302230 28.6327538495249954
 40.8696424008908039 49.6332355696302230 28.6327538495249954
 -4.2278550935233552 44.7512551634787386 28.6327538495249954
  7.0465087204966403 44.7512551634787386 28.6327538495249954
 38.0510725868707951 49.6332355696302230 28.6327538495249954
  9.8650785345166412 44.7512551634787386 28.6327538495249954
 21.1394845868707826 49.6332355696302230 28.6327538495249954
 18.3208725345166314 44.7512551634787386 28.6327538495249954
 29.5953209064766369 44.7512551634787386 28.6327538495249954
 32.4138907204966458 44.7512551634787386 28.6327538495249954
 38.0511149064766485 44.7512551634787386 28.6327538495249954
 18.3209147728507951 49.6332355696302230 28.6327538495249954
 40.8696847204966431 44.7512551634787386 28.6327538495249954
 52.1440485345166493 44.7512551634787386 28.6327538495249954
  9.8651207728507995 49.6332355696302230 28.6327538495249954
 54.9627029064766432 44.7512551634787386 28.6327538495249954
 57.7812727204966521 44.7512551634787386 28.6327538495249954
 -12.6836490935233588 44.7512551634787386 28.6327538495249954
 14.0929754735631594 52.0741891580359919 28.6327538495249954
  1.4092849002374601  0.8136511961352557 28.6327538495249954
 22.5487694735631763 52.0741891580359919 28.6327538495249954
  2.8186115376362340 66.7200571471504844 28.6327538495249954
  0.0000417236162395 66.7200571471504844 28.6327538495249954
 -8.4557522763837714 66.7200571471504844 28.6327538495249954
 -16.9115462763837670 66.7200571471504844 28.6327538495249954
 -19.7302006483437680 66.7200571471504844 28.6327538495249954
 -22.5487704623637697 66.7200571471504844 28.6327538495249954
 -25.3673402763837679 66.7200571471504844 28.6327538495249954
 -33.8231342763837688 66.7200571471504844 28.6327538495249954
 -36.6417886483437698 66.7200571471504844 28.6327538495249954
 46.5068664649638706 64.2791035587447084 28.6327538495249954
 38.0510724649638732 64.2791035587447084 28.6327538495249954
 35.2325026509438644 64.2791035587447084 28.6327538495249954
 14.0929753516562410 66.7200571471504844 28.6327538495249954
 32.4138482789838704 64.2791035587447084 28.6327538495249954
 21.1394844649638500 64.2791035587447084 28.6327538495249954
 18.3209146509438554 64.2791035587447084 28.6327538495249954
 15.5022602789838597 64.2791035587447084 28.6327538495249954
  9.8651206509438563 64.2791035587447084 28.6327538495249954
  4.2278964649638544 64.2791035587447084 28.6327538495249954
  1.4093266509438596 64.2791035587447084 28.6327538495249954
 -4.2278975350361501 64.2791035587447084 28.6327538495249954
 -7.0464673490561447 64.2791035587447084 28.6327538495249954
 -21.1394855350361439 64.2791035587447084 28.6327538495249954
 -23.9580553490561456 64.2791035587447084 28.6327538495249954
 -35.2325037210161440 64.2791035587447084 28.6327538495249954
 45.0976238572420840 61.8380767409990000 28.6327538495249954
 29.5952784649638616 64.2791035587447084 28.6327538495249954
 42.2789694852820901 61.8380767409990000 28.6327538495249954
 16.9116297236162261 66.7200571471504844 28.6327538495249954
 31.0045633516562411 66.7200571471504844 28.6327538495249954
 19.7301572180303850 71.6020375533019688 28.6327538495249954
 16.9115874040103833 71.6020375533019688 28.6327538495249954
  5.6372235899903860 71.6020375533019688 28.6327538495249954
  2.8185692180303707 71.6020375533019688 28.6327538495249954
 -8.4557945959896212 71.6020375533019688 28.6327538495249954
 -11.2743644100096230 71.6020375533019688 28.6327538495249954
 -14.0930187819696204 71.6020375533019688 28.6327538495249954
 -25.3673825959896213 71.6020375533019688 28.6327538495249954
 -28.1859524100096195 71.6020375533019688 28.6327538495249954
 -31.0046067819696169 71.6020375533019688 28.6327538495249954
 -33.8231765959896151 71.6020375533019688 28.6327538495249954
 -39.4604007819696179 71.6020375533019688 28.6327538495249954
 19.7301995376362349 66.7200571471504844 28.6327538495249954
 43.6882966103086261 69.1610107355562462 28.6327538495249954
 29.5952784243286260 69.1610107355562462 28.6327538495249954
 26.7767086103086172 69.1610107355562462 28.6327538495249954
 15.5023447962886092 69.1610107355562462 28.6327538495249954
  1.4093266103086164 69.1610107355562462 28.6327538495249954
 -9.8650372037113900 69.1610107355562462 28.6327538495249954
 -12.6836915756713875 69.1610107355562462 28.6327538495249954
 -15.5022613896913821 69.1610107355562462 28.6327538495249954
 -18.3208312037113821 69.1610107355562462 28.6327538495249954
 -29.5952795756713840 69.1610107355562462 28.6327538495249954
 -38.0510735756713814 69.1610107355562462 28.6327538495249954
 36.6417875376362474 66.7200571471504844 28.6327538495249954
 33.8232177236162386 66.7200571471504844 28.6327538495249954
 32.4139327962886199 69.1610107355562462 28.6327538495249954
 19.7301996595431604 52.0741891580359919 28.6327538495249954
 39.4603996712620955 61.8380767409990000 28.6327538495249954
 25.3673814852820882 61.8380767409990000 28.6327538495249954
  2.8185693399373224 56.9561695641874692 28.6327538495249954
 -0.0000004740826793 56.9561695641874692 28.6327538495249954
 -8.4557944740826727 56.9561695641874692 28.6327538495249954
 -11.2743642881026744 56.9561695641874692 28.6327538495249954
 -14.0930186600626755 56.9561695641874692 28.6327538495249954
 -16.9115884740826736 56.9561695641874692 28.6327538495249954
 -19.7301582881026789 56.9561695641874692 28.6327538495249954
 -22.5488126600626764 56.9561695641874692 28.6327538495249954
 52.1440907322155596 54.5151427464417537 28.6327538495249954
 38.0510725462355595 54.5151427464417537 28.6327538495249954
 32.4139329181955560 54.5151427464417537 28.6327538495249954
 29.5952785462355585 54.5151427464417537 28.6327538495249954
 14.0930177118973283 56.9561695641874692 28.6327538495249954
 26.7767087322155568 54.5151427464417537 28.6327538495249954
 12.6836905462355407 54.5151427464417537 28.6327538495249954
  9.8651207322155532 54.5151427464417537 28.6327538495249954
  1.4093267322155492 54.5151427464417537 28.6327538495249954
 -7.0464672677844442 54.5151427464417537 28.6327538495249954
 -9.8650370818044468 54.5151427464417537 28.6327538495249954
 -15.5022612677844460 54.5151427464417537 28.6327538495249954
 -21.1394854537644470 54.5151427464417537 28.6327538495249954
 -23.9580552677844487 54.5151427464417537 28.6327538495249954
 53.5533756595431782 52.0741891580359919 28.6327538495249954
 50.7348058455231694 52.0741891580359919 28.6327538495249954
 39.4603574735631781 52.0741891580359919 28.6327538495249954
 28.1859936595431719 52.0741891580359919 28.6327538495249954
 15.5023449181955559 54.5151427464417537 28.6327538495249954
 36.6418298572420866 61.8380767409990000 28.6327538495249954
 28.1859513399373292 56.9561695641874692 28.6327538495249954
 33.8231755259173212 56.9561695641874692 28.6327538495249954
 22.5488116712620865 61.8380767409990000 28.6327538495249954
 19.7302418572420777 61.8380767409990000 28.6327538495249954
  8.4557934852820722 61.8380767409990000 28.6327538495249954
  5.6372236712620847 61.8380767409990000 28.6327538495249954
  2.8186538572420905 61.8380767409990000 28.6327538495249954
 -0.0000005147179177 61.8380767409990000 28.6327538495249954
 -5.6371401427579215 61.8380767409990000 28.6327538495249954
 -8.4557945147179190 61.8380767409990000 28.6327538495249954
 -25.3673825147179137 61.8380767409990000 28.6327538495249954
 -31.0045221427579136 61.8380767409990000 28.6327538495249954
 -33.8231765147179146 61.8380767409990000 28.6327538495249954
 46.5069087845697027 59.3971231525932382 28.6327538495249954
 31.0046057118973302 56.9561695641874692 28.6327538495249954
 43.6882544126097088 59.3971231525932382 28.6327538495249954
 29.5953207845697079 59.3971231525932382 28.6327538495249954
 26.7766664126097069 59.3971231525932382 28.6327538495249954
 23.9580965985897052 59.3971231525932382 28.6327538495249954
 12.6837327845697061 59.3971231525932382 28.6327538495249954
  9.8650784126096909 59.3971231525932382 28.6327538495249954
  1.4092844126096999 59.3971231525932382 28.6327538495249954
 -9.8650794014102949 59.3971231525932382 28.6327538495249954
 -12.6836492154302967 59.3971231525932382 28.6327538495249954
 -15.5023035873902977 59.3971231525932382 28.6327538495249954
 -23.9580975873902986 59.3971231525932382 28.6327538495249954
 -26.7766674014102968 59.3971231525932382 28.6327538495249954
 -29.5952372154302985 59.3971231525932382 28.6327538495249954
 40.8696845985897141 59.3971231525932382 28.6327538495249954
 45.0975393399373274 56.9561695641874692 28.6327538495249954
 -5.6371822185498859 37.4283211689214923 28.6327538495249954
 22.5488118338042653 42.3103015750729767 28.6327538495249954
 32.4138909643105251 15.4595191852497500 28.6327538495249954
 29.5953211502905269 15.4595191852497500 28.6327538495249954
 21.1395271502905153 15.4595191852497500 28.6327538495249954
 18.3208727783305179 15.4595191852497500 28.6327538495249954
 12.6837331502905215 15.4595191852497500 28.6327538495249954
  9.8650787783305205 15.4595191852497500 28.6327538495249954
 -4.2278548497094786 15.4595191852497500 28.6327538495249954
 64.8277820776181386 13.0185655968439828 28.6327538495249954
 62.0091277056581518 13.0185655968439828 28.6327538495249954
 59.1905578916381430 13.0185655968439828 28.6327538495249954
 56.3719880776181483 13.0185655968439828 28.6327538495249954
 53.5533337056581473 13.0185655968439828 28.6327538495249954
 42.2789698916381340 13.0185655968439828 28.6327538495249954
 40.8696849643105153 15.4595191852497500 28.6327538495249954
 33.8231758916381438 13.0185655968439828 28.6327538495249954
 19.7301577056581365 13.0185655968439828 28.6327538495249954
 11.2743637056581409 13.0185655968439828 28.6327538495249954
  8.4557938916381428 13.0185655968439828 28.6327538495249954
 -2.8185699223818586 13.0185655968439828 28.6327538495249954
 -5.6372242943418591 13.0185655968439828 28.6327538495249954
 77.5114730979363742 10.5775387790982709 28.6327538495249954
 66.2371092839163680 10.5775387790982709 28.6327538495249954
 63.4184549119563812 10.5775387790982709 28.6327538495249954
 52.1440910979363750 10.5775387790982709 28.6327538495249954
 43.6882970979363634 10.5775387790982709 28.6327538495249954
 40.8697272839163759 10.5775387790982709 28.6327538495249954
 35.2325030979363731 10.5775387790982709 28.6327538495249954
 23.9581392839163634 10.5775387790982709 28.6327538495249954
 31.0046060776181456 13.0185655968439828 28.6327538495249954
 43.6882547783305313 15.4595191852497500 28.6327538495249954
 52.1440487783305286 15.4595191852497500 28.6327538495249954
 54.9627031502905297 15.4595191852497500 28.6327538495249954
 46.5068668306846718 20.3414995914012344 28.6327538495249954
 43.6882970166646629 20.3414995914012344 28.6327538495249954
 32.4138486447046574 20.3414995914012344 28.6327538495249954
 29.5952788306846699 20.3414995914012344 28.6327538495249954
 26.7767090166646753 20.3414995914012344 28.6327538495249954
 21.1394848306846654 20.3414995914012344 28.6327538495249954
 18.3209150166646637 20.3414995914012344 28.6327538495249954
 15.5022606447046662 20.3414995914012344 28.6327538495249954
  9.8651210166646699 20.3414995914012344 28.6327538495249954
  4.2278968306846716 20.3414995914012344 28.6327538495249954
  1.4093270166646681 20.3414995914012344 28.6327538495249954
 -7.0464669833353293 20.3414995914012344 28.6327538495249954
 -9.8651213552953294 20.3414995914012344 28.6327538495249954
 73.2835760369829075 17.9004727736555189 28.6327538495249954
 70.4650062229628986 17.9004727736555189 28.6327538495249954
 47.9161940369829011 17.9004727736555189 28.6327538495249954
 45.0976242229628923 17.9004727736555189 28.6327538495249954
 42.2789698510029055 17.9004727736555189 28.6327538495249954
 33.8231758510028868 17.9004727736555189 28.6327538495249954
 19.7302422229628966 17.9004727736555189 28.6327538495249954
 16.9115878510028992 17.9004727736555189 28.6327538495249954
  8.4557938510029000 17.9004727736555189 28.6327538495249954
  5.6372240369829028 17.9004727736555189 28.6327538495249954
  2.8186542229628988 17.9004727736555189 28.6327538495249954
 -5.6371397770370981 17.9004727736555189 28.6327538495249954
 -8.4557941489970982 17.9004727736555189 28.6327538495249954
 71.8742911502905173 15.4595191852497500 28.6327538495249954
 66.2370669643105288 15.4595191852497500 28.6327538495249954
 60.5998427783305331 15.4595191852497500 28.6327538495249954
 21.1394849119563659 10.5775387790982709 28.6327538495249954
 12.6836909119563703 10.5775387790982709 28.6327538495249954
  9.8651210979363722 10.5775387790982709 28.6327538495249954
  1.4093270979363695 10.5775387790982709 28.6327538495249954
 76.1021459729098524  3.2546047845410229 28.6327538495249954
 73.2835761588898578  3.2546047845410229 28.6327538495249954
 70.4650063448698489  3.2546047845410229 28.6327538495249954
 59.1905579729098434  3.2546047845410229 28.6327538495249954
 56.3719881588898417  3.2546047845410229 28.6327538495249954
 53.5534183448698329  3.2546047845410229 28.6327538495249954
 50.7347639729098461  3.2546047845410229 28.6327538495249954
 39.4604001588898399  3.2546047845410229 28.6327538495249954
 36.6418303448698452  3.2546047845410229 28.6327538495249954
 33.8231759729098371  3.2546047845410229 28.6327538495249954
 25.3673819729098362  3.2546047845410229 28.6327538495249954
 22.5488121588898416  3.2546047845410229 28.6327538495249954
 19.7302423448698399  3.2546047845410229 28.6327538495249954
 14.0930181588898407  3.2546047845410229 28.6327538495249954
 11.2744483448698372  3.2546047845410229 28.6327538495249954
  2.8186543448698407  3.2546047845410229 28.6327538495249954
 74.6928610862174764  0.8136511961352557 28.6327538495249954
 71.8742912721974676  0.8136511961352557 28.6327538495249954
 60.5998429002374621  0.8136511961352557 28.6327538495249954
 57.7812730862174604  0.8136511961352557 28.6327538495249954
 49.3254790862174488  0.8136511961352557 28.6327538495249954
 46.5069092721974613  0.8136511961352557 28.6327538495249954
 43.6882549002374461  0.8136511961352557 28.6327538495249954
 35.2324609002374558  0.8136511961352557 28.6327538495249954
 32.4138910862174541  0.8136511961352557 28.6327538495249954
 21.1395272721974621  0.8136511961352557 28.6327538495249954
 12.6837332721974576  0.8136511961352557 28.6327538495249954
  9.8650789002374601  0.8136511961352557 28.6327538495249954
  7.0465090862174584  0.8136511961352557 28.6327538495249954
 -1.4093272333883895  5.6956316022867357 28.6327538495249954
 52.1440910166646745 20.3414995914012344 28.6327538495249954
  1.4093271385716108  5.6956316022867357 28.6327538495249954
 12.6836909525916113  5.6956316022867357 28.6327538495249954
 -1.4092427160836287 10.5775387790982709 28.6327538495249954
 -4.2278970880436288 10.5775387790982709 28.6327538495249954
 78.9207580252639929  8.1365851906925037 28.6327538495249954
 70.4649640252639955  8.1365851906925037 28.6327538495249954
 67.6463942112439867  8.1365851906925037 28.6327538495249954
 64.8277398392839928  8.1365851906925037 28.6327538495249954
 62.0091700252639910  8.1365851906925037 28.6327538495249954
 53.5533760252639937  8.1365851906925037 28.6327538495249954
 50.7348062112439848  8.1365851906925037 28.6327538495249954
 42.2790122112439946  8.1365851906925037 28.6327538495249954
 33.8232182112439972  8.1365851906925037 28.6327538495249954
 25.3674242112439856  8.1365851906925037 28.6327538495249954
 22.5487698392839881  8.1365851906925037 28.6327538495249954
 19.7302000252639935  8.1365851906925037 28.6327538495249954
 11.2744060252639908  8.1365851906925037 28.6327538495249954
  2.8186120252639890  8.1365851906925037 28.6327538495249954
  0.0000422112439907  8.1365851906925037 28.6327538495249954
 -2.8186121607160102  8.1365851906925037 28.6327538495249954
 71.8742489525916284  5.6956316022867357 28.6327538495249954
 69.0556791385716195  5.6956316022867357 28.6327538495249954
 66.2370247666116256  5.6956316022867357 28.6327538495249954
 52.1440911385716035  5.6956316022867357 28.6327538495249954
 49.3254367666116167  5.6956316022867357 28.6327538495249954
 43.6882971385716132  5.6956316022867357 28.6327538495249954
 38.0510729525916105  5.6956316022867357 28.6327538495249954
 35.2325031385716159  5.6956316022867357 28.6327538495249954
 32.4138487666116077  5.6956316022867357 28.6327538495249954
 23.9580547666116068  5.6956316022867357 28.6327538495249954
 21.1394849525916122  5.6956316022867357 28.6327538495249954
  9.8651211385716078  5.6956316022867357 28.6327538495249954
 31.0046058338042556 42.3103015750729767 28.6327538495249954
 71.8742488306846781 20.3414995914012344 28.6327538495249954
 -2.8186122826229494 22.7824531798069998 28.6327538495249954
 33.8232179674301037 37.4283211689214923 28.6327538495249954
 31.0045635954701204 37.4283211689214923 28.6327538495249954
 28.1859937814501045 37.4283211689214923 28.6327538495249954
 19.7301997814501142 37.4283211689214923 28.6327538495249954
 16.9116299674301196 37.4283211689214923 28.6327538495249954
  8.4558359674301080 37.4283211689214923 28.6327538495249954
  2.8186117814501150 37.4283211689214923 28.6327538495249954
  0.0000419674301133 37.4283211689214923 28.6327538495249954
 -2.8186124045298877 37.4283211689214923 28.6327538495249954
 28.1859512180303895 71.6020375533019688 28.6327538495249954
 -8.4557520325698885 37.4283211689214923 28.6327538495249954
 -14.0929762185498877 37.4283211689214923 28.6327538495249954
 -16.9115460325698876 37.4283211689214923 28.6327538495249954
 36.6417877814501125 37.4283211689214923 28.6327538495249954
 63.4184547087777446 34.9873675805157234 28.6327538495249954
 54.9626607087777472 34.9873675805157234 28.6327538495249954
 52.1440908947577384 34.9873675805157234 28.6327538495249954
 40.8696425227977400 34.9873675805157234 28.6327538495249954
 38.0510727087777383 34.9873675805157234 28.6327538495249954
 32.4138485227977426 34.9873675805157234 28.6327538495249954
 26.7767088947577392 34.9873675805157234 28.6327538495249954
 18.3209148947577418 34.9873675805157234 28.6327538495249954
 15.5022605227977337 34.9873675805157234 28.6327538495249954
  4.2278967087777302 34.9873675805157234 28.6327538495249954
 -4.2278972912222672 34.9873675805157234 28.6327538495249954
 -7.0464671052422672 34.9873675805157234 28.6327538495249954
 -15.5022611052422672 34.9873675805157234 28.6327538495249954
 -18.3209154772022664 34.9873675805157234 28.6327538495249954
 60.5998848947577358 34.9873675805157234 28.6327538495249954
 39.4603575954701142 37.4283211689214923 28.6327538495249954
 45.0975817814501099 37.4283211689214923 28.6327538495249954
 47.9161515954701187 37.4283211689214923 28.6327538495249954
 19.7301574618442501 42.3103015750729767 28.6327538495249954
 16.9115876478242626 42.3103015750729767 28.6327538495249954
 11.2743634618442599 42.3103015750729767 28.6327538495249954
  8.4557936478242581 42.3103015750729767 28.6327538495249954
 -16.9115883521757375 42.3103015750729767 28.6327538495249954
 -22.5488125381557367 42.3103015750729767 28.6327538495249954
 60.5998848541225001 39.8692747573272612 28.6327538495249954
 57.7813150401024913 39.8692747573272612 28.6327538495249954
 49.3255210401024939 39.8692747573272612 28.6327538495249954
 43.6882968541224912 39.8692747573272612 28.6327538495249954
 40.8697270401024966 39.8692747573272612 28.6327538495249954
 32.4139330401024850 39.8692747573272612 28.6327538495249954
 29.5952786681424982 39.8692747573272612 28.6327538495249954
 26.7767088541224823 39.8692747573272612 28.6327538495249954
 21.1394846681424795 39.8692747573272612 28.6327538495249954
 18.3209148541224920 39.8692747573272612 28.6327538495249954
 15.5023450401024956 39.8692747573272612 28.6327538495249954
 12.6836906681424875 39.8692747573272612 28.6327538495249954
  9.8651208541224857 39.8692747573272612 28.6327538495249954
  7.0465510401024849 39.8692747573272612 28.6327538495249954
  1.4093268541224926 39.8692747573272612 28.6327538495249954
 -4.2278973318575099 39.8692747573272612 28.6327538495249954
 -7.0464671458775081 39.8692747573272612 28.6327538495249954
 -12.6836913318575100 39.8692747573272612 28.6327538495249954
 -15.5022611458775117 39.8692747573272612 28.6327538495249954
 62.0091697814501188 37.4283211689214923 28.6327538495249954
 59.1905999674301100 37.4283211689214923 28.6327538495249954
 56.3719455954701161 37.4283211689214923 28.6327538495249954
 50.7348059674301126 37.4283211689214923 28.6327538495249954
 50.7347637290959668 32.5463407627700150 28.6327538495249954
 42.2789697290959623 32.5463407627700150 28.6327538495249954
 28.1860361010559650 32.5463407627700150 28.6327538495249954
 25.3673817290959498 32.5463407627700150 28.6327538495249954
 -2.8185700442888009 27.6644335859584807 28.6327538495249954
 -5.6372244162487979 27.6644335859584807 28.6327538495249954
 -14.0930184162487979 27.6644335859584807 28.6327538495249954
 69.0556789760294407 25.2234067682127652 28.6327538495249954
 66.2371091620094319 25.2234067682127652 28.6327538495249954
 63.4184547900494380 25.2234067682127652 28.6327538495249954
 60.5998849760294434 25.2234067682127652 28.6327538495249954
 54.9626607900494406 25.2234067682127652 28.6327538495249954
 52.1440909760294318 25.2234067682127652 28.6327538495249954
 49.3255211620094371 25.2234067682127652 28.6327538495249954
 40.8697271620094256 25.2234067682127652 28.6327538495249954
 38.0510727900494388 25.2234067682127652 28.6327538495249954
 35.2325029760294228 25.2234067682127652 28.6327538495249954
 32.4139331620094353 25.2234067682127652 28.6327538495249954
 26.7767089760294326 25.2234067682127652 28.6327538495249954
  1.4093269760294336 25.2234067682127652 28.6327538495249954
 -1.4092428379905699 25.2234067682127652 28.6327538495249954
 -7.0464670239705693 25.2234067682127652 28.6327538495249954
 67.6463940893370506 22.7824531798069998 28.6327538495249954
 62.0091699033570620 22.7824531798069998 28.6327538495249954
 59.1906000893370532 22.7824531798069998 28.6327538495249954
 56.3719457173770593 22.7824531798069998 28.6327538495249954
 42.2790120893370442 22.7824531798069998 28.6327538495249954
 31.0045637173770388 22.7824531798069998 28.6327538495249954
 28.1859939033570512 22.7824531798069998 28.6327538495249954
 25.3674240893370566 22.7824531798069998 28.6327538495249954
 19.7301999033570468 22.7824531798069998 28.6327538495249954
 16.9116300893370450 22.7824531798069998 28.6327538495249954
  2.8186119033570516 22.7824531798069998 28.6327538495249954
 -0.0000002302687971 27.6644335859584807 28.6327538495249954
 -11.2744062826229499 22.7824531798069998 28.6327538495249954
  2.8185695837512008 27.6644335859584807 28.6327538495249954
  8.4557937697312031 27.6644335859584807 28.6327538495249954
 19.7302421010559677 32.5463407627700150 28.6327538495249954
 16.9115877290959595 32.5463407627700150 28.6327538495249954
 14.0930179150759578 32.5463407627700150 28.6327538495249954
  2.8186541010559618 32.5463407627700150 28.6327538495249954
 -0.0000002709040391 32.5463407627700150 28.6327538495249954
 -5.6371398989440404 32.5463407627700150 28.6327538495249954
 -8.4557942709040379 32.5463407627700150 28.6327538495249954
 -14.0929338989440378 32.5463407627700150 28.6327538495249954
 52.1440486564235925 30.1053871743642461 28.6327538495249954
 49.3254788424035837 30.1053871743642461 28.6327538495249954
 40.8696848424035863 30.1053871743642461 28.6327538495249954
 29.5953210283835837 30.1053871743642461 28.6327538495249954
 26.7766666564235685 30.1053871743642461 28.6327538495249954
 21.1395270283835863 30.1053871743642461 28.6327538495249954
 15.5023028424035783 30.1053871743642461 28.6327538495249954
  9.8650786564235791 30.1053871743642461 28.6327538495249954
  7.0465088424035836 30.1053871743642461 28.6327538495249954
 -4.2278549716164209 30.1053871743642461 28.6327538495249954
 -15.5023033435764184 30.1053871743642461 28.6327538495249954
 67.6463517697312113 27.6644335859584807 28.6327538495249954
 64.8277819557112025 27.6644335859584807 28.6327538495249954
 53.5533335837512112 27.6644335859584807 28.6327538495249954
 50.7347637697312024 27.6644335859584807 28.6327538495249954
 45.0975395837512067 27.6644335859584807 28.6327538495249954
 42.2789697697312050 27.6644335859584807 28.6327538495249954
 39.4603999557111962 27.6644335859584807 28.6327538495249954
 36.6417455837512094 27.6644335859584807 28.6327538495249954
 25.3673817697312032 27.6644335859584807 28.6327538495249954
 11.2743635837511977 27.6644335859584807 28.6327538495249954
  5.6372239557112023 27.6644335859584807 28.6327538495249954
 42.2789694040103896 71.6020375533019688 28.6327538495249954
