 H  O 
 1.0000000000000000
    84.5579400000000021    0.0000000000000000    0.0000000000000000
   -42.2789706095346958   73.2293399455724767    0.0000000000000000
     0.0000000000000000    0.0000000000000000   46.9039550000000034
 H   O  
 367 267
Cartesian
 -0.0000000135450799  1.6273023922705114 28.1128704123049964
 22.5487272894093422 40.6829991828024689 28.1128704123049964
 19.7301574753893405 40.6829991828024689 28.1128704123049964
 16.9115876613693388 40.6829991828024689 28.1128704123049964
 11.2743634753893449 40.6829991828024689 28.1128704123049964
 -0.0000003386306579 40.6829991828024689 28.1128704123049964
 -5.6372245246106605 40.6829991828024689 28.1128704123049964
 40.8696424957075664 38.2419723650567462 28.1128704123049964
 38.0510726816875717 38.2419723650567462 28.1128704123049964
 26.7767088676675797 38.2419723650567462 28.1128704123049964
 21.1394846816875770 38.2419723650567462 28.1128704123049964
 -1.4093275042924258 38.2419723650567462 28.1128704123049964
 33.8231756613693406 40.6829991828024689 28.1128704123049964
 -9.8651215042924267 38.2419723650567462 28.1128704123049964
 -21.1394853183124276 38.2419723650567462 28.1128704123049964
 62.0091697949951950 35.8010187766509844 28.1128704123049964
 59.1905154230351869 35.8010187766509844 28.1128704123049964
 53.5533757949951976 35.8010187766509844 28.1128704123049964
 50.7347214230351895 35.8010187766509844 28.1128704123049964
 47.9161516090151949 35.8010187766509844 28.1128704123049964
 45.0975817949951860 35.8010187766509844 28.1128704123049964
 42.2789274230351850 35.8010187766509844 28.1128704123049964
 36.6417877949951958 35.8010187766509844 28.1128704123049964
 33.8231334230351877 35.8010187766509844 28.1128704123049964
 28.1859937949951949 35.8010187766509844 28.1128704123049964
 -12.6836913183124267 38.2419723650567462 28.1128704123049964
 42.2789696613693309 40.6829991828024689 28.1128704123049964
 47.9161092894093343 40.6829991828024689 28.1128704123049964
 59.1905576613693398 40.6829991828024689 28.1128704123049964
 26.7766242284558658 48.0059331773597151 28.1128704123049964
 15.5022604144358738 48.0059331773597151 28.1128704123049964
 12.6836906004158720 48.0059331773597151 28.1128704123049964
 -1.4093275855641247 48.0059331773597151 28.1128704123049964
 -7.0465517715441273 48.0059331773597151 28.1128704123049964
 -23.9581397715441291 48.0059331773597151 28.1128704123049964
 -26.7767095855641273 48.0059331773597151 28.1128704123049964
 45.0975394347540970 45.5649063596139996 28.1128704123049964
 33.8231756207340979 45.5649063596139996 28.1128704123049964
 28.1859514347540951 45.5649063596139996 28.1128704123049964
 25.3673816207341005 45.5649063596139996 28.1128704123049964
 22.5488118067141059 45.5649063596139996 28.1128704123049964
  5.6372238067141032 45.5649063596139996 28.1128704123049964
 -5.6372245652458988 45.5649063596139996 28.1128704123049964
 -22.5488125652458997 45.5649063596139996 28.1128704123049964
 -25.3673823792659014 45.5649063596139996 28.1128704123049964
 57.7812727340417212 43.1239527712082307 28.1128704123049964
 32.4138907340417219 43.1239527712082307 28.1128704123049964
 29.5952363620817174 43.1239527712082307 28.1128704123049964
 26.7766665480617228 43.1239527712082307 28.1128704123049964
 18.3208725480617254 43.1239527712082307 28.1128704123049964
 15.5023027340417219 43.1239527712082307 28.1128704123049964
  9.8650785480617262 43.1239527712082307 28.1128704123049964
  1.4092845480617260 43.1239527712082307 28.1128704123049964
 -15.5023034519382783 43.1239527712082307 28.1128704123049964
 16.9115454230351894 35.8010187766509844 28.1128704123049964
 35.2324182284558631 48.0059331773597151 28.1128704123049964
 -2.8186123909848098 35.8010187766509844 28.1128704123049964
 -19.7302003909848089 35.8010187766509844 28.1128704123049964
 38.0510304839886544 28.4780847820937346 28.1128704123049964
 12.6836484839886605 28.4780847820937346 28.1128704123049964
  9.8650786699686659 28.4780847820937346 28.1128704123049964
  7.0465088559486642 28.4780847820937346 28.1128704123049964
  4.2278544839886631 28.4780847820937346 28.1128704123049964
  1.4092846699686612 28.4780847820937346 28.1128704123049964
 -4.2279395160113378 28.4780847820937346 28.1128704123049964
 -15.5023033300313369 28.4780847820937346 28.1128704123049964
 67.6463517832762875 26.0371311936879657 28.1128704123049964
 64.8276974113162794 26.0371311936879657 28.1128704123049964
 62.0091275972962777 26.0371311936879657 28.1128704123049964
 43.6882546699686571 28.4780847820937346 28.1128704123049964
 56.3719034113162749 26.0371311936879657 28.1128704123049964
 47.9161094113162704 26.0371311936879657 28.1128704123049964
 45.0975395972962758 26.0371311936879657 28.1128704123049964
 42.2789697832762812 26.0371311936879657 28.1128704123049964
 33.8231757832762838 26.0371311936879657 28.1128704123049964
 31.0045214113162864 26.0371311936879657 28.1128704123049964
 28.1859515972962846 26.0371311936879657 28.1128704123049964
 25.3673817832762829 26.0371311936879657 28.1128704123049964
 16.9115877832762855 26.0371311936879657 28.1128704123049964
 14.0929334113162810 26.0371311936879657 28.1128704123049964
 11.2743635972962863 26.0371311936879657 28.1128704123049964
  8.4557937832762846 26.0371311936879657 28.1128704123049964
 53.5533335972962803 26.0371311936879657 28.1128704123049964
 52.1440486699686616 28.4780847820937346 28.1128704123049964
 57.7812728559486644 28.4780847820937346 28.1128704123049964
 60.5998426699686590 28.4780847820937346 28.1128704123049964
 60.5998003503628055 33.3600651882452155 28.1128704123049964
 57.7812305363428109 33.3600651882452155 28.1128704123049964
 54.9626607223228163 33.3600651882452155 28.1128704123049964
 52.1440063503628082 33.3600651882452155 28.1128704123049964
 43.6882123503628037 33.3600651882452155 28.1128704123049964
 40.8696425363428091 33.3600651882452155 28.1128704123049964
 38.0510727223228145 33.3600651882452155 28.1128704123049964
 29.5952787223228171 33.3600651882452155 28.1128704123049964
 15.5022605363428152 33.3600651882452155 28.1128704123049964
  7.0464665363428152 33.3600651882452155 28.1128704123049964
 -1.4093274636571897 33.3600651882452155 28.1128704123049964
 -7.0465516496371885 33.3600651882452155 28.1128704123049964
 56.3719879286210457 30.9190383704995000 28.1128704123049964
 53.5533335566610376 30.9190383704995000 28.1128704123049964
 47.9161939286210341 30.9190383704995000 28.1128704123049964
 45.0975395566610331 30.9190383704995000 28.1128704123049964
 42.2789697426410385 30.9190383704995000 28.1128704123049964
 33.8231757426410411 30.9190383704995000 28.1128704123049964
 25.3673817426410437 30.9190383704995000 28.1128704123049964
 16.9115877426410464 30.9190383704995000 28.1128704123049964
 14.0930179286210446 30.9190383704995000 28.1128704123049964
 11.2743635566610401 30.9190383704995000 28.1128704123049964
  8.4557937426410454 30.9190383704995000 28.1128704123049964
  2.8185695566610427 30.9190383704995000 28.1128704123049964
 -5.6372244433389582 30.9190383704995000 28.1128704123049964
 -8.4558365769648098 35.8010187766509844 28.1128704123049964
  5.6371394113162827 26.0371311936879657 28.1128704123049964
 38.0510726004158641 48.0059331773597151 28.1128704123049964
 46.5068666004158757 48.0059331773597151 28.1128704123049964
 31.0045633652013137 65.0927547548799765 28.1128704123049964
 28.1859935511813049 65.0927547548799765 28.1128704123049964
 19.7301995511813146 65.0927547548799765 28.1128704123049964
 16.9115451792213065 65.0927547548799765 28.1128704123049964
 -0.0000428207786890 65.0927547548799765 28.1128704123049964
 -2.8186126347986837 65.0927547548799765 28.1128704123049964
 -5.6371824488186855 65.0927547548799765 28.1128704123049964
 -19.7302006347986882 65.0927547548799765 28.1128704123049964
 -22.5487704488186900 65.0927547548799765 28.1128704123049964
 -25.3674248207786874 65.0927547548799765 28.1128704123049964
 -28.1859946347986892 65.0927547548799765 28.1128704123049964
 33.8231331792213084 65.0927547548799765 28.1128704123049964
 -31.0045644488186873 65.0927547548799765 28.1128704123049964
 35.2324181065489270 62.6518011664742076 28.1128704123049964
 32.4138482925289324 62.6518011664742076 28.1128704123049964
 18.3208301065489287 62.6518011664742076 28.1128704123049964
 15.5022602925289341 62.6518011664742076 28.1128704123049964
 12.6836904785089395 62.6518011664742076 28.1128704123049964
  9.8650361065489385 62.6518011664742076 28.1128704123049964
  7.0464662925289359 62.6518011664742076 28.1128704123049964
  4.2278964785089341 62.6518011664742076 28.1128704123049964
  1.4092421065489333 62.6518011664742076 28.1128704123049964
 -9.8651217074710615 62.6518011664742076 28.1128704123049964
 -21.1394855214910677 62.6518011664742076 28.1128704123049964
 -33.8232188207786848 65.0927547548799765 28.1128704123049964
 39.4603573652013111 65.0927547548799765 28.1128704123049964
 -38.0510735621263052 67.5337083432857384 28.1128704123049964
 -35.2325037481063035 67.5337083432857384 28.1128704123049964
 23.9580964902278346 72.4156887494372228 28.1128704123049964
 18.3208723042478390 72.4156887494372228 28.1128704123049964
 12.6836481182678362 72.4156887494372228 28.1128704123049964
  4.2278541182678469 72.4156887494372228 28.1128704123049964
  1.4092843042478451 72.4156887494372228 28.1128704123049964
 -12.6837338817321594 72.4156887494372228 28.1128704123049964
 -35.2324615097721576 72.4156887494372228 28.1128704123049964
 -38.0511158817321586 72.4156887494372228 28.1128704123049964
 39.4603150455954648 69.9747351610314468 28.1128704123049964
 28.1859512315754728 69.9747351610314468 28.1128704123049964
 19.7301572315754683 69.9747351610314468 28.1128704123049964
 -8.4557945824445344 69.9747351610314468 28.1128704123049964
 -16.9115885824445336 69.9747351610314468 28.1128704123049964
 -22.5488127684245363 69.9747351610314468 28.1128704123049964
 -25.3673825824445345 69.9747351610314468 28.1128704123049964
 -28.1860369544045355 69.9747351610314468 28.1128704123049964
 -33.8231765824445318 69.9747351610314468 28.1128704123049964
 -39.4604007684245346 69.9747351610314468 28.1128704123049964
 23.9580542518936852 67.5337083432857384 28.1128704123049964
 15.5022602518936878 67.5337083432857384 28.1128704123049964
  7.0464662518936976 67.5337083432857384 28.1128704123049964
 -1.4093277481063067 67.5337083432857384 28.1128704123049964
 -15.5022613761463042 67.5337083432857384 28.1128704123049964
 -29.5952795621263043 67.5337083432857384 28.1128704123049964
 -32.4138493761463025 67.5337083432857384 28.1128704123049964
 -26.7767097074710669 62.6518011664742076 28.1128704123049964
 43.6882122284558676 48.0059331773597151 28.1128704123049964
 -32.4139338934510661 62.6518011664742076 28.1128704123049964
 33.8231754988271618 60.2107743487284921 28.1128704123049964
 -16.9115884605376010 55.3288671719169614 28.1128704123049964
 -31.0046066465175976 55.3288671719169614 28.1128704123049964
 38.0510725597806356 52.8878403541712458 28.1128704123049964
 12.6836905597806329 52.8878403541712458 28.1128704123049964
 -1.4093276261993704 52.8878403541712458 28.1128704123049964
 -7.0464672542393672 52.8878403541712458 28.1128704123049964
 -9.8651216261993682 52.8878403541712458 28.1128704123049964
 -18.3209156261993691 52.8878403541712458 28.1128704123049964
 -21.1394854402193673 52.8878403541712458 28.1128704123049964
 -23.9580552542393690 52.8878403541712458 28.1128704123049964
 -29.5952794402193682 52.8878403541712458 28.1128704123049964
 -14.0930186465175975 55.3288671719169614 28.1128704123049964
 50.7347213011282463 50.4468867657654769 28.1128704123049964
 22.5487694871082525 50.4468867657654769 28.1128704123049964
 16.9115453011282568 50.4468867657654769 28.1128704123049964
 -0.0000426988717480 50.4468867657654769 28.1128704123049964
 -2.8186125128917427 50.4468867657654769 28.1128704123049964
 -8.4558366988717459 50.4468867657654769 28.1128704123049964
 -19.7302005128917450 50.4468867657654769 28.1128704123049964
 -22.5487703269117468 50.4468867657654769 28.1128704123049964
 -25.3674246988717442 50.4468867657654769 28.1128704123049964
 -28.1859945128917460 50.4468867657654769 28.1128704123049964
 54.9626606004158731 48.0059331773597151 28.1128704123049964
 52.1440062284558650 48.0059331773597151 28.1128704123049964
 42.2789273011282489 50.4468867657654769 28.1128704123049964
 -0.0000004605375943 55.3288671719169614 28.1128704123049964
  2.8185693534824074 55.3288671719169614 28.1128704123049964
 14.0929331675024070 55.3288671719169614 28.1128704123049964
 25.3673814988271609 60.2107743487284921 28.1128704123049964
 19.7301573128471581 60.2107743487284921 28.1128704123049964
 14.0930176848071671 60.2107743487284921 28.1128704123049964
 11.2743633128471661 60.2107743487284921 28.1128704123049964
 -2.8185703151928343 60.2107743487284921 28.1128704123049964
 -5.6372246871528393 60.2107743487284921 28.1128704123049964
 -28.1859523151928357 60.2107743487284921 28.1128704123049964
 -31.0046066871528367 60.2107743487284921 28.1128704123049964
 49.3254786121347877 57.7698207603227232 28.1128704123049964
 26.7766664261547831 57.7698207603227232 28.1128704123049964
 23.9580966121347885 57.7698207603227232 28.1128704123049964
 18.3208724261547857 57.7698207603227232 28.1128704123049964
 15.5023026121347893 57.7698207603227232 28.1128704123049964
 12.6836482401747883 57.7698207603227232 28.1128704123049964
  7.0465086121347857 57.7698207603227232 28.1128704123049964
  4.2278542401747847 57.7698207603227232 28.1128704123049964
 -4.2279397598252162 57.7698207603227232 28.1128704123049964
 -7.0465095738452108 57.7698207603227232 28.1128704123049964
 -21.1395277598252136 57.7698207603227232 28.1128704123049964
 -29.5953217598252145 57.7698207603227232 28.1128704123049964
 47.9161091675023982 55.3288671719169614 28.1128704123049964
 36.6417453534824062 55.3288671719169614 28.1128704123049964
 31.0045211675023928 55.3288671719169614 28.1128704123049964
 22.5487271675023955 55.3288671719169614 28.1128704123049964
 19.7301573534824009 55.3288671719169614 28.1128704123049964
 47.9161936848071619 60.2107743487284921 28.1128704123049964
 -5.6372244027037182 26.0371311936879657 28.1128704123049964
 38.0510301182678390 72.4156887494372228 28.1128704123049964
 -11.2744485886837182 26.0371311936879657 28.1128704123049964
 23.9580969778556039 13.8322167929792403 28.1128704123049964
 15.5023029778556030 13.8322167929792403 28.1128704123049964
  7.0465089778555976 13.8322167929792403 28.1128704123049964
  1.4092847918756004 13.8322167929792403 28.1128704123049964
 -1.4092850221444004 13.8322167929792403 28.1128704123049964
 -4.2279393941043990 13.8322167929792403 28.1128704123049964
 76.1021459051832210 11.3912632045734714 28.1128704123049964
 -8.4557942167237172 26.0371311936879657 28.1128704123049964
 70.4649217192032182 11.3912632045734714 28.1128704123049964
 67.6463519051832236 11.3912632045734714 28.1128704123049964
 62.0091277192032209 11.3912632045734714 28.1128704123049964
 56.3719035332232110 11.3912632045734714 28.1128704123049964
 50.7347639051832218 11.3912632045734714 28.1128704123049964
 45.0975397192032190 11.3912632045734714 28.1128704123049964
 28.1859517192032243 11.3912632045734714 28.1128704123049964
 25.3673819051832226 11.3912632045734714 28.1128704123049964
 19.7301577192032234 11.3912632045734714 28.1128704123049964
 16.9115879051832216 11.3912632045734714 28.1128704123049964
 14.0929335332232206 11.3912632045734714 28.1128704123049964
 11.2743637192032189 11.3912632045734714 28.1128704123049964
  5.6371395332232206 11.3912632045734714 28.1128704123049964
 29.5952366058956002 13.8322167929792403 28.1128704123049964
 -0.0000000948167802 11.3912632045734714 28.1128704123049964
 49.3254789778556031 13.8322167929792403 28.1128704123049964
 54.9626186058955923 13.8322167929792403 28.1128704123049964
  4.2278968442297478 18.7141971991307194 28.1128704123049964
  1.4092424722697507 18.7141971991307194 28.1128704123049964
 -4.2278971557702505 18.7141971991307194 28.1128704123049964
 -9.8651213417502497 18.7141971991307194 28.1128704123049964
 70.4649216785679755 16.2731703813850075 28.1128704123049964
 64.8277820505279863 16.2731703813850075 28.1128704123049964
 47.9161940505279844 16.2731703813850075 28.1128704123049964
 45.0975396785679763 16.2731703813850075 28.1128704123049964
 31.0046060505279790 16.2731703813850075 28.1128704123049964
 28.1859516785679780 16.2731703813850075 28.1128704123049964
 25.3673818645479834 16.2731703813850075 28.1128704123049964
 22.5488120505279817 16.2731703813850075 28.1128704123049964
  2.8185696785679806 16.2731703813850075 28.1128704123049964
 -0.0000001354520196 16.2731703813850075 28.1128704123049964
 -2.8185699494720202 16.2731703813850075 28.1128704123049964
 -5.6372243214320203 16.2731703813850075 28.1128704123049964
 74.6928609778556023 13.8322167929792403 28.1128704123049964
 69.0556367918755996 13.8322167929792403 28.1128704123049964
 66.2370669778556049 13.8322167929792403 28.1128704123049964
 63.4184126058955968 13.8322167929792403 28.1128704123049964
 60.5998427918756022 13.8322167929792403 28.1128704123049964
 52.1440487918755977 13.8322167929792403 28.1128704123049964
 -2.8186544667767790 11.3912632045734714 28.1128704123049964
 -5.6372242807967794 11.3912632045734714 28.1128704123049964
 71.8742489255014476  8.9502363868277595 28.1128704123049964
 80.3300429661366877  4.0683292100162243 28.1128704123049964
 71.8742489661366903  4.0683292100162243 28.1128704123049964
 66.2370247801566876  4.0683292100162243 28.1128704123049964
 32.4138487801566981  4.0683292100162243 28.1128704123049964
 29.5952789661366928  4.0683292100162243 28.1128704123049964
 26.7766245941766883  4.0683292100162243 28.1128704123049964
 23.9580547801566937  4.0683292100162243 28.1128704123049964
 12.6836909661366875  4.0683292100162243 28.1128704123049964
  9.8650365941766900  4.0683292100162243 28.1128704123049964
  7.0464667801566900  4.0683292100162243 28.1128704123049964
  4.2278969661366892  4.0683292100162243 28.1128704123049964
 73.2835761724349197  1.6273023922705114 28.1128704123049964
 70.4649218004749116  1.6273023922705114 28.1128704123049964
 56.3719881724349250  1.6273023922705114 28.1128704123049964
 53.5533338004749169  1.6273023922705114 28.1128704123049964
 39.4604001724349231  1.6273023922705114 28.1128704123049964
 31.0046061724349222  1.6273023922705114 28.1128704123049964
 25.3673819864549230  1.6273023922705114 28.1128704123049964
 11.2743638004749194  1.6273023922705114 28.1128704123049964
  8.4557939864549194  1.6273023922705114 28.1128704123049964
  5.6372241724349186  1.6273023922705114 28.1128704123049964
 -0.0000423331509293  6.5092827984219914 28.1128704123049964
  5.6371818528290705  6.5092827984219914 28.1128704123049964
 14.0929758528290687  6.5092827984219914 28.1128704123049964
 22.5487698528290750  6.5092827984219914 28.1128704123049964
 69.0556791114814530  8.9502363868277595 28.1128704123049964
 54.9626609255014458  8.9502363868277595 28.1128704123049964
 49.3254367395214430  8.9502363868277595 28.1128704123049964
 43.6882971114814538  8.9502363868277595 28.1128704123049964
 40.8696427395214528  8.9502363868277595 28.1128704123049964
 38.0510729255014510  8.9502363868277595 28.1128704123049964
 32.4138487395214483  8.9502363868277595 28.1128704123049964
 29.5952789255014537  8.9502363868277595 28.1128704123049964
 23.9580547395214474  8.9502363868277595 28.1128704123049964
 21.1394849255014528  8.9502363868277595 28.1128704123049964
  7.0464666582497495 18.7141971991307194 28.1128704123049964
 18.3209151114814510  8.9502363868277595 28.1128704123049964
 70.4649640388090717  6.5092827984219914 28.1128704123049964
 67.6463096668490635  6.5092827984219914 28.1128704123049964
 62.0091700388090601  6.5092827984219914 28.1128704123049964
 50.7347216668490617  6.5092827984219914 28.1128704123049964
 39.4603578528290697  6.5092827984219914 28.1128704123049964
 36.6417880388090680  6.5092827984219914 28.1128704123049964
 33.8231336668490670  6.5092827984219914 28.1128704123049964
 31.0045638528290759  6.5092827984219914 28.1128704123049964
 28.1859940388090742  6.5092827984219914 28.1128704123049964
 25.3673396668490696  6.5092827984219914 28.1128704123049964
 -1.4093272604785494  8.9502363868277595 28.1128704123049964
  9.8650364722697521 18.7141971991307194 28.1128704123049964
 73.2834915332232129 11.3912632045734714 28.1128704123049964
 62.0091699169021311 21.1551507875364884 28.1128704123049964
  8.4557515449421317 21.1551507875364884 28.1128704123049964
 69.0556789895745169 23.5961043759422537 28.1128704123049964
 32.4138486582497549 18.7141971991307194 28.1128704123049964
 22.5487697309221353 21.1551507875364884 28.1128704123049964
 66.2370246176145088 23.5961043759422537 28.1128704123049964
 70.4649639169021356 21.1551507875364884 28.1128704123049964
 49.3254366582497497 18.7141971991307194 28.1128704123049964
 33.8231335449421309 21.1551507875364884 28.1128704123049964
 18.3209149895745149 23.5961043759422537 28.1128704123049964
 29.5952788035945140 23.5961043759422537 28.1128704123049964
 25.3673395449421299 21.1551507875364884 28.1128704123049964
 16.9115455449421290 21.1551507875364884 28.1128704123049964
 31.0045637309221327 21.1551507875364884 28.1128704123049964
 38.0510728442297577 18.7141971991307194 28.1128704123049964
 66.2370246582497515 18.7141971991307194 28.1128704123049964
 46.5068668035945052 23.5961043759422537 28.1128704123049964
 69.0555944722697461 18.7141971991307194 28.1128704123049964
 63.4184548442297569 18.7141971991307194 28.1128704123049964
 54.9626608442297453 18.7141971991307194 28.1128704123049964
 -9.8651213823854889 23.5961043759422537 28.1128704123049964
 21.1394848442297523 18.7141971991307194 28.1128704123049964
 23.9580546582497540 18.7141971991307194 28.1128704123049964
 42.2789275449421211 21.1551507875364884 28.1128704123049964
 26.7766244722697486 18.7141971991307194 28.1128704123049964
  1.4093269895745080 23.5961043759422537 28.1128704123049964
  7.0464666176145112 23.5961043759422537 28.1128704123049964
 46.5068668442297550 18.7141971991307194 28.1128704123049964
 29.5952788442297496 18.7141971991307194 28.1128704123049964
 28.1859939169021310 21.1551507875364884 28.1128704123049964
  9.8651209895745122 23.5961043759422537 28.1128704123049964
 19.7301999169021336 21.1551507875364884 28.1128704123049964
 -14.0930184027037182 26.0371311936879657 28.1128704123049964
 50.7347215449421185 21.1551507875364884 28.1128704123049964
 53.5533759169021195 21.1551507875364884 28.1128704123049964
 49.3254366176144998 23.5961043759422537 28.1128704123049964
 52.1440064722697443 18.7141971991307194 28.1128704123049964
 52.1440909895745008 23.5961043759422537 28.1128704123049964
 60.5998851385716151  5.6956316022867357 28.6327538495249954
 29.5953207845697079 59.3971231525932382 28.6327538495249954
 11.2744482229629011 17.9004727736555189 28.6327538495249954
 40.8696845985897141 59.3971231525932382 28.6327538495249954
 54.9626609525916123  5.6956316022867357 28.6327538495249954
 69.0556790166646692 20.3414995914012344 28.6327538495249954
 -31.0045221427579136 61.8380767409990000 28.6327538495249954
  8.4557937697312031 27.6644335859584807 28.6327538495249954
 -11.2744062826229499 22.7824531798069998 28.6327538495249954
 -5.6371401427579215 61.8380767409990000 28.6327538495249954
 -0.0000005147179177 61.8380767409990000 28.6327538495249954
 -0.0000002302687971 27.6644335859584807 28.6327538495249954
 -2.8185700442888009 27.6644335859584807 28.6327538495249954
 -5.6371820966429516 22.7824531798069998 28.6327538495249954
 18.3209151385716105  5.6956316022867357 28.6327538495249954
 -2.8186122826229494 22.7824531798069998 28.6327538495249954
 57.7812307666116141  5.6956316022867357 28.6327538495249954
 -22.5487281427579163 61.8380767409990000 28.6327538495249954
 74.6928187666116230  5.6956316022867357 28.6327538495249954
 14.0930179557111952 27.6644335859584807 28.6327538495249954
 14.0929758392839890  8.1365851906925037 28.6327538495249954
 57.7812306447046780 20.3414995914012344 28.6327538495249954
 19.7301573399373318 56.9561695641874692 28.6327538495249954
 39.4603999557111962 27.6644335859584807 28.6327538495249954
 42.2789697697312050 27.6644335859584807 28.6327538495249954
 25.3674242112439856  8.1365851906925037 28.6327538495249954
 31.0046057118973302 56.9561695641874692 28.6327538495249954
 11.2743633399373131 56.9561695641874692 28.6327538495249954
 56.3719879557112051 27.6644335859584807 28.6327538495249954
 49.3254366447046735 20.3414995914012344 28.6327538495249954
 -8.4557944740826727 56.9561695641874692 28.6327538495249954
 59.1905577697312140 27.6644335859584807 28.6327538495249954
 -25.3673824740826745 56.9561695641874692 28.6327538495249954
 45.0975820252639821  8.1365851906925037 28.6327538495249954
  8.4557935259173256 56.9561695641874692 28.6327538495249954
 18.3208724126097096 59.3971231525932382 28.6327538495249954
 36.6417453399373301 56.9561695641874692 28.6327538495249954
 45.0975393399373274 56.9561695641874692 28.6327538495249954
 16.9115877697311987 27.6644335859584807 28.6327538495249954
  4.2279387845697078 59.3971231525932382 28.6327538495249954
 -1.4092854014103018 59.3971231525932382 28.6327538495249954
 22.5488116712620865 61.8380767409990000 28.6327538495249954
 77.5114731385716169  5.6956316022867357 28.6327538495249954
 -9.8650794014102949 59.3971231525932382 28.6327538495249954
 42.2789695259173328 56.9561695641874692 28.6327538495249954
 -12.6836492154302967 59.3971231525932382 28.6327538495249954
 -18.3208734014102959 59.3971231525932382 28.6327538495249954
 -23.9580975873902986 59.3971231525932382 28.6327538495249954
 22.5488119557112086 27.6644335859584807 28.6327538495249954
  2.8186120252639890  8.1365851906925037 28.6327538495249954
 50.7347635259173302 56.9561695641874692 28.6327538495249954
  8.4558362112439873  8.1365851906925037 28.6327538495249954
 -15.5023035873902977 59.3971231525932382 28.6327538495249954
  5.6371817173770493 22.7824531798069998 28.6327538495249954
 59.1905579729098434  3.2546047845410229 28.6327538495249954
 39.4603996712620955 61.8380767409990000 28.6327538495249954
 64.8277397173770566 22.7824531798069998 28.6327538495249954
 52.1440489002374647  0.8136511961352557 28.6327538495249954
 49.3254790862174488  0.8136511961352557 28.6327538495249954
 12.6836907900494289 25.2234067682127652 28.6327538495249954
 -12.6836915756713875 69.1610107355562462 28.6327538495249954
 -9.8650372037113900 69.1610107355562462 28.6327538495249954
 38.0511152721974639  0.8136511961352557 28.6327538495249954
 -4.2278975756713866 69.1610107355562462 28.6327538495249954
  4.2278964243286037 69.1610107355562462 28.6327538495249954
  7.0465507962886189 69.1610107355562462 28.6327538495249954
  9.8651206103086064 69.1610107355562462 28.6327538495249954
 35.2324609002374558  0.8136511961352557 28.6327538495249954
 21.1394844243286215 69.1610107355562462 28.6327538495249954
 26.7767086103086172 69.1610107355562462 28.6327538495249954
 29.5952784243286260 69.1610107355562462 28.6327538495249954
 21.1395272721974621  0.8136511961352557 28.6327538495249954
 -36.6417464100096169 71.6020375533019688 28.6327538495249954
  1.4092849002374601  0.8136511961352557 28.6327538495249954
 -4.2278972099505676 25.2234067682127652 28.6327538495249954
  1.4093269760294336 25.2234067682127652 28.6327538495249954
 11.2743632180303894 71.6020375533019688 28.6327538495249954
  8.4557934040103735 71.6020375533019688 28.6327538495249954
  5.6372235899903860 71.6020375533019688 28.6327538495249954
 59.1906000893370532 22.7824531798069998 28.6327538495249954
  9.8650789002374601  0.8136511961352557 28.6327538495249954
 -2.8185704100096114 71.6020375533019688 28.6327538495249954
 15.5023030862174611  0.8136511961352557 28.6327538495249954
 -14.0930187819696204 71.6020375533019688 28.6327538495249954
 -16.9115885959896168 71.6020375533019688 28.6327538495249954
 -28.1859524100096195 71.6020375533019688 28.6327538495249954
 18.3208729002374611  0.8136511961352557 28.6327538495249954
 -0.0000005959896168 71.6020375533019688 28.6327538495249954
 81.7393701588898551  3.2546047845410229 28.6327538495249954
 23.9581391620094379 25.2234067682127652 28.6327538495249954
 36.6417875376362474 66.7200571471504844 28.6327538495249954
 42.2789694852820901 61.8380767409990000 28.6327538495249954
 78.9208003448698463  3.2546047845410229 28.6327538495249954
 67.6463519729098550  3.2546047845410229 28.6327538495249954
 14.0929757173770476 22.7824531798069998 28.6327538495249954
 64.8277821588898462  3.2546047845410229 28.6327538495249954
 -15.5022613490561429 64.2791035587447084 28.6327538495249954
 62.0092123448698445  3.2546047845410229 28.6327538495249954
 46.5068665462355568 54.5151427464417537 28.6327538495249954
 47.9161941588898301  3.2546047845410229 28.6327538495249954
 42.2789699729098274  3.2546047845410229 28.6327538495249954
 18.3209146509438554 64.2791035587447084 28.6327538495249954
 52.1440909760294318 25.2234067682127652 28.6327538495249954
 21.1394844649638500 64.2791035587447084 28.6327538495249954
 28.1860363448698337  3.2546047845410229 28.6327538495249954
 36.6417879033570415 22.7824531798069998 28.6327538495249954
 40.8696422789838678 64.2791035587447084 28.6327538495249954
 19.7302423448698399  3.2546047845410229 28.6327538495249954
 33.8232177236162386 66.7200571471504844 28.6327538495249954
 31.0045633516562411 66.7200571471504844 28.6327538495249954
 25.3674237236162377 66.7200571471504844 28.6327538495249954
 22.5487693516562366 66.7200571471504844 28.6327538495249954
 74.6928610862174764  0.8136511961352557 28.6327538495249954
 11.2744055376362251 66.7200571471504844 28.6327538495249954
 42.2790117236162359 66.7200571471504844 28.6327538495249954
 83.1486550862174738  0.8136511961352557 28.6327538495249954
  2.8186543448698407  3.2546047845410229 28.6327538495249954
 -14.0929764623637634 66.7200571471504844 28.6327538495249954
 -22.5487704623637697 66.7200571471504844 28.6327538495249954
 -28.1859946483437653 66.7200571471504844 28.6327538495249954
 42.2790120893370442 22.7824531798069998 28.6327538495249954
 38.0510727900494388 25.2234067682127652 28.6327538495249954
  5.6371813516562215 66.7200571471504844 28.6327538495249954
 -15.5023033435764184 30.1053871743642461 28.6327538495249954
 -9.8650791575964192 30.1053871743642461 28.6327538495249954
 59.1906002112439964  8.1365851906925037 28.6327538495249954
 -14.0930185381557376 42.3103015750729767 28.6327538495249954
 -8.4557943521757366 42.3103015750729767 28.6327538495249954
 -5.6372245381557384 42.3103015750729767 28.6327538495249954
  9.8650787783305205 15.4595191852497500 28.6327538495249954
  5.6372238338042564 42.3103015750729767 28.6327538495249954
  4.2279391502905188 15.4595191852497500 28.6327538495249954
 11.2743634618442599 42.3103015750729767 28.6327538495249954
 64.8277819150759740 32.5463407627700150 28.6327538495249954
 42.2789698510029055 17.9004727736555189 28.6327538495249954
 -1.4092850356894804 15.4595191852497500 28.6327538495249954
 36.6417454618442662 42.3103015750729767 28.6327538495249954
 42.2789696478242618 42.3103015750729767 28.6327538495249954
 53.5533334618442680 42.3103015750729767 28.6327538495249954
 -7.0465092216694787 15.4595191852497500 28.6327538495249954
 -21.1394430935233544 44.7512551634787386 28.6327538495249954
 -18.3208732795033562 44.7512551634787386 28.6327538495249954
 -15.5023034654833562 44.7512551634787386 28.6327538495249954
 36.6417457056581313 13.0185655968439828 28.6327538495249954
 39.4604000776181465 13.0185655968439828 28.6327538495249954
 49.3254787204966547 44.7512551634787386 28.6327538495249954
 45.0975397056581500 13.0185655968439828 28.6327538495249954
 43.6882545345166520 44.7512551634787386 28.6327538495249954
 38.0511149064766485 44.7512551634787386 28.6327538495249954
 12.6837331502905215 15.4595191852497500 28.6327538495249954
 19.7302421010559677 32.5463407627700150 28.6327538495249954
 23.9580967204966342 44.7512551634787386 28.6327538495249954
 33.8231757290959649 32.5463407627700150 28.6327538495249954
 21.1395269064766467 44.7512551634787386 28.6327538495249954
 -4.2278550935233552 44.7512551634787386 28.6327538495249954
 -9.8650792795033553 44.7512551634787386 28.6327538495249954
 -12.6836490935233588 44.7512551634787386 28.6327538495249954
 22.5488119150759623 32.5463407627700150 28.6327538495249954
 -16.9115883521757375 42.3103015750729767 28.6327538495249954
 60.5998848541225001 39.8692747573272612 28.6327538495249954
 15.5023029643105232 15.4595191852497500 28.6327538495249954
 54.9627031502905297 15.4595191852497500 28.6327538495249954
 57.7812729643105243 15.4595191852497500 28.6327538495249954
 31.0045635954701204 37.4283211689214923 28.6327538495249954
 60.5998427783305331 15.4595191852497500 28.6327538495249954
 12.6836907087777320 34.9873675805157234 28.6327538495249954
 14.0929755954701115 37.4283211689214923 28.6327538495249954
 42.2790119674301152 37.4283211689214923 28.6327538495249954
 11.2744057814501097 37.4283211689214923 28.6327538495249954
  2.8186117814501150 37.4283211689214923 28.6327538495249954
 66.2370669643105288 15.4595191852497500 28.6327538495249954
 71.8742911502905173 15.4595191852497500 28.6327538495249954
 21.1394847087777364 34.9873675805157234 28.6327538495249954
 23.9580545227977240 34.9873675805157234 28.6327538495249954
 32.4138485227977426 34.9873675805157234 28.6327538495249954
  8.4558359674301080 37.4283211689214923 28.6327538495249954
 -16.9115883928109767 47.1922087518845075 28.6327538495249954
 47.9161515954701187 37.4283211689214923 28.6327538495249954
 56.3719455954701161 37.4283211689214923 28.6327538495249954
 52.1440908541225028 39.8692747573272612 28.6327538495249954
 18.3208727783305179 15.4595191852497500 28.6327538495249954
 46.5068666681425000 39.8692747573272612 28.6327538495249954
 -18.3209154772022664 34.9873675805157234 28.6327538495249954
 32.4139330401024850 39.8692747573272612 28.6327538495249954
 29.5952786681424982 39.8692747573272612 28.6327538495249954
 50.7348059674301126 37.4283211689214923 28.6327538495249954
 26.7766667783305188 15.4595191852497500 28.6327538495249954
 -12.6836912912222672 34.9873675805157234 28.6327538495249954
 15.5023450401024956 39.8692747573272612 28.6327538495249954
 12.6836906681424875 39.8692747573272612 28.6327538495249954
 40.8696849643105153 15.4595191852497500 28.6327538495249954
 36.6418302229629020 17.9004727736555189 28.6327538495249954
 -4.2278973318575099 39.8692747573272612 28.6327538495249954
 33.8231754040103922 71.6020375533019688 28.6327538495249954
 -14.0929340208509810 47.1922087518845075 28.6327538495249954
 -11.2743642068309775 47.1922087518845075 28.6327538495249954
 33.8231758916381438 13.0185655968439828 28.6327538495249954
 45.0975816595431809 52.0741891580359919 28.6327538495249954
 39.4603574735631781 52.0741891580359919 28.6327538495249954
  1.4093270979363695 10.5775387790982709 28.6327538495249954
 33.8232178455231747 52.0741891580359919 28.6327538495249954
 31.0045634735631737 52.0741891580359919 28.6327538495249954
 28.1859936595431719 52.0741891580359919 28.6327538495249954
 47.9161514735631755 52.0741891580359919 28.6327538495249954
 14.0929754735631594 52.0741891580359919 28.6327538495249954
  8.4558358455231772 52.0741891580359919 28.6327538495249954
  5.6371814735631682 52.0741891580359919 28.6327538495249954
 29.5952788306846699 20.3414995914012344 28.6327538495249954
 -5.6371823404568273 52.0741891580359919 28.6327538495249954
 23.9580968424035810 30.1053871743642461 28.6327538495249954
 -14.0929763404568273 52.0741891580359919 28.6327538495249954
 11.2744056595431719 52.0741891580359919 28.6327538495249954
 29.5953210283835837 30.1053871743642461 28.6327538495249954
 50.7348058455231694 52.0741891580359919 28.6327538495249954
 -26.7766250818044469 54.5151427464417537 28.6327538495249954
 29.5952785462355585 54.5151427464417537 28.6327538495249954
 26.7767087322155568 54.5151427464417537 28.6327538495249954
 62.0091700252639910  8.1365851906925037 28.6327538495249954
 64.8277398392839928  8.1365851906925037 28.6327538495249954
 -12.6836489716164174 30.1053871743642461 28.6327538495249954
  9.8651207322155532 54.5151427464417537 28.6327538495249954
 53.5533756595431782 52.0741891580359919 28.6327538495249954
  7.0465509181955595 54.5151427464417537 28.6327538495249954
 16.9115878510028992 17.9004727736555189 28.6327538495249954
 78.9207580252639929  8.1365851906925037 28.6327538495249954
 -4.2278974537644496 54.5151427464417537 28.6327538495249954
 40.8696426447046761 20.3414995914012344 28.6327538495249954
 38.0510728306846602 20.3414995914012344 28.6327538495249954
 -21.1394854537644470 54.5151427464417537 28.6327538495249954
  4.2278965462355513 54.5151427464417537 28.6327538495249954
 32.4139329181955560 54.5151427464417537 28.6327538495249954
 29.5952789119563668 10.5775387790982709 28.6327538495249954
 46.5068665868708067 49.6332355696302230 28.6327538495249954
  4.2278968306846716 20.3414995914012344 28.6327538495249954
 -1.4093273552953294 20.3414995914012344 28.6327538495249954
 39.4603997931690245 47.1922087518845075 28.6327538495249954
 -0.0000002709040391 32.5463407627700150 28.6327538495249954
 11.2743637056581409 13.0185655968439828 28.6327538495249954
  5.6372239150759640 32.5463407627700150 28.6327538495249954
 -11.2743640849240396 32.5463407627700150 28.6327538495249954
 22.5488117931690120 47.1922087518845075 28.6327538495249954
 16.9115876071890092 47.1922087518845075 28.6327538495249954
 22.5488120776181340 13.0185655968439828 28.6327538495249954
 -7.0464669833353293 20.3414995914012344 28.6327538495249954
  5.6372237931690181 47.1922087518845075 28.6327538495249954
  2.8186539791490159 47.1922087518845075 28.6327538495249954
 -9.8651213552953294 20.3414995914012344 28.6327538495249954
 19.7302419791490244 47.1922087518845075 28.6327538495249954
 35.2325030979363731 10.5775387790982709 28.6327538495249954
 -14.0929338989440378 32.5463407627700150 28.6327538495249954
 -26.7767095991092070 49.6332355696302230 28.6327538495249954
 40.8696424008908039 49.6332355696302230 28.6327538495249954
 29.5952785868707942 49.6332355696302230 28.6327538495249954
 23.9580544008907985 49.6332355696302230 28.6327538495249954
 46.5068669119563793 10.5775387790982709 28.6327538495249954
 21.1394845868707826 49.6332355696302230 28.6327538495249954
  9.8651207728507995 49.6332355696302230 28.6327538495249954
 66.2370668424035927 30.1053871743642461 28.6327538495249954
  4.2278965868707896 49.6332355696302230 28.6327538495249954
 52.1440910979363750 10.5775387790982709 28.6327538495249954
 15.5022606447046662 20.3414995914012344 28.6327538495249954
 57.7813152839163777 10.5775387790982709 28.6327538495249954
 -15.5022612271492086 49.6332355696302230 28.6327538495249954
 49.3254788424035837 30.1053871743642461 28.6327538495249954
 12.6836908306846716 20.3414995914012344 28.6327538495249954
  1.4093267728507877 49.6332355696302230 28.6327538495249954
 -15.5022611052422672 34.9873675805157234 28.6327538495249954
