 H  O 
 1.0000000000000000
    84.5579400000000021    0.0000000000000000    0.0000000000000000
   -42.2789706095346958   73.2293399455724767    0.0000000000000000
     0.0000000000000000    0.0000000000000000   46.9039550000000034
 H   O  
 329 265
Cartesian
 -0.0000000135450799  1.6273023922705114 28.1128704123049964
 -9.8651214636571893 33.3600651882452155 28.1128704123049964
 -15.5023456496371885 33.3600651882452155 28.1128704123049964
 -18.3209154636571903 33.3600651882452155 28.1128704123049964
 49.3254786121347877 57.7698207603227232 28.1128704123049964
 -8.4557945011728339 60.2107743487284921 28.1128704123049964
 28.1859515566610455 30.9190383704995000 28.1128704123049964
 22.5488119286210420 30.9190383704995000 28.1128704123049964
 14.0930179286210446 30.9190383704995000 28.1128704123049964
 40.8696846121347903 57.7698207603227232 28.1128704123049964
  8.4557937426410454 30.9190383704995000 28.1128704123049964
  2.8185695566610427 30.9190383704995000 28.1128704123049964
 -5.6372244433389582 30.9190383704995000 28.1128704123049964
 -11.2743640713789581 30.9190383704995000 28.1128704123049964
 -14.0930184433389574 30.9190383704995000 28.1128704123049964
 -16.9115882573589573 30.9190383704995000 28.1128704123049964
 66.2370668559486688 28.4780847820937346 28.1128704123049964
 57.7812728559486644 28.4780847820937346 28.1128704123049964
 54.9626184839886562 28.4780847820937346 28.1128704123049964
  5.6372239286210437 30.9190383704995000 28.1128704123049964
  9.8650363503628089 33.3600651882452155 28.1128704123049964
 26.7766664261547831 57.7698207603227232 28.1128704123049964
 23.9580966121347885 57.7698207603227232 28.1128704123049964
 45.0975817949951860 35.8010187766509844 28.1128704123049964
 39.4603576090151904 35.8010187766509844 28.1128704123049964
 36.6417877949951958 35.8010187766509844 28.1128704123049964
 11.2744057949951930 35.8010187766509844 28.1128704123049964
  5.6371816090151947 35.8010187766509844 28.1128704123049964
 -8.4558365769648098 35.8010187766509844 28.1128704123049964
 -11.2744063909848098 35.8010187766509844 28.1128704123049964
 -14.0929762050048097 35.8010187766509844 28.1128704123049964
 -16.9116305769648072 35.8010187766509844 28.1128704123049964
 63.4184547223228137 33.3600651882452155 28.1128704123049964
  9.8650784261547866 57.7698207603227232 28.1128704123049964
 12.6836482401747883 57.7698207603227232 28.1128704123049964
 46.5068667223228047 33.3600651882452155 28.1128704123049964
 18.3208724261547857 57.7698207603227232 28.1128704123049964
 35.2324183503628063 33.3600651882452155 28.1128704123049964
 21.1394422401747804 57.7698207603227232 28.1128704123049964
 29.5952787223228171 33.3600651882452155 28.1128704123049964
 26.7766243503628161 33.3600651882452155 28.1128704123049964
 18.3208303503628116 33.3600651882452155 28.1128704123049964
 52.1440486699686616 28.4780847820937346 28.1128704123049964
 49.3254788559486528 28.4780847820937346 28.1128704123049964
 46.5068244839886518 28.4780847820937346 28.1128704123049964
 43.6882546699686571 28.4780847820937346 28.1128704123049964
 16.9115877832762855 26.0371311936879657 28.1128704123049964
 11.2743635972962863 26.0371311936879657 28.1128704123049964
  8.4557937832762846 26.0371311936879657 28.1128704123049964
  5.6371394113162827 26.0371311936879657 28.1128704123049964
 25.3673393011282471 50.4468867657654769 28.1128704123049964
 -14.0930184027037182 26.0371311936879657 28.1128704123049964
 57.7812306176145043 23.5961043759422537 28.1128704123049964
 54.9626608035945097 23.5961043759422537 28.1128704123049964
 52.1440909895745008 23.5961043759422537 28.1128704123049964
 49.3254366176144998 23.5961043759422537 28.1128704123049964
 46.5068668035945052 23.5961043759422537 28.1128704123049964
 32.4138486176145122 23.5961043759422537 28.1128704123049964
 23.9580542925289315 62.6518011664742076 28.1128704123049964
  9.8651209895745122 23.5961043759422537 28.1128704123049964
 29.5952784785089271 62.6518011664742076 28.1128704123049964
  4.2278968035945095 23.5961043759422537 28.1128704123049964
  1.4093269895745080 23.5961043759422537 28.1128704123049964
 32.4138482925289324 62.6518011664742076 28.1128704123049964
 38.0510724785089351 62.6518011664742076 28.1128704123049964
 -21.1394855214910677 62.6518011664742076 28.1128704123049964
 56.3719456090151922 35.8010187766509844 28.1128704123049964
 31.0045214113162864 26.0371311936879657 28.1128704123049964
 42.2789697832762812 26.0371311936879657 28.1128704123049964
 35.2324606699686598 28.4780847820937346 28.1128704123049964
  5.6372236848071626 60.2107743487284921 28.1128704123049964
 16.9115874988271635 60.2107743487284921 28.1128704123049964
  7.0465088559486642 28.4780847820937346 28.1128704123049964
  4.2278544839886631 28.4780847820937346 28.1128704123049964
 28.1859513128471555 60.2107743487284921 28.1128704123049964
 -1.4092851440513405 28.4780847820937346 28.1128704123049964
 31.0046056848071565 60.2107743487284921 28.1128704123049964
 -12.6837335160113369 28.4780847820937346 28.1128704123049964
 -15.5023033300313369 28.4780847820937346 28.1128704123049964
 67.6463517832762875 26.0371311936879657 28.1128704123049964
 36.6417453128471564 60.2107743487284921 28.1128704123049964
 62.0091275972962777 26.0371311936879657 28.1128704123049964
 59.1905577832762830 26.0371311936879657 28.1128704123049964
 39.4603996848071645 60.2107743487284921 28.1128704123049964
 53.5533335972962803 26.0371311936879657 28.1128704123049964
 45.0975393128471538 60.2107743487284921 28.1128704123049964
 50.7347637832762715 26.0371311936879657 28.1128704123049964
 47.9161094113162704 26.0371311936879657 28.1128704123049964
 39.4603154113162731 26.0371311936879657 28.1128704123049964
 -12.6836911964054888 23.5961043759422537 28.1128704123049964
 -12.6837337598252144 57.7698207603227232 28.1128704123049964
 -1.4093275042924258 38.2419723650567462 28.1128704123049964
 -4.2278973995841262 48.0059331773597151 28.1128704123049964
 -15.5023457715441282 48.0059331773597151 28.1128704123049964
 -18.3209155855641299 48.0059331773597151 28.1128704123049964
 -23.9581397715441291 48.0059331773597151 28.1128704123049964
 -26.7767095855641273 48.0059331773597151 28.1128704123049964
 -1.4093276261993704 52.8878403541712458 28.1128704123049964
  1.4093267457606342 52.8878403541712458 28.1128704123049964
  4.2278965597806355 52.8878403541712458 28.1128704123049964
 -7.0464672542393672 52.8878403541712458 28.1128704123049964
  7.0464663738006301 52.8878403541712458 28.1128704123049964
 33.8231756207340979 45.5649063596139996 28.1128704123049964
 28.1859514347540951 45.5649063596139996 28.1128704123049964
 23.9580543738006249 52.8878403541712458 28.1128704123049964
 26.7767087457606330 52.8878403541712458 28.1128704123049964
  2.8185694347540982 45.5649063596139996 28.1128704123049964
 29.5952785597806276 52.8878403541712458 28.1128704123049964
 32.4138483738006258 52.8878403541712458 28.1128704123049964
 -14.0930185652459006 45.5649063596139996 28.1128704123049964
 15.5022603738006346 52.8878403541712458 28.1128704123049964
  7.0464664144358764 48.0059331773597151 28.1128704123049964
 12.6836906004158720 48.0059331773597151 28.1128704123049964
 -15.5022612542393716 52.8878403541712458 28.1128704123049964
 14.0929754871082551 50.4468867657654769 28.1128704123049964
  8.4557513011282524 50.4468867657654769 28.1128704123049964
  2.8186116730882564 50.4468867657654769 28.1128704123049964
 -0.0000426988717480 50.4468867657654769 28.1128704123049964
 -2.8186125128917427 50.4468867657654769 28.1128704123049964
 -5.6371823269117440 50.4468867657654769 28.1128704123049964
 -11.2744065128917477 50.4468867657654769 28.1128704123049964
 53.5533756730882544 50.4468867657654769 28.1128704123049964
 -23.9580552542393690 52.8878403541712458 28.1128704123049964
 -22.5487703269117468 50.4468867657654769 28.1128704123049964
 -28.1859945128917460 50.4468867657654769 28.1128704123049964
 54.9626606004158731 48.0059331773597151 28.1128704123049964
 49.3254364144358703 48.0059331773597151 28.1128704123049964
 43.6882122284558676 48.0059331773597151 28.1128704123049964
 -21.1394854402193673 52.8878403541712458 28.1128704123049964
 32.4138484144358685 48.0059331773597151 28.1128704123049964
 29.5952786004158739 48.0059331773597151 28.1128704123049964
 26.7766242284558658 48.0059331773597151 28.1128704123049964
 -18.3209156261993691 52.8878403541712458 28.1128704123049964
 -16.9115883792659005 45.5649063596139996 28.1128704123049964
 -22.5488125652458997 45.5649063596139996 28.1128704123049964
 54.9626183620817130 43.1239527712082307 28.1128704123049964
 43.6882967457606384 52.8878403541712458 28.1128704123049964
  8.4557936613693432 40.6829991828024689 28.1128704123049964
 -5.6372245246106605 40.6829991828024689 28.1128704123049964
 -8.4557943386306622 40.6829991828024689 28.1128704123049964
  8.4557935394624035 55.3288671719169614 28.1128704123049964
 -14.0930185246106596 40.6829991828024689 28.1128704123049964
 11.2743633534824053 55.3288671719169614 28.1128704123049964
 -22.5488125246106605 40.6829991828024689 28.1128704123049964
 16.9115875394624062 55.3288671719169614 28.1128704123049964
 28.1859513534823982 55.3288671719169614 28.1128704123049964
 46.5068666816875762 38.2419723650567462 28.1128704123049964
 40.8696424957075664 38.2419723650567462 28.1128704123049964
 31.0045211675023928 55.3288671719169614 28.1128704123049964
 35.2325028676675771 38.2419723650567462 28.1128704123049964
 32.4138484957075690 38.2419723650567462 28.1128704123049964
 15.5022604957075725 38.2419723650567462 28.1128704123049964
 12.6836906816875779 38.2419723650567462 28.1128704123049964
  9.8651208676675761 38.2419723650567462 28.1128704123049964
  7.0464664957075716 38.2419723650567462 28.1128704123049964
  4.2278966816875769 38.2419723650567462 28.1128704123049964
 16.9115876613693388 40.6829991828024689 28.1128704123049964
 -23.9580975738452153 57.7698207603227232 28.1128704123049964
  2.8185693534824074 55.3288671719169614 28.1128704123049964
 -2.8186548324975988 55.3288671719169614 28.1128704123049964
 46.5068243620817157 43.1239527712082307 28.1128704123049964
 38.0510303620817112 43.1239527712082307 28.1128704123049964
 29.5952363620817174 43.1239527712082307 28.1128704123049964
 18.3208725480617254 43.1239527712082307 28.1128704123049964
  9.8650785480617262 43.1239527712082307 28.1128704123049964
  7.0465087340417254 43.1239527712082307 28.1128704123049964
 -16.9115884605376010 55.3288671719169614 28.1128704123049964
 -1.4092852659582757 43.1239527712082307 28.1128704123049964
 -7.0465094519382783 43.1239527712082307 28.1128704123049964
 -15.5023034519382783 43.1239527712082307 28.1128704123049964
 -8.4557944605375948 55.3288671719169614 28.1128704123049964
 -23.9580974519382757 43.1239527712082307 28.1128704123049964
 59.1905576613693398 40.6829991828024689 28.1128704123049964
 50.7347636613693425 40.6829991828024689 28.1128704123049964
 47.9161092894093343 40.6829991828024689 28.1128704123049964
 42.2789696613693309 40.6829991828024689 28.1128704123049964
 39.4603152894093299 40.6829991828024689 28.1128704123049964
 36.6417454753893352 40.6829991828024689 28.1128704123049964
 31.0045212894093325 40.6829991828024689 28.1128704123049964
 -0.0000004605375943 55.3288671719169614 28.1128704123049964
 70.4649639169021356 21.1551507875364884 28.1128704123049964
 -7.0465518934510678 62.6518011664742076 28.1128704123049964
 64.8277397309221328 21.1551507875364884 28.1128704123049964
 46.5068669255014484  8.9502363868277595 28.1128704123049964
  5.6371390455954664 69.9747351610314468 28.1128704123049964
 14.0929330455954638 69.9747351610314468 28.1128704123049964
 29.5952789255014537  8.9502363868277595 28.1128704123049964
 26.7767091114814519  8.9502363868277595 28.1128704123049964
 23.9580547395214474  8.9502363868277595 28.1128704123049964
 21.1394849255014528  8.9502363868277595 28.1128704123049964
 15.5022607395214518  8.9502363868277595 28.1128704123049964
 12.6836909255014501  8.9502363868277595 28.1128704123049964
  9.8651211114814483  8.9502363868277595 28.1128704123049964
  7.0464667395214500  8.9502363868277595 28.1128704123049964
  4.2278969255014500  8.9502363868277595 28.1128704123049964
  1.4093271114814494  8.9502363868277595 28.1128704123049964
 -1.4093272604785494  8.9502363868277595 28.1128704123049964
 -4.2278970744985491  8.9502363868277595 28.1128704123049964
 76.1021036668490609  6.5092827984219914 28.1128704123049964
 70.4649640388090717  6.5092827984219914 28.1128704123049964
 39.4603150455954648 69.9747351610314468 28.1128704123049964
 59.1905156668490591  6.5092827984219914 28.1128704123049964
 54.9626609255014458  8.9502363868277595 28.1128704123049964
 57.7812307395214404  8.9502363868277595 28.1128704123049964
 60.5998851114814414  8.9502363868277595 28.1128704123049964
 63.4184549255014502  8.9502363868277595 28.1128704123049964
 35.2325026238536978 67.5337083432857384 28.1128704123049964
 64.8276975332232155 11.3912632045734714 28.1128704123049964
 53.5533337192032164 11.3912632045734714 28.1128704123049964
 50.7347639051832218 11.3912632045734714 28.1128704123049964
 47.9161095332232136 11.3912632045734714 28.1128704123049964
 45.0975397192032190 11.3912632045734714 28.1128704123049964
 39.4603155332232234 11.3912632045734714 28.1128704123049964
 43.6882966238536952 67.5337083432857384 28.1128704123049964
 -39.4604007684245346 69.9747351610314468 28.1128704123049964
 56.3719458528290644  6.5092827984219914 28.1128704123049964
 -33.8231765824445318 69.9747351610314468 28.1128704123049964
 22.5487275332232180 11.3912632045734714 28.1128704123049964
 11.2743637192032189 11.3912632045734714 28.1128704123049964
 43.6882121065489244 62.6518011664742076 28.1128704123049964
 -5.6372242807967794 11.3912632045734714 28.1128704123049964
 -19.7302429544045346 69.9747351610314468 28.1128704123049964
 -16.9115885824445336 69.9747351610314468 28.1128704123049964
 71.8742489255014476  8.9502363868277595 28.1128704123049964
 -11.2744489544045354 69.9747351610314468 28.1128704123049964
 -2.8186549544045376 69.9747351610314468 28.1128704123049964
 25.3673819051832226 11.3912632045734714 28.1128704123049964
 32.4138482518936897 67.5337083432857384 28.1128704123049964
 53.5533760388090698  6.5092827984219914 28.1128704123049964
 47.9161518528290671  6.5092827984219914 28.1128704123049964
  9.8650365941766900  4.0683292100162243 28.1128704123049964
  7.0464667801566900  4.0683292100162243 28.1128704123049964
  4.2278969661366892  4.0683292100162243 28.1128704123049964
  1.4092425941766900  4.0683292100162243 28.1128704123049964
 -1.4093272198433096  4.0683292100162243 28.1128704123049964
 81.7393701724349171  1.6273023922705114 28.1128704123049964
 70.4649218004749116  1.6273023922705114 28.1128704123049964
 64.8277821724349081  1.6273023922705114 28.1128704123049964
 59.1905579864549196  1.6273023922705114 28.1128704123049964
 56.3719881724349250  1.6273023922705114 28.1128704123049964
 53.5533338004749169  1.6273023922705114 28.1128704123049964
 47.9161941724349276  1.6273023922705114 28.1128704123049964
 21.1394421182678336 72.4156887494372228 28.1128704123049964
 36.6417458004749221  1.6273023922705114 28.1128704123049964
 31.0046061724349222  1.6273023922705114 28.1128704123049964
 25.3673819864549230  1.6273023922705114 28.1128704123049964
 11.2743638004749194  1.6273023922705114 28.1128704123049964
  8.4557939864549194  1.6273023922705114 28.1128704123049964
  2.8185698004749202  1.6273023922705114 28.1128704123049964
 15.5023024902278443 72.4156887494372228 28.1128704123049964
  9.8650783042478416 72.4156887494372228 28.1128704123049964
 23.9580547801566937  4.0683292100162243 28.1128704123049964
 43.6882125941766972  4.0683292100162243 28.1128704123049964
 45.0975820388090725  6.5092827984219914 28.1128704123049964
 42.2789276668490714  6.5092827984219914 28.1128704123049964
 36.6417880388090680  6.5092827984219914 28.1128704123049964
 -40.8696856957521533 72.4156887494372228 28.1128704123049964
 28.1859940388090742  6.5092827984219914 28.1128704123049964
 -38.0511158817321586 72.4156887494372228 28.1128704123049964
 22.5487698528290750  6.5092827984219914 28.1128704123049964
 -35.2324615097721576 72.4156887494372228 28.1128704123049964
 11.2744060388090670  6.5092827984219914 28.1128704123049964
 50.7347216668490617  6.5092827984219914 28.1128704123049964
  8.4557516668490695  6.5092827984219914 28.1128704123049964
 -2.8186121471709296  6.5092827984219914 28.1128704123049964
 80.3300429661366877  4.0683292100162243 28.1128704123049964
 77.5113885941766796  4.0683292100162243 28.1128704123049964
 66.2370247801566876  4.0683292100162243 28.1128704123049964
 60.5998005941766849  4.0683292100162243 28.1128704123049964
 57.7812307801566902  4.0683292100162243 28.1128704123049964
 52.1440065941766875  4.0683292100162243 28.1128704123049964
  1.4092843042478451 72.4156887494372228 28.1128704123049964
 46.5068669661366982  4.0683292100162243 28.1128704123049964
  5.6371818528290705  6.5092827984219914 28.1128704123049964
 -7.0465092081243990 13.8322167929792403 28.1128704123049964
 -25.3673825824445345 69.9747351610314468 28.1128704123049964
 31.0045634871082498 50.4468867657654769 28.1128704123049964
 -12.6836915621263024 67.5337083432857384 28.1128704123049964
 -9.8651217481063078 67.5337083432857384 28.1128704123049964
 66.2370246582497515 18.7141971991307194 28.1128704123049964
 -0.0000428207786890 65.0927547548799765 28.1128704123049964
 -4.2278975621263015 67.5337083432857384 28.1128704123049964
  4.2278964378736958 67.5337083432857384 28.1128704123049964
 60.5998004722697488 18.7141971991307194 28.1128704123049964
  7.0464662518936976 67.5337083432857384 28.1128704123049964
 71.8742066058955942 13.8322167929792403 28.1128704123049964
 71.8742488442297542 18.7141971991307194 28.1128704123049964
 35.2324184722697566 18.7141971991307194 28.1128704123049964
  2.8186119169021282 21.1551507875364884 28.1128704123049964
 -11.2744066347986838 65.0927547548799765 28.1128704123049964
 18.3209146238536960 67.5337083432857384 28.1128704123049964
 -2.8185699494720202 16.2731703813850075 28.1128704123049964
  8.4557515449421317 21.1551507875364884 28.1128704123049964
  5.6371813652013136 65.0927547548799765 28.1128704123049964
 -21.1394855621263069 67.5337083432857384 28.1128704123049964
 16.9115451792213065 65.0927547548799765 28.1128704123049964
 52.1440064722697443 18.7141971991307194 28.1128704123049964
 29.5952788442297496 18.7141971991307194 28.1128704123049964
 23.9580546582497540 18.7141971991307194 28.1128704123049964
 21.1394848442297523 18.7141971991307194 28.1128704123049964
  9.8650364722697521 18.7141971991307194 28.1128704123049964
 50.7347638645479790 16.2731703813850075 28.1128704123049964
 -38.0510735621263052 67.5337083432857384 28.1128704123049964
 -1.4093273417502492 18.7141971991307194 28.1128704123049964
 -4.2278971557702505 18.7141971991307194 28.1128704123049964
 -9.8651213417502497 18.7141971991307194 28.1128704123049964
 67.6463518645479809 16.2731703813850075 28.1128704123049964
 64.8277820505279863 16.2731703813850075 28.1128704123049964
 -23.9580553761463051 67.5337083432857384 28.1128704123049964
 -4.2279393941043990 13.8322167929792403 28.1128704123049964
 -16.9116308207786865 65.0927547548799765 28.1128704123049964
 15.5022602518936878 67.5337083432857384 28.1128704123049964
 -1.4092850221444004 13.8322167929792403 28.1128704123049964
 -36.6417886347986865 65.0927547548799765 28.1128704123049964
 23.9580542518936852 67.5337083432857384 28.1128704123049964
 50.7347215449421185 21.1551507875364884 28.1128704123049964
 -28.1859946347986892 65.0927547548799765 28.1128704123049964
 36.6417879169021319 21.1551507875364884 28.1128704123049964
 18.3208727918756047 13.8322167929792403 28.1128704123049964
 21.1394426058955993 13.8322167929792403 28.1128704123049964
 15.5023029778556030 13.8322167929792403 28.1128704123049964
 23.9580969778556039 13.8322167929792403 28.1128704123049964
 46.5068664785089325 62.6518011664742076 28.1128704123049964
 12.6836486058956019 13.8322167929792403 28.1128704123049964
 32.4138909778556012 13.8322167929792403 28.1128704123049964
 29.5952366058956002 13.8322167929792403 28.1128704123049964
 -19.7302006347986882 65.0927547548799765 28.1128704123049964
 35.2324607918756030 13.8322167929792403 28.1128704123049964
 26.7766667918756056 13.8322167929792403 28.1128704123049964
 28.1859512180303895 71.6020375533019688 28.6327538495249954
 35.2325027728508005 49.6332355696302230 28.6327538495249954
 -22.5488127819696196 71.6020375533019688 28.6327538495249954
 31.0046055899903834 71.6020375533019688 28.6327538495249954
 33.8231754852820927 61.8380767409990000 28.6327538495249954
 28.1859936595431719 52.0741891580359919 28.6327538495249954
 -14.0930187819696204 71.6020375533019688 28.6327538495249954
  9.8651206509438563 64.2791035587447084 28.6327538495249954
 33.8232178455231747 52.0741891580359919 28.6327538495249954
 38.0510725868707951 49.6332355696302230 28.6327538495249954
 -16.9115885147179164 61.8380767409990000 28.6327538495249954
 47.9161936712620928 61.8380767409990000 28.6327538495249954
 -11.2743643287379136 61.8380767409990000 28.6327538495249954
 -15.5022613490561429 64.2791035587447084 28.6327538495249954
 -32.4138493490561430 64.2791035587447084 28.6327538495249954
 40.8696424008908039 49.6332355696302230 28.6327538495249954
  8.4557934852820722 61.8380767409990000 28.6327538495249954
 -2.8186125264368322 52.0741891580359919 28.6327538495249954
 14.0930176712620749 61.8380767409990000 28.6327538495249954
  2.8185692180303707 71.6020375533019688 28.6327538495249954
 19.7302418572420777 61.8380767409990000 28.6327538495249954
 -0.0000005147179177 61.8380767409990000 28.6327538495249954
 22.5488116712620865 61.8380767409990000 28.6327538495249954
 -2.8185703287379194 61.8380767409990000 28.6327538495249954
 -26.7767097210161431 64.2791035587447084 28.6327538495249954
 25.3673814852820882 61.8380767409990000 28.6327538495249954
 16.9115874040103833 71.6020375533019688 28.6327538495249954
 -0.0000005959896168 71.6020375533019688 28.6327538495249954
 19.7301996595431604 52.0741891580359919 28.6327538495249954
  2.8186538572420905 61.8380767409990000 28.6327538495249954
 -8.4557945959896212 71.6020375533019688 28.6327538495249954
 25.3673814040103807 71.6020375533019688 28.6327538495249954
 -28.1859524100096195 71.6020375533019688 28.6327538495249954
 28.1859513399373292 56.9561695641874692 28.6327538495249954
 35.2325026509438644 64.2791035587447084 28.6327538495249954
 -4.2278975756713866 69.1610107355562462 28.6327538495249954
 -25.3673824740826745 56.9561695641874692 28.6327538495249954
 -22.5488126600626764 56.9561695641874692 28.6327538495249954
 -16.9115884740826736 56.9561695641874692 28.6327538495249954
 -11.2743642881026744 56.9561695641874692 28.6327538495249954
 -5.6372246600626781 56.9561695641874692 28.6327538495249954
 -2.8185702881026811 56.9561695641874692 28.6327538495249954
 -0.0000004740826793 56.9561695641874692 28.6327538495249954
 -29.5952795756713840 69.1610107355562462 28.6327538495249954
 -12.6836492154302967 59.3971231525932382 28.6327538495249954
 -1.4092854014103018 59.3971231525932382 28.6327538495249954
 -32.4138493896913857 69.1610107355562462 28.6327538495249954
 -26.7766674014102968 59.3971231525932382 28.6327538495249954
 -29.5952372154302985 59.3971231525932382 28.6327538495249954
  2.8185693399373224 56.9561695641874692 28.6327538495249954
 47.9161937118973214 56.9561695641874692 28.6327538495249954
 28.1859935376362323 66.7200571471504844 28.6327538495249954
 45.0975393399373274 56.9561695641874692 28.6327538495249954
 36.6417875376362474 66.7200571471504844 28.6327538495249954
 36.6417453399373301 56.9561695641874692 28.6327538495249954
 33.8232177236162386 66.7200571471504844 28.6327538495249954
 31.0046057118973302 56.9561695641874692 28.6327538495249954
 -15.5023035873902977 59.3971231525932382 28.6327538495249954
 -28.1859522881026763 56.9561695641874692 28.6327538495249954
 22.5487693516562366 66.7200571471504844 28.6327538495249954
  1.4092844126096999 59.3971231525932382 28.6327538495249954
 -25.3673825147179137 61.8380767409990000 28.6327538495249954
 49.3254785985897115 59.3971231525932382 28.6327538495249954
 -29.5952794537644479 54.5151427464417537 28.6327538495249954
 38.0510724649638732 64.2791035587447084 28.6327538495249954
 -26.7766250818044469 54.5151427464417537 28.6327538495249954
 -23.9580552677844487 54.5151427464417537 28.6327538495249954
 40.8697267962886173 69.1610107355562462 28.6327538495249954
 40.8696422789838678 64.2791035587447084 28.6327538495249954
 -12.6836914537644478 54.5151427464417537 28.6327538495249954
 38.0510724243286234 69.1610107355562462 28.6327538495249954
 18.3208724126097096 59.3971231525932382 28.6327538495249954
 -19.7302006483437680 66.7200571471504844 28.6327538495249954
 15.5023025985896936 59.3971231525932382 28.6327538495249954
 -14.0929764623637634 66.7200571471504844 28.6327538495249954
 26.7767086103086172 69.1610107355562462 28.6327538495249954
 -8.4557522763837714 66.7200571471504844 28.6327538495249954
 12.6836905462355407 54.5151427464417537 28.6327538495249954
 23.9581387962886225 69.1610107355562462 28.6327538495249954
 11.2744055376362251 66.7200571471504844 28.6327538495249954
 -1.4092432037113782 69.1610107355562462 28.6327538495249954
 38.0510725462355595 54.5151427464417537 28.6327538495249954
 49.3255209181955507 54.5151427464417537 28.6327538495249954
 52.1440907322155596 54.5151427464417537 28.6327538495249954
 42.2790118455231720 52.0741891580359919 28.6327538495249954
 -33.8231342763837688 66.7200571471504844 28.6327538495249954
 23.9580545227977240 34.9873675805157234 28.6327538495249954
 18.3209147728507951 49.6332355696302230 28.6327538495249954
 56.3719880369828985 17.9004727736555189 28.6327538495249954
 45.0976242229628923 17.9004727736555189 28.6327538495249954
 42.2789698510029055 17.9004727736555189 28.6327538495249954
 31.0046060369829029 17.9004727736555189 28.6327538495249954
 16.9115878510028992 17.9004727736555189 28.6327538495249954
  2.8186542229628988 17.9004727736555189 28.6327538495249954
 -0.0000001489970986 17.9004727736555189 28.6327538495249954
 60.5998427783305331 15.4595191852497500 28.6327538495249954
 59.1905578510029073 17.9004727736555189 28.6327538495249954
 57.7812729643105243 15.4595191852497500 28.6327538495249954
 43.6882547783305313 15.4595191852497500 28.6327538495249954
 40.8696849643105153 15.4595191852497500 28.6327538495249954
 38.0511151502905278 15.4595191852497500 28.6327538495249954
 26.7766667783305188 15.4595191852497500 28.6327538495249954
  7.0465089643105223 15.4595191852497500 28.6327538495249954
  4.2279391502905188 15.4595191852497500 28.6327538495249954
  1.4092847783305213 15.4595191852497500 28.6327538495249954
 67.6463518916381474 13.0185655968439828 28.6327538495249954
 49.3254789643105269 15.4595191852497500 28.6327538495249954
 59.1905578916381430 13.0185655968439828 28.6327538495249954
 70.4650062229628986 17.9004727736555189 28.6327538495249954
 12.6836908306846716 20.3414995914012344 28.6327538495249954
 25.3674240893370566 22.7824531798069998 28.6327538495249954
 22.5487697173770485 22.7824531798069998 28.6327538495249954
 19.7301999033570468 22.7824531798069998 28.6327538495249954
 16.9116300893370450 22.7824531798069998 28.6327538495249954
 14.0929757173770476 22.7824531798069998 28.6327538495249954
  5.6371817173770493 22.7824531798069998 28.6327538495249954
 -2.8186122826229494 22.7824531798069998 28.6327538495249954
 -5.6371820966429516 22.7824531798069998 28.6327538495249954
  4.2278968306846716 20.3414995914012344 28.6327538495249954
 -8.4557519106629488 22.7824531798069998 28.6327538495249954
 60.5998850166646719 20.3414995914012344 28.6327538495249954
 57.7812306447046780 20.3414995914012344 28.6327538495249954
 54.9626608306846691 20.3414995914012344 28.6327538495249954
 46.5068668306846718 20.3414995914012344 28.6327538495249954
 40.8696426447046761 20.3414995914012344 28.6327538495249954
 32.4138486447046574 20.3414995914012344 28.6327538495249954
 18.3209150166646637 20.3414995914012344 28.6327538495249954
 15.5022606447046662 20.3414995914012344 28.6327538495249954
 69.0556790166646692 20.3414995914012344 28.6327538495249954
 56.3719880776181483 13.0185655968439828 28.6327538495249954
 53.5533337056581473 13.0185655968439828 28.6327538495249954
  5.6372240776181393 13.0185655968439828 28.6327538495249954
 38.0510729525916105  5.6956316022867357 28.6327538495249954
 32.4138487666116077  5.6956316022867357 28.6327538495249954
 26.7767091385716043  5.6956316022867357 28.6327538495249954
 18.3209151385716105  5.6956316022867357 28.6327538495249954
  7.0464667666116103  5.6956316022867357 28.6327538495249954
 -1.4093272333883895  5.6956316022867357 28.6327538495249954
 73.2835761588898578  3.2546047845410229 28.6327538495249954
 62.0092123448698445  3.2546047845410229 28.6327538495249954
 69.0556791385716195  5.6956316022867357 28.6327538495249954
 56.3719881588898417  3.2546047845410229 28.6327538495249954
 19.7302423448698399  3.2546047845410229 28.6327538495249954
 16.9115879729098388  3.2546047845410229 28.6327538495249954
 14.0930181588898407  3.2546047845410229 28.6327538495249954
 52.1440489002374647  0.8136511961352557 28.6327538495249954
 40.8696850862174585  0.8136511961352557 28.6327538495249954
 21.1395272721974621  0.8136511961352557 28.6327538495249954
 18.3208729002374611  0.8136511961352557 28.6327538495249954
 15.5023030862174611  0.8136511961352557 28.6327538495249954
 47.9161941588898301  3.2546047845410229 28.6327538495249954
 77.5114731385716169  5.6956316022867357 28.6327538495249954
 16.9116302112439918  8.1365851906925037 28.6327538495249954
 33.8232182112439972  8.1365851906925037 28.6327538495249954
 -0.0000001083618602 13.0185655968439828 28.6327538495249954
 77.5114730979363742 10.5775387790982709 28.6327538495249954
 74.6929032839163654 10.5775387790982709 28.6327538495249954
 69.0556790979363768 10.5775387790982709 28.6327538495249954
 66.2371092839163680 10.5775387790982709 28.6327538495249954
 38.0510729119563607 10.5775387790982709 28.6327538495249954
 35.2325030979363731 10.5775387790982709 28.6327538495249954
 32.4139332839163785 10.5775387790982709 28.6327538495249954
 23.9581392839163634 10.5775387790982709 28.6327538495249954
 18.3209150979363713 10.5775387790982709 28.6327538495249954
  9.8651210979363722 10.5775387790982709 28.6327538495249954
 78.9207580252639929  8.1365851906925037 28.6327538495249954
 73.2835338392839901  8.1365851906925037 28.6327538495249954
 70.4649640252639955  8.1365851906925037 28.6327538495249954
 67.6463942112439867  8.1365851906925037 28.6327538495249954
 64.8277398392839928  8.1365851906925037 28.6327538495249954
 47.9161518392839980  8.1365851906925037 28.6327538495249954
 42.2790122112439946  8.1365851906925037 28.6327538495249954
 36.6417880252639918  8.1365851906925037 28.6327538495249954
 31.0045637173770388 22.7824531798069998 28.6327538495249954
 33.8232180893370540 22.7824531798069998 28.6327538495249954
 -9.8650368379905675 25.2234067682127652 28.6327538495249954
 -7.0464670239705693 25.2234067682127652 28.6327538495249954
 25.3673816478242529 42.3103015750729767 28.6327538495249954
 11.2743634618442599 42.3103015750729767 28.6327538495249954
  2.8185694618442589 42.3103015750729767 28.6327538495249954
 -2.8185701661957374 42.3103015750729767 28.6327538495249954
 -19.7301581661957393 42.3103015750729767 28.6327538495249954
 26.7767088541224823 39.8692747573272612 28.6327538495249954
 23.9581390401024947 39.8692747573272612 28.6327538495249954
 21.1394846681424795 39.8692747573272612 28.6327538495249954
 33.8231756478242644 42.3103015750729767 28.6327538495249954
 -12.6836913318575100 39.8692747573272612 28.6327538495249954
 62.0091697814501188 37.4283211689214923 28.6327538495249954
 59.1905999674301100 37.4283211689214923 28.6327538495249954
 53.5533757814501215 37.4283211689214923 28.6327538495249954
 36.6417877814501125 37.4283211689214923 28.6327538495249954
 28.1859937814501045 37.4283211689214923 28.6327538495249954
 25.3674239674301170 37.4283211689214923 28.6327538495249954
 22.5487695954701017 37.4283211689214923 28.6327538495249954
  8.4558359674301080 37.4283211689214923 28.6327538495249954
 -21.1394853318575109 39.8692747573272612 28.6327538495249954
 53.5533334618442680 42.3103015750729767 28.6327538495249954
 56.3719878338042619 42.3103015750729767 28.6327538495249954
 -12.6836490935233588 44.7512551634787386 28.6327538495249954
 -9.8651215991092069 49.6332355696302230 28.6327538495249954
 -15.5022612271492086 49.6332355696302230 28.6327538495249954
 -21.1394854131292078 49.6332355696302230 28.6327538495249954
 42.2789696071890333 47.1922087518845075 28.6327538495249954
 22.5488117931690120 47.1922087518845075 28.6327538495249954
 16.9115876071890092 47.1922087518845075 28.6327538495249954
  2.8186539791490159 47.1922087518845075 28.6327538495249954
 -0.0000003928109814 47.1922087518845075 28.6327538495249954
 54.9627029064766432 44.7512551634787386 28.6327538495249954
 52.1440485345166493 44.7512551634787386 28.6327538495249954
 46.5069089064766459 44.7512551634787386 28.6327538495249954
 40.8696847204966431 44.7512551634787386 28.6327538495249954
 35.2324605345166475 44.7512551634787386 28.6327538495249954
 32.4138907204966458 44.7512551634787386 28.6327538495249954
 15.5023027204966439 44.7512551634787386 28.6327538495249954
 12.6837329064766493 44.7512551634787386 28.6327538495249954
  1.4092845345166412 44.7512551634787386 28.6327538495249954
 -1.4092852795033535 44.7512551634787386 28.6327538495249954
 -9.8650792795033553 44.7512551634787386 28.6327538495249954
  0.0000419674301133 37.4283211689214923 28.6327538495249954
 23.9580544008907985 49.6332355696302230 28.6327538495249954
 -5.6371822185498859 37.4283211689214923 28.6327538495249954
 -19.7302004045298887 37.4283211689214923 28.6327538495249954
 32.4138908424035748 30.1053871743642461 28.6327538495249954
 -4.2278549716164209 30.1053871743642461 28.6327538495249954
 -7.0465093435764183 30.1053871743642461 28.6327538495249954
 25.3673817697312032 27.6644335859584807 28.6327538495249954
 22.5488119557112086 27.6644335859584807 28.6327538495249954
 16.9115877697311987 27.6644335859584807 28.6327538495249954
  8.4557937697312031 27.6644335859584807 28.6327538495249954
  2.8185695837512008 27.6644335859584807 28.6327538495249954
 38.0511150283835775 30.1053871743642461 28.6327538495249954
 -2.8185700442888009 27.6644335859584807 28.6327538495249954
 57.7813151620094345 25.2234067682127652 28.6327538495249954
 52.1440909760294318 25.2234067682127652 28.6327538495249954
 46.5068667900494361 25.2234067682127652 28.6327538495249954
 43.6882969760294344 25.2234067682127652 28.6327538495249954
 26.7767089760294326 25.2234067682127652 28.6327538495249954
 23.9581391620094379 25.2234067682127652 28.6327538495249954
 15.5023451620094264 25.2234067682127652 28.6327538495249954
 -4.2278972099505676 25.2234067682127652 28.6327538495249954
 66.2371091620094319 25.2234067682127652 28.6327538495249954
 43.6882546564235881 30.1053871743642461 28.6327538495249954
 57.7812728424035953 30.1053871743642461 28.6327538495249954
 60.5998426564235899 30.1053871743642461 28.6327538495249954
 60.5998848947577358 34.9873675805157234 28.6327538495249954
 52.1440908947577384 34.9873675805157234 28.6327538495249954
 40.8696425227977400 34.9873675805157234 28.6327538495249954
 33.8231754040103922 71.6020375533019688 28.6327538495249954
 18.3209148947577418 34.9873675805157234 28.6327538495249954
 56.3719879150759695 32.5463407627700150 28.6327538495249954
 53.5534181010559607 32.5463407627700150 28.6327538495249954
 47.9161939150759579 32.5463407627700150 28.6327538495249954
 39.4603999150759606 32.5463407627700150 28.6327538495249954
 33.8231757290959649 32.5463407627700150 28.6327538495249954
 16.9115877290959595 32.5463407627700150 28.6327538495249954
 14.0930179150759578 32.5463407627700150 28.6327538495249954
  2.8186541010559618 32.5463407627700150 28.6327538495249954
 -0.0000002709040391 32.5463407627700150 28.6327538495249954
 -2.8185700849240374 32.5463407627700150 28.6327538495249954
 -5.6371398989440404 32.5463407627700150 28.6327538495249954
 -8.4557942709040379 32.5463407627700150 28.6327538495249954
 -16.9115882709040370 32.5463407627700150 28.6327538495249954
 63.4184970283835838 30.1053871743642461 28.6327538495249954
 -16.9115460325698876 37.4283211689214923 28.6327538495249954
 36.6417452180303869 71.6020375533019688 28.6327538495249954
