 H  O 
 1.0000000000000000
    84.5579400000000021    0.0000000000000000    0.0000000000000000
   -42.2789706095346958   73.2293399455724767    0.0000000000000000
     0.0000000000000000    0.0000000000000000   46.9039550000000034
 H   O  
 197 318
Cartesian
 45.0975817949951860 35.8010187766509844 28.1128704123049964
 40.8696424144358730 48.0059331773597151 28.1128704123049964
 -11.2744062690778684 21.1551507875364884 28.1128704123049964
 -5.6371820830978701 21.1551507875364884 28.1128704123049964
 -15.5022611323324266 38.2419723650567462 28.1128704123049964
 -19.7302005128917450 50.4468867657654769 28.1128704123049964
 22.5487697309221353 21.1551507875364884 28.1128704123049964
 22.5488116848071662 60.2107743487284921 28.1128704123049964
 56.3719456090151922 35.8010187766509844 28.1128704123049964
 33.8231335449421309 21.1551507875364884 28.1128704123049964
 14.0930176848071671 60.2107743487284921 28.1128704123049964
 42.2789694988271592 60.2107743487284921 28.1128704123049964
 53.5533759169021195 21.1551507875364884 28.1128704123049964
 64.8277397309221328 21.1551507875364884 28.1128704123049964
  8.4557934988271644 60.2107743487284921 28.1128704123049964
 -4.2278971964054897 23.5961043759422537 28.1128704123049964
 -1.4093273823854895 23.5961043759422537 28.1128704123049964
 -5.6372246871528393 60.2107743487284921 28.1128704123049964
 -0.0000003792658964 45.5649063596139996 28.1128704123049964
  7.0464666176145112 23.5961043759422537 28.1128704123049964
 -16.9115885011728366 60.2107743487284921 28.1128704123049964
 15.5022606176145086 23.5961043759422537 28.1128704123049964
 -19.7301583151928384 60.2107743487284921 28.1128704123049964
 -16.9116306988717469 50.4468867657654769 28.1128704123049964
 60.5998004722697488 18.7141971991307194 28.1128704123049964
 52.1440064722697443 18.7141971991307194 28.1128704123049964
 35.2324182284558631 48.0059331773597151 28.1128704123049964
 26.7766241065489261 62.6518011664742076 28.1128704123049964
 16.9115878645479825 16.2731703813850075 28.1128704123049964
 21.1394846816875770 38.2419723650567462 28.1128704123049964
 25.3673818645479834 16.2731703813850075 28.1128704123049964
  7.0464662925289359 62.6518011664742076 28.1128704123049964
 31.0046060505279790 16.2731703813850075 28.1128704123049964
 26.7767087457606330 52.8878403541712458 28.1128704123049964
 45.0975396785679763 16.2731703813850075 28.1128704123049964
 18.3209148676675753 38.2419723650567462 28.1128704123049964
 64.8277820505279863 16.2731703813850075 28.1128704123049964
 70.4649216785679755 16.2731703813850075 28.1128704123049964
 -9.8651217074710615 62.6518011664742076 28.1128704123049964
 -9.8651213417502497 18.7141971991307194 28.1128704123049964
 12.6836906816875779 38.2419723650567462 28.1128704123049964
 -1.4093273417502492 18.7141971991307194 28.1128704123049964
  4.2278968442297478 18.7141971991307194 28.1128704123049964
 -15.5023458934510643 62.6518011664742076 28.1128704123049964
  9.8650364722697521 18.7141971991307194 28.1128704123049964
 18.3208304722697477 18.7141971991307194 28.1128704123049964
  9.8651208676675761 38.2419723650567462 28.1128704123049964
  4.2278966816875769 38.2419723650567462 28.1128704123049964
 -32.4139338934510661 62.6518011664742076 28.1128704123049964
 43.6882124722697469 18.7141971991307194 28.1128704123049964
 -11.2744065128917477 50.4468867657654769 28.1128704123049964
 32.4138482925289324 62.6518011664742076 28.1128704123049964
 -28.1859523151928357 60.2107743487284921 28.1128704123049964
 29.5952788035945140 23.5961043759422537 28.1128704123049964
 16.9115875394624062 55.3288671719169614 28.1128704123049964
 12.6836484839886605 28.4780847820937346 28.1128704123049964
 11.2743633534824053 55.3288671719169614 28.1128704123049964
  2.8185693534824074 55.3288671719169614 28.1128704123049964
 40.8696425363428091 33.3600651882452155 28.1128704123049964
 -2.8186548324975988 55.3288671719169614 28.1128704123049964
 -8.4557944605375948 55.3288671719169614 28.1128704123049964
 38.0510304839886544 28.4780847820937346 28.1128704123049964
 43.6882546699686571 28.4780847820937346 28.1128704123049964
 60.5998426699686590 28.4780847820937346 28.1128704123049964
  4.2278544839886631 28.4780847820937346 28.1128704123049964
  4.2278965597806355 52.8878403541712458 28.1128704123049964
 32.4138485363428117 33.3600651882452155 28.1128704123049964
 16.9115877426410464 30.9190383704995000 28.1128704123049964
 22.5488119286210420 30.9190383704995000 28.1128704123049964
 28.1859515566610455 30.9190383704995000 28.1128704123049964
 33.8231757426410411 30.9190383704995000 28.1128704123049964
 18.3208303503628116 33.3600651882452155 28.1128704123049964
  9.8650363503628089 33.3600651882452155 28.1128704123049964
  1.4092423503628120 33.3600651882452155 28.1128704123049964
 35.2325027457606268 52.8878403541712458 28.1128704123049964
 -12.6836912776771893 33.3600651882452155 28.1128704123049964
 -16.9115884605376010 55.3288671719169614 28.1128704123049964
 -1.4092851440513405 28.4780847820937346 28.1128704123049964
 -7.0465093300313377 28.4780847820937346 28.1128704123049964
 -9.8650791440513395 28.4780847820937346 28.1128704123049964
 -33.8231765011728385 60.2107743487284921 28.1128704123049964
 49.3254786121347877 57.7698207603227232 28.1128704123049964
 31.0045634871082498 50.4468867657654769 28.1128704123049964
 36.6417876730882455 50.4468867657654769 28.1128704123049964
 50.7347213011282463 50.4468867657654769 28.1128704123049964
  1.4092844261547897 57.7698207603227232 28.1128704123049964
 -12.6837337598252144 57.7698207603227232 28.1128704123049964
 -5.6371822050048115 35.8010187766509844 28.1128704123049964
 -15.5022612542393716 52.8878403541712458 28.1128704123049964
 -11.2744063909848098 35.8010187766509844 28.1128704123049964
 19.7301575972962873 26.0371311936879657 28.1128704123049964
 -12.6836914402193699 52.8878403541712458 28.1128704123049964
 36.6417455972962784 26.0371311936879657 28.1128704123049964
 57.7812305363428109 33.3600651882452155 28.1128704123049964
 45.0975395972962758 26.0371311936879657 28.1128704123049964
 47.9161094113162704 26.0371311936879657 28.1128704123049964
 39.4603151675024009 55.3288671719169614 28.1128704123049964
 56.3719034113162749 26.0371311936879657 28.1128704123049964
 36.6417453534824062 55.3288671719169614 28.1128704123049964
 62.0091275972962777 26.0371311936879657 28.1128704123049964
 25.3673815394624036 55.3288671719169614 28.1128704123049964
 -15.5023033300313369 28.4780847820937346 28.1128704123049964
 52.1440063503628082 33.3600651882452155 28.1128704123049964
 26.7767089895745123 23.5961043759422537 28.1128704123049964
 26.7767088676675797 38.2419723650567462 28.1128704123049964
 39.4604000505279870 16.2731703813850075 28.1128704123049964
 71.8742066058955942 13.8322167929792403 28.1128704123049964
 18.3208305941766909  4.0683292100162243 28.1128704123049964
 23.9580547801566937  4.0683292100162243 28.1128704123049964
 26.7766245941766883  4.0683292100162243 28.1128704123049964
 36.6417452315754701 69.9747351610314468 28.1128704123049964
 28.1859512315754728 69.9747351610314468 28.1128704123049964
 29.5952363620817174 43.1239527712082307 28.1128704123049964
 66.2370247801566876  4.0683292100162243 28.1128704123049964
 69.0555945941766822  4.0683292100162243 28.1128704123049964
  2.8185692315754580 69.9747351610314468 28.1128704123049964
 21.1394423620817271 43.1239527712082307 28.1128704123049964
 -5.6372247684245327 69.9747351610314468 28.1128704123049964
 -11.2744489544045354 69.9747351610314468 28.1128704123049964
 -28.1860369544045355 69.9747351610314468 28.1128704123049964
 -36.6418309544045329 69.9747351610314468 28.1128704123049964
 53.5533760388090698  6.5092827984219914 28.1128704123049964
 59.1905156668490591  6.5092827984219914 28.1128704123049964
 64.8277398528290689  6.5092827984219914 28.1128704123049964
 35.2325026238536978 67.5337083432857384 28.1128704123049964
 53.5533334347540944 45.5649063596139996 28.1128704123049964
 23.9580542518936852 67.5337083432857384 28.1128704123049964
 -18.3208732659582765 43.1239527712082307 28.1128704123049964
  9.8650365941766900  4.0683292100162243 28.1128704123049964
 42.2789694175554729 69.9747351610314468 28.1128704123049964
  1.4092425941766900  4.0683292100162243 28.1128704123049964
 -40.8696856957521533 72.4156887494372228 28.1128704123049964
  2.8185698004749202  1.6273023922705114 28.1128704123049964
 -19.7301581932858987 45.5649063596139996 28.1128704123049964
 12.6836481182678362 72.4156887494372228 28.1128704123049964
 -22.5488125652458997 45.5649063596139996 28.1128704123049964
  7.0465084902278479 72.4156887494372228 28.1128704123049964
  2.8185694347540982 45.5649063596139996 28.1128704123049964
 25.3673819864549230  1.6273023922705114 28.1128704123049964
 14.0930178067140996 45.5649063596139996 28.1128704123049964
 33.8231759864549275  1.6273023922705114 28.1128704123049964
 -9.8650795097721549 72.4156887494372228 28.1128704123049964
 15.5022602518936878 67.5337083432857384 28.1128704123049964
 42.2789699864549249  1.6273023922705114 28.1128704123049964
 50.7347639864549222  1.6273023922705114 28.1128704123049964
 53.5533338004749169  1.6273023922705114 28.1128704123049964
 -26.7766675097721567 72.4156887494372228 28.1128704123049964
 62.0091278004749142  1.6273023922705114 28.1128704123049964
 40.8696847340417122 43.1239527712082307 28.1128704123049964
 67.6463519864549170  1.6273023922705114 28.1128704123049964
 -35.2324615097721576 72.4156887494372228 28.1128704123049964
 73.2835761724349197  1.6273023922705114 28.1128704123049964
 16.9115876207341032 45.5649063596139996 28.1128704123049964
 81.7393701724349171  1.6273023922705114 28.1128704123049964
 45.0975398004749266  1.6273023922705114 28.1128704123049964
  9.8651206238536986 67.5337083432857384 28.1128704123049964
 45.0975394347540970 45.5649063596139996 28.1128704123049964
  1.4093266238536943 67.5337083432857384 28.1128704123049964
 12.6836909255014501  8.9502363868277595 28.1128704123049964
 28.1859935511813049 65.0927547548799765 28.1128704123049964
 -2.8186547105906588 40.6829991828024689 28.1128704123049964
 -7.0465517715441273 48.0059331773597151 28.1128704123049964
 -11.2744487105906597 40.6829991828024689 28.1128704123049964
 62.0091277192032209 11.3912632045734714 28.1128704123049964
 -1.4093275855641247 48.0059331773597151 28.1128704123049964
 67.6463519051832236 11.3912632045734714 28.1128704123049964
 60.5998848676675763 38.2419723650567462 28.1128704123049964
  7.0464664144358764 48.0059331773597151 28.1128704123049964
  1.4092847918756004 13.8322167929792403 28.1128704123049964
 -2.8186126347986837 65.0927547548799765 28.1128704123049964
 49.3254364957075708 38.2419723650567462 28.1128704123049964
 21.1394426058955993 13.8322167929792403 28.1128704123049964
 -19.7302006347986882 65.0927547548799765 28.1128704123049964
 -22.5487704488186900 65.0927547548799765 28.1128704123049964
 43.6882968676675674 38.2419723650567462 28.1128704123049964
 -31.0045644488186873 65.0927547548799765 28.1128704123049964
 40.8696849778556057 13.8322167929792403 28.1128704123049964
 15.5022604144358738 48.0059331773597151 28.1128704123049964
 49.3254789778556031 13.8322167929792403 28.1128704123049964
 21.1394846004158765 48.0059331773597151 28.1128704123049964
 54.9626186058955923 13.8322167929792403 28.1128704123049964
 66.2370669778556049 13.8322167929792403 28.1128704123049964
 46.5068664785089325 62.6518011664742076 28.1128704123049964
  5.6371395332232206 11.3912632045734714 28.1128704123049964
 31.0045212894093325 40.6829991828024689 28.1128704123049964
 -7.0465516496371885 33.3600651882452155 28.1128704123049964
 32.4138487395214483  8.9502363868277595 28.1128704123049964
 -23.9581397715441291 48.0059331773597151 28.1128704123049964
 43.6882971114814538  8.9502363868277595 28.1128704123049964
 74.6928187395214422  8.9502363868277595 28.1128704123049964
 38.0510729255014510  8.9502363868277595 28.1128704123049964
 56.3719032894093317 40.6829991828024689 28.1128704123049964
 77.5114731114814504  8.9502363868277595 28.1128704123049964
 29.5952789255014537  8.9502363868277595 28.1128704123049964
 71.8742489255014476  8.9502363868277595 28.1128704123049964
 -2.8186544667767790 11.3912632045734714 28.1128704123049964
 -0.0000000948167802 11.3912632045734714 28.1128704123049964
  8.4558358455231772 52.0741891580359919 28.6327538495249954
 25.3673816071890279 47.1922087518845075 28.6327538495249954
 -15.5022612271492086 49.6332355696302230 28.6327538495249954
  4.2279389064766386 44.7512551634787386 28.6327538495249954
 57.7812727204966521 44.7512551634787386 28.6327538495249954
  5.6371814735631682 52.0741891580359919 28.6327538495249954
 22.5487694735631763 52.0741891580359919 28.6327538495249954
 49.3254787204966547 44.7512551634787386 28.6327538495249954
 28.1860359791490147 47.1922087518845075 28.6327538495249954
 31.0046057931690235 47.1922087518845075 28.6327538495249954
 14.0929754735631594 52.0741891580359919 28.6327538495249954
 21.1395269064766467 44.7512551634787386 28.6327538495249954
 43.6882545345166520 44.7512551634787386 28.6327538495249954
 -21.1394854131292078 49.6332355696302230 28.6327538495249954
 50.7347636071890307 47.1922087518845075 28.6327538495249954
 -16.9115883928109767 47.1922087518845075 28.6327538495249954
 18.3208725345166314 44.7512551634787386 28.6327538495249954
 -11.2743642068309775 47.1922087518845075 28.6327538495249954
 39.4603997931690245 47.1922087518845075 28.6327538495249954
 -19.7301582068309784 47.1922087518845075 28.6327538495249954
 23.9580967204966342 44.7512551634787386 28.6327538495249954
  1.4093267728507877 49.6332355696302230 28.6327538495249954
 -22.5487703404568300 52.0741891580359919 28.6327538495249954
 26.7766665345166501 44.7512551634787386 28.6327538495249954
 29.5953209064766369 44.7512551634787386 28.6327538495249954
 52.1440907728507952 49.6332355696302230 28.6327538495249954
  0.0000418455231652 52.0741891580359919 28.6327538495249954
 49.3254364008908013 49.6332355696302230 28.6327538495249954
 11.2744479791490271 47.1922087518845075 28.6327538495249954
 46.5068665868708067 49.6332355696302230 28.6327538495249954
 54.9626605868708040 49.6332355696302230 28.6327538495249954
 -5.6371823404568273 52.0741891580359919 28.6327538495249954
 -9.8650794014102949 59.3971231525932382 28.6327538495249954
 33.8232178455231747 52.0741891580359919 28.6327538495249954
 -11.2744066483437688 66.7200571471504844 28.6327538495249954
 -16.9115462763837670 66.7200571471504844 28.6327538495249954
 43.6882966509438617 64.2791035587447084 28.6327538495249954
 35.2325026509438644 64.2791035587447084 28.6327538495249954
 23.9580542789838589 64.2791035587447084 28.6327538495249954
 21.1394844649638500 64.2791035587447084 28.6327538495249954
 15.5022602789838597 64.2791035587447084 28.6327538495249954
 12.6836904649638509 64.2791035587447084 28.6327538495249954
  7.0464662789838490 64.2791035587447084 28.6327538495249954
  4.2278964649638544 64.2791035587447084 28.6327538495249954
  1.4093266509438596 64.2791035587447084 28.6327538495249954
 -18.3209157210161457 64.2791035587447084 28.6327538495249954
 -26.7767097210161431 64.2791035587447084 28.6327538495249954
 -35.2325037210161440 64.2791035587447084 28.6327538495249954
 47.9161936712620928 61.8380767409990000 28.6327538495249954
 45.0976238572420840 61.8380767409990000 28.6327538495249954
 36.6418298572420866 61.8380767409990000 28.6327538495249954
 -8.4557522763837714 66.7200571471504844 28.6327538495249954
 -2.8186126483437688 66.7200571471504844 28.6327538495249954
  0.0000417236162395 66.7200571471504844 28.6327538495249954
 19.7301995376362349 66.7200571471504844 28.6327538495249954
 16.9115874040103833 71.6020375533019688 28.6327538495249954
  8.4557934040103735 71.6020375533019688 28.6327538495249954
  2.8185692180303707 71.6020375533019688 28.6327538495249954
 -0.0000005959896168 71.6020375533019688 28.6327538495249954
 -8.4557945959896212 71.6020375533019688 28.6327538495249954
 -31.0046067819696169 71.6020375533019688 28.6327538495249954
 -39.4604007819696179 71.6020375533019688 28.6327538495249954
 38.0510724243286234 69.1610107355562462 28.6327538495249954
 28.1860358572420893 61.8380767409990000 28.6327538495249954
 26.7767086103086172 69.1610107355562462 28.6327538495249954
 -1.4092432037113782 69.1610107355562462 28.6327538495249954
 -15.5022613896913821 69.1610107355562462 28.6327538495249954
 -18.3208312037113821 69.1610107355562462 28.6327538495249954
 -23.9580553896913813 69.1610107355562462 28.6327538495249954
 -32.4138493896913857 69.1610107355562462 28.6327538495249954
 45.0975815376362448 66.7200571471504844 28.6327538495249954
 39.4603573516562420 66.7200571471504844 28.6327538495249954
 31.0045633516562411 66.7200571471504844 28.6327538495249954
  7.0465507962886189 69.1610107355562462 28.6327538495249954
 25.3673814852820882 61.8380767409990000 28.6327538495249954
  2.8186538572420905 61.8380767409990000 28.6327538495249954
 -5.6371401427579215 61.8380767409990000 28.6327538495249954
 -22.5488126600626764 56.9561695641874692 28.6327538495249954
 -25.3673824740826745 56.9561695641874692 28.6327538495249954
 -31.0046066600626737 56.9561695641874692 28.6327538495249954
 52.1440907322155596 54.5151427464417537 28.6327538495249954
 49.3255209181955507 54.5151427464417537 28.6327538495249954
 46.5068665462355568 54.5151427464417537 28.6327538495249954
 29.5952785462355585 54.5151427464417537 28.6327538495249954
 21.1394845462355612 54.5151427464417537 28.6327538495249954
 -16.9115884740826736 56.9561695641874692 28.6327538495249954
  7.0465509181955595 54.5151427464417537 28.6327538495249954
 -12.6836914537644478 54.5151427464417537 28.6327538495249954
 -21.1394854537644470 54.5151427464417537 28.6327538495249954
 -23.9580552677844487 54.5151427464417537 28.6327538495249954
 -26.7766250818044469 54.5151427464417537 28.6327538495249954
 53.5533756595431782 52.0741891580359919 28.6327538495249954
 47.9161514735631755 52.0741891580359919 28.6327538495249954
 42.2790118455231720 52.0741891580359919 28.6327538495249954
 39.4603574735631781 52.0741891580359919 28.6327538495249954
  1.4093267322155492 54.5151427464417537 28.6327538495249954
 25.3674238455231631 52.0741891580359919 28.6327538495249954
  5.6372237118973310 56.9561695641874692 28.6327538495249954
 11.2743633399373131 56.9561695641874692 28.6327538495249954
 -14.0929341427579153 61.8380767409990000 28.6327538495249954
 -22.5487281427579163 61.8380767409990000 28.6327538495249954
 -31.0045221427579136 61.8380767409990000 28.6327538495249954
 46.5069087845697027 59.3971231525932382 28.6327538495249954
 43.6882544126097088 59.3971231525932382 28.6327538495249954
 38.0511147845697053 59.3971231525932382 28.6327538495249954
 35.2324604126097114 59.3971231525932382 28.6327538495249954
 32.4138905985897026 59.3971231525932382 28.6327538495249954
  8.4557935259173256 56.9561695641874692 28.6327538495249954
 26.7766664126097069 59.3971231525932382 28.6327538495249954
 18.3208724126097096 59.3971231525932382 28.6327538495249954
  9.8650784126096909 59.3971231525932382 28.6327538495249954
 -1.4092854014103018 59.3971231525932382 28.6327538495249954
 -23.9580975873902986 59.3971231525932382 28.6327538495249954
 47.9161937118973214 56.9561695641874692 28.6327538495249954
 33.8231755259173212 56.9561695641874692 28.6327538495249954
 28.1859513399373292 56.9561695641874692 28.6327538495249954
 19.7301573399373318 56.9561695641874692 28.6327538495249954
 23.9580965985897052 59.3971231525932382 28.6327538495249954
 -4.2278550935233552 44.7512551634787386 28.6327538495249954
  1.4092849002374601  0.8136511961352557 28.6327538495249954
 -12.6836490935233588 44.7512551634787386 28.6327538495249954
 60.5998427783305331 15.4595191852497500 28.6327538495249954
 26.7766667783305188 15.4595191852497500 28.6327538495249954
 21.1395271502905153 15.4595191852497500 28.6327538495249954
 12.6837331502905215 15.4595191852497500 28.6327538495249954
  7.0465089643105223 15.4595191852497500 28.6327538495249954
  4.2279391502905188 15.4595191852497500 28.6327538495249954
  1.4092847783305213 15.4595191852497500 28.6327538495249954
 -7.0465092216694787 15.4595191852497500 28.6327538495249954
 70.4649217056581421 13.0185655968439828 28.6327538495249954
 63.4184971502905270 15.4595191852497500 28.6327538495249954
 53.5533337056581473 13.0185655968439828 28.6327538495249954
 36.6417457056581313 13.0185655968439828 28.6327538495249954
 33.8231758916381438 13.0185655968439828 28.6327538495249954
 28.1859517056581375 13.0185655968439828 28.6327538495249954
 25.3673818916381357 13.0185655968439828 28.6327538495249954
 16.9115878916381419 13.0185655968439828 28.6327538495249954
 11.2743637056581409 13.0185655968439828 28.6327538495249954
  2.8185697056581414 13.0185655968439828 28.6327538495249954
 -2.8185699223818586 13.0185655968439828 28.6327538495249954
 -5.6372242943418591 13.0185655968439828 28.6327538495249954
 45.0975397056581500 13.0185655968439828 28.6327538495249954
 74.6928609643105261 15.4595191852497500 28.6327538495249954
 -5.6371397770370981 17.9004727736555189 28.6327538495249954
  5.6372240369829028 17.9004727736555189 28.6327538495249954
 16.9116300893370450 22.7824531798069998 28.6327538495249954
 11.2744059033570529 22.7824531798069998 28.6327538495249954
  2.8186119033570516 22.7824531798069998 28.6327538495249954
  0.0000420893370479 22.7824531798069998 28.6327538495249954
 -8.4557519106629488 22.7824531798069998 28.6327538495249954
 69.0556790166646692 20.3414995914012344 28.6327538495249954
 63.4184548306846807 20.3414995914012344 28.6327538495249954
 38.0510728306846602 20.3414995914012344 28.6327538495249954
 29.5952788306846699 20.3414995914012344 28.6327538495249954
 26.7767090166646753 20.3414995914012344 28.6327538495249954
 12.6836908306846716 20.3414995914012344 28.6327538495249954
 -4.2278971693153311 20.3414995914012344 28.6327538495249954
 -7.0464669833353293 20.3414995914012344 28.6327538495249954
 70.4650062229628986 17.9004727736555189 28.6327538495249954
 67.6463518510029047 17.9004727736555189 28.6327538495249954
 62.0092122229629013 17.9004727736555189 28.6327538495249954
 56.3719880369828985 17.9004727736555189 28.6327538495249954
 47.9161940369829011 17.9004727736555189 28.6327538495249954
 42.2789698510029055 17.9004727736555189 28.6327538495249954
 28.1860362229629082 17.9004727736555189 28.6327538495249954
 19.7302422229628966 17.9004727736555189 28.6327538495249954
 66.2371092839163680 10.5775387790982709 28.6327538495249954
 57.7813152839163777 10.5775387790982709 28.6327538495249954
 54.9626609119563767 10.5775387790982709 28.6327538495249954
 52.1440910979363750 10.5775387790982709 28.6327538495249954
 21.1394849525916122  5.6956316022867357 28.6327538495249954
 15.5022607666116095  5.6956316022867357 28.6327538495249954
 -1.4093272333883895  5.6956316022867357 28.6327538495249954
 62.0092123448698445  3.2546047845410229 28.6327538495249954
 59.1905579729098434  3.2546047845410229 28.6327538495249954
 56.3719881588898417  3.2546047845410229 28.6327538495249954
 53.5534183448698329  3.2546047845410229 28.6327538495249954
  5.6372241588898389  3.2546047845410229 28.6327538495249954
 -0.0000000270901599  3.2546047845410229 28.6327538495249954
 77.5114309002374711  0.8136511961352557 28.6327538495249954
 71.8742912721974676  0.8136511961352557 28.6327538495249954
 66.2370670862174649  0.8136511961352557 28.6327538495249954
 57.7812730862174604  0.8136511961352557 28.6327538495249954
 38.0511152721974639  0.8136511961352557 28.6327538495249954
 29.5953212721974559  0.8136511961352557 28.6327538495249954
 23.9580970862174638  0.8136511961352557 28.6327538495249954
 21.1395272721974621  0.8136511961352557 28.6327538495249954
 15.5023030862174611  0.8136511961352557 28.6327538495249954
 12.6837332721974576  0.8136511961352557 28.6327538495249954
  7.0465090862174584  0.8136511961352557 28.6327538495249954
  4.2279392721974602  0.8136511961352557 28.6327538495249954
 23.9580547666116068  5.6956316022867357 28.6327538495249954
 19.7301999033570468 22.7824531798069998 28.6327538495249954
 26.7767091385716043  5.6956316022867357 28.6327538495249954
 32.4138487666116077  5.6956316022867357 28.6327538495249954
 35.2325030979363731 10.5775387790982709 28.6327538495249954
 18.3209150979363713 10.5775387790982709 28.6327538495249954
  9.8651210979363722 10.5775387790982709 28.6327538495249954
  1.4093270979363695 10.5775387790982709 28.6327538495249954
 -4.2278970880436288 10.5775387790982709 28.6327538495249954
 70.4649640252639955  8.1365851906925037 28.6327538495249954
 33.8232182112439972  8.1365851906925037 28.6327538495249954
 25.3674242112439856  8.1365851906925037 28.6327538495249954
 16.9116302112439918  8.1365851906925037 28.6327538495249954
 11.2744060252639908  8.1365851906925037 28.6327538495249954
  8.4558362112439873  8.1365851906925037 28.6327538495249954
  2.8186120252639890  8.1365851906925037 28.6327538495249954
 80.3300429525916257  5.6956316022867357 28.6327538495249954
 74.6928187666116230  5.6956316022867357 28.6327538495249954
 69.0556791385716195  5.6956316022867357 28.6327538495249954
 60.5998851385716151  5.6956316022867357 28.6327538495249954
 49.3254367666116167  5.6956316022867357 28.6327538495249954
 46.5068669525916008  5.6956316022867357 28.6327538495249954
 43.6882971385716132  5.6956316022867357 28.6327538495249954
 40.8696427666115980  5.6956316022867357 28.6327538495249954
 35.2325031385716159  5.6956316022867357 28.6327538495249954
 29.5952789525916060  5.6956316022867357 28.6327538495249954
 25.3674240893370566 22.7824531798069998 28.6327538495249954
 31.0045637173770388 22.7824531798069998 28.6327538495249954
 39.4603577173770574 22.7824531798069998 28.6327538495249954
 33.8232179674301037 37.4283211689214923 28.6327538495249954
 22.5487695954701017 37.4283211689214923 28.6327538495249954
 16.9116299674301196 37.4283211689214923 28.6327538495249954
  2.8186117814501150 37.4283211689214923 28.6327538495249954
  0.0000419674301133 37.4283211689214923 28.6327538495249954
 -5.6371822185498859 37.4283211689214923 28.6327538495249954
 -8.4557520325698885 37.4283211689214923 28.6327538495249954
 -11.2744064045298860 37.4283211689214923 28.6327538495249954
 -19.7302004045298887 37.4283211689214923 28.6327538495249954
 54.9626607087777472 34.9873675805157234 28.6327538495249954
 46.5068667087777357 34.9873675805157234 28.6327538495249954
 22.5488115899903860 71.6020375533019688 28.6327538495249954
 29.5952787087777267 34.9873675805157234 28.6327538495249954
 23.9580545227977240 34.9873675805157234 28.6327538495249954
 21.1394847087777364 34.9873675805157234 28.6327538495249954
 18.3209148947577418 34.9873675805157234 28.6327538495249954
 15.5022605227977337 34.9873675805157234 28.6327538495249954
 12.6836907087777320 34.9873675805157234 28.6327538495249954
  9.8651208947577302 34.9873675805157234 28.6327538495249954
  7.0464665227977319 34.9873675805157234 28.6327538495249954
  4.2278967087777302 34.9873675805157234 28.6327538495249954
 39.4603575954701142 37.4283211689214923 28.6327538495249954
 -9.8651214772022673 34.9873675805157234 28.6327538495249954
 42.2790119674301152 37.4283211689214923 28.6327538495249954
 56.3719455954701161 37.4283211689214923 28.6327538495249954
 -15.5023034654833562 44.7512551634787386 28.6327538495249954
 50.7347636478242734 42.3103015750729767 28.6327538495249954
 47.9161938338042646 42.3103015750729767 28.6327538495249954
 45.0975394618442706 42.3103015750729767 28.6327538495249954
 36.6417454618442662 42.3103015750729767 28.6327538495249954
 33.8231756478242644 42.3103015750729767 28.6327538495249954
 25.3673816478242529 42.3103015750729767 28.6327538495249954
 16.9115876478242626 42.3103015750729767 28.6327538495249954
 14.0930178338042680 42.3103015750729767 28.6327538495249954
 11.2743634618442599 42.3103015750729767 28.6327538495249954
  5.6372238338042564 42.3103015750729767 28.6327538495249954
  2.8185694618442589 42.3103015750729767 28.6327538495249954
 -0.0000003521757358 42.3103015750729767 28.6327538495249954
 -14.0930185381557376 42.3103015750729767 28.6327538495249954
 -22.5488125381557367 42.3103015750729767 28.6327538495249954
 46.5068666681425000 39.8692747573272612 28.6327538495249954
 35.2325028541224938 39.8692747573272612 28.6327538495249954
 29.5952786681424982 39.8692747573272612 28.6327538495249954
  1.4093268541224926 39.8692747573272612 28.6327538495249954
 -7.0464671458775081 39.8692747573272612 28.6327538495249954
 -12.6836913318575100 39.8692747573272612 28.6327538495249954
 53.5533757814501215 37.4283211689214923 28.6327538495249954
 -9.8650792795033553 44.7512551634787386 28.6327538495249954
 62.0092121010559580 32.5463407627700150 28.6327538495249954
 45.0976241010559633 32.5463407627700150 28.6327538495249954
 -11.2743640442888005 27.6644335859584807 28.6327538495249954
 66.2371091620094319 25.2234067682127652 28.6327538495249954
 63.4184547900494380 25.2234067682127652 28.6327538495249954
 60.5998849760294434 25.2234067682127652 28.6327538495249954
 52.1440909760294318 25.2234067682127652 28.6327538495249954
 40.8697271620094256 25.2234067682127652 28.6327538495249954
 32.4139331620094353 25.2234067682127652 28.6327538495249954
 18.3209149760294281 25.2234067682127652 28.6327538495249954
  9.8651209760294343 25.2234067682127652 28.6327538495249954
  4.2278967900494315 25.2234067682127652 28.6327538495249954
  1.4093269760294336 25.2234067682127652 28.6327538495249954
 -1.4092428379905699 25.2234067682127652 28.6327538495249954
 -4.2278972099505676 25.2234067682127652 28.6327538495249954
 -7.0464670239705693 25.2234067682127652 28.6327538495249954
 -9.8650368379905675 25.2234067682127652 28.6327538495249954
 -12.6836912099505668 25.2234067682127652 28.6327538495249954
 62.0091699033570620 22.7824531798069998 28.6327538495249954
 59.1906000893370532 22.7824531798069998 28.6327538495249954
 53.5533759033570504 22.7824531798069998 28.6327538495249954
 50.7348060893370558 22.7824531798069998 28.6327538495249954
 45.0975819033570531 22.7824531798069998 28.6327538495249954
  8.4557937697312031 27.6644335859584807 28.6327538495249954
 56.3719879150759695 32.5463407627700150 28.6327538495249954
 16.9115877697311987 27.6644335859584807 28.6327538495249954
 22.5488119557112086 27.6644335859584807 28.6327538495249954
 36.6418301010559517 32.5463407627700150 28.6327538495249954
 31.0046059150759525 32.5463407627700150 28.6327538495249954
 14.0930179150759578 32.5463407627700150 28.6327538495249954
  5.6372239150759640 32.5463407627700150 28.6327538495249954
 -2.8185700849240374 32.5463407627700150 28.6327538495249954
 -8.4557942709040379 32.5463407627700150 28.6327538495249954
 -11.2743640849240396 32.5463407627700150 28.6327538495249954
 -16.9115882709040370 32.5463407627700150 28.6327538495249954
 57.7812728424035953 30.1053871743642461 28.6327538495249954
 54.9627030283835865 30.1053871743642461 28.6327538495249954
 49.3254788424035837 30.1053871743642461 28.6327538495249954
 46.5069090283835891 30.1053871743642461 28.6327538495249954
 38.0511150283835775 30.1053871743642461 28.6327538495249954
 35.2324606564235907 30.1053871743642461 28.6327538495249954
 18.3208726564235782 30.1053871743642461 28.6327538495249954
 15.5023028424035783 30.1053871743642461 28.6327538495249954
 12.6837330283835765 30.1053871743642461 28.6327538495249954
 64.8277819557112025 27.6644335859584807 28.6327538495249954
 33.8231757697311934 27.6644335859584807 28.6327538495249954
 31.0046059557112059 27.6644335859584807 28.6327538495249954
 25.3673817697312032 27.6644335859584807 28.6327538495249954
 19.7301575837512004 27.6644335859584807 28.6327538495249954
 33.8231754040103922 71.6020375533019688 28.6327538495249954
