 H  O 
 1.0000000000000000
    84.5579400000000021    0.0000000000000000    0.0000000000000000
   -42.2789706095346958   73.2293399455724767    0.0000000000000000
     0.0000000000000000    0.0000000000000000   46.9039550000000034
 H   O  
 200 317
Cartesian
  8.4557939864549194  1.6273023922705114 28.1128704123049964
 60.5998003503628055 33.3600651882452155 28.1128704123049964
 -16.9116305769648072 35.8010187766509844 28.1128704123049964
 -5.6371822050048115 35.8010187766509844 28.1128704123049964
 11.2744057949951930 35.8010187766509844 28.1128704123049964
 42.2789274230351850 35.8010187766509844 28.1128704123049964
 38.0510301182678390 72.4156887494372228 28.1128704123049964
 -4.2278973183124275 38.2419723650567462 28.1128704123049964
  1.4093268676675752 38.2419723650567462 28.1128704123049964
  7.0464664957075716 38.2419723650567462 28.1128704123049964
 15.5022604957075725 38.2419723650567462 28.1128704123049964
 32.4138484957075690 38.2419723650567462 28.1128704123049964
 38.0510726816875717 38.2419723650567462 28.1128704123049964
 46.5068666816875762 38.2419723650567462 28.1128704123049964
 -19.7302427105906588 40.6829991828024689 28.1128704123049964
 -16.9115883386306614 40.6829991828024689 28.1128704123049964
 -11.2744487105906597 40.6829991828024689 28.1128704123049964
 16.9115876613693388 40.6829991828024689 28.1128704123049964
 -16.9115883792659005 45.5649063596139996 28.1128704123049964
 35.2324605480617166 43.1239527712082307 28.1128704123049964
 29.5952363620817174 43.1239527712082307 28.1128704123049964
 26.7766665480617228 43.1239527712082307 28.1128704123049964
 23.9580967340417281 43.1239527712082307 28.1128704123049964
 12.6836483620817209 43.1239527712082307 28.1128704123049964
 57.7812305363428109 33.3600651882452155 28.1128704123049964
 -1.4092852659582757 43.1239527712082307 28.1128704123049964
 -12.6837336379182783 43.1239527712082307 28.1128704123049964
 59.1905576613693398 40.6829991828024689 28.1128704123049964
 53.5533334753893371 40.6829991828024689 28.1128704123049964
 45.0975394753893397 40.6829991828024689 28.1128704123049964
 42.2789696613693309 40.6829991828024689 28.1128704123049964
 33.8231756613693406 40.6829991828024689 28.1128704123049964
 -9.8650792659582809 43.1239527712082307 28.1128704123049964
 52.1440063503628082 33.3600651882452155 28.1128704123049964
 35.2324183503628063 33.3600651882452155 28.1128704123049964
  4.2278967223228134 33.3600651882452155 28.1128704123049964
 14.0929334113162810 26.0371311936879657 28.1128704123049964
  2.8185695972962814 26.0371311936879657 28.1128704123049964
 -5.6372244027037182 26.0371311936879657 28.1128704123049964
 49.3254366176144998 23.5961043759422537 28.1128704123049964
 43.6882969895745106 23.5961043759422537 28.1128704123049964
 35.2325029895745132 23.5961043759422537 28.1128704123049964
 19.7301575972962873 26.0371311936879657 28.1128704123049964
 29.5952788035945140 23.5961043759422537 28.1128704123049964
 15.5022606176145086 23.5961043759422537 28.1128704123049964
 67.6463095449421274 21.1551507875364884 28.1128704123049964
 59.1905155449421230 21.1551507875364884 28.1128704123049964
 50.7347215449421185 21.1551507875364884 28.1128704123049964
 42.2789275449421211 21.1551507875364884 28.1128704123049964
 36.6417879169021319 21.1551507875364884 28.1128704123049964
 26.7767089895745123 23.5961043759422537 28.1128704123049964
 -8.4557943792659014 45.5649063596139996 28.1128704123049964
 28.1859515972962846 26.0371311936879657 28.1128704123049964
 67.6463517832762875 26.0371311936879657 28.1128704123049964
 -9.8651214636571893 33.3600651882452155 28.1128704123049964
 33.8231757426410411 30.9190383704995000 28.1128704123049964
 28.1859515566610455 30.9190383704995000 28.1128704123049964
 25.3673817426410437 30.9190383704995000 28.1128704123049964
 22.5488119286210420 30.9190383704995000 28.1128704123049964
 19.7301575566610410 30.9190383704995000 28.1128704123049964
 62.0091275972962777 26.0371311936879657 28.1128704123049964
 11.2743635566610401 30.9190383704995000 28.1128704123049964
 -8.4557942573589582 30.9190383704995000 28.1128704123049964
 -14.0930184433389574 30.9190383704995000 28.1128704123049964
 54.9626184839886562 28.4780847820937346 28.1128704123049964
 46.5068244839886518 28.4780847820937346 28.1128704123049964
 32.4138908559486651 28.4780847820937346 28.1128704123049964
  7.0465088559486642 28.4780847820937346 28.1128704123049964
 -2.8185700713789608 30.9190383704995000 28.1128704123049964
 50.7347636207340997 45.5649063596139996 28.1128704123049964
 56.3719878067141025 45.5649063596139996 28.1128704123049964
 -21.1394853995841281 48.0059331773597151 28.1128704123049964
 -35.2325037481063035 67.5337083432857384 28.1128704123049964
 28.1859935511813049 65.0927547548799765 28.1128704123049964
 43.6882121065489244 62.6518011664742076 28.1128704123049964
 15.5022602925289341 62.6518011664742076 28.1128704123049964
  9.8650361065489385 62.6518011664742076 28.1128704123049964
 -9.8651217074710615 62.6518011664742076 28.1128704123049964
 -29.5952795621263043 67.5337083432857384 28.1128704123049964
 -12.6836915214910633 62.6518011664742076 28.1128704123049964
 -29.5952795214910651 62.6518011664742076 28.1128704123049964
 -32.4139338934510661 62.6518011664742076 28.1128704123049964
 45.0975393128471538 60.2107743487284921 28.1128704123049964
 36.6417453128471564 60.2107743487284921 28.1128704123049964
 31.0046056848071565 60.2107743487284921 28.1128704123049964
 28.1859513128471555 60.2107743487284921 28.1128704123049964
 -21.1394855214910677 62.6518011664742076 28.1128704123049964
 25.3673814988271609 60.2107743487284921 28.1128704123049964
 -21.1394855621263069 67.5337083432857384 28.1128704123049964
 -7.0464673761463033 67.5337083432857384 28.1128704123049964
 29.5952361182678381 72.4156887494372228 28.1128704123049964
 23.9580964902278346 72.4156887494372228 28.1128704123049964
 21.1394421182678336 72.4156887494372228 28.1128704123049964
  7.0465084902278479 72.4156887494372228 28.1128704123049964
 -9.8650795097721549 72.4156887494372228 28.1128704123049964
 -35.2324615097721576 72.4156887494372228 28.1128704123049964
 -15.5022613761463042 67.5337083432857384 28.1128704123049964
 -38.0511158817321586 72.4156887494372228 28.1128704123049964
 40.8696422518936870 67.5337083432857384 28.1128704123049964
 18.3209146238536960 67.5337083432857384 28.1128704123049964
  9.8651206238536986 67.5337083432857384 28.1128704123049964
  4.2278964378736958 67.5337083432857384 28.1128704123049964
 -1.4093277481063067 67.5337083432857384 28.1128704123049964
 -4.2278975621263015 67.5337083432857384 28.1128704123049964
 43.6882966238536952 67.5337083432857384 28.1128704123049964
 22.5487697309221353 21.1551507875364884 28.1128704123049964
 19.7301573128471581 60.2107743487284921 28.1128704123049964
 -5.6372246871528393 60.2107743487284921 28.1128704123049964
  1.4093267457606342 52.8878403541712458 28.1128704123049964
 -23.9580552542393690 52.8878403541712458 28.1128704123049964
 -29.5952794402193682 52.8878403541712458 28.1128704123049964
 47.9161514871082517 50.4468867657654769 28.1128704123049964
 14.0929754871082551 50.4468867657654769 28.1128704123049964
  8.4557513011282524 50.4468867657654769 28.1128704123049964
  9.8651207457606311 52.8878403541712458 28.1128704123049964
 -0.0000426988717480 50.4468867657654769 28.1128704123049964
 -14.0929763269117494 50.4468867657654769 28.1128704123049964
 -16.9116306988717469 50.4468867657654769 28.1128704123049964
 35.2324182284558631 48.0059331773597151 28.1128704123049964
 32.4138484144358685 48.0059331773597151 28.1128704123049964
 26.7766242284558658 48.0059331773597151 28.1128704123049964
 21.1394846004158765 48.0059331773597151 28.1128704123049964
 -5.6371823269117440 50.4468867657654769 28.1128704123049964
 -0.0000005011728327 60.2107743487284921 28.1128704123049964
 15.5022603738006346 52.8878403541712458 28.1128704123049964
 40.8696423738006303 52.8878403541712458 28.1128704123049964
 -33.8231765011728385 60.2107743487284921 28.1128704123049964
 43.6882544261547849 57.7698207603227232 28.1128704123049964
 12.6836482401747883 57.7698207603227232 28.1128704123049964
 -1.4092853878652121 57.7698207603227232 28.1128704123049964
 -9.8650793878652134 57.7698207603227232 28.1128704123049964
 -18.3208733878652161 57.7698207603227232 28.1128704123049964
 21.1394845597806302 52.8878403541712458 28.1128704123049964
 -23.9580975738452153 57.7698207603227232 28.1128704123049964
 16.9115875394624062 55.3288671719169614 28.1128704123049964
  2.8185693534824074 55.3288671719169614 28.1128704123049964
 -0.0000004605375943 55.3288671719169614 28.1128704123049964
 -8.4557944605375948 55.3288671719169614 28.1128704123049964
 -28.1860368324975958 55.3288671719169614 28.1128704123049964
 52.1440907457606357 52.8878403541712458 28.1128704123049964
 47.9161091675023982 55.3288671719169614 28.1128704123049964
 11.2744059169021327 21.1551507875364884 28.1128704123049964
 -12.6836913183124267 38.2419723650567462 28.1128704123049964
 32.4138487395214483  8.9502363868277595 28.1128704123049964
 45.0975396785679763 16.2731703813850075 28.1128704123049964
 45.0975820388090725  6.5092827984219914 28.1128704123049964
 67.6463518645479809 16.2731703813850075 28.1128704123049964
 56.3719035332232110 11.3912632045734714 28.1128704123049964
 -4.2278971557702505 18.7141971991307194 28.1128704123049964
 21.1394849661366919  4.0683292100162243 28.1128704123049964
 47.9161095332232136 11.3912632045734714 28.1128704123049964
 39.4603578528290697  6.5092827984219914 28.1128704123049964
 36.6417457192032217 11.3912632045734714 28.1128704123049964
  7.0464667801566900  4.0683292100162243 28.1128704123049964
 67.6463096668490635  6.5092827984219914 28.1128704123049964
 70.4649218004749116  1.6273023922705114 28.1128704123049964
 70.4649640388090717  6.5092827984219914 28.1128704123049964
 64.8277821724349081  1.6273023922705114 28.1128704123049964
 56.3719881724349250  1.6273023922705114 28.1128704123049964
 19.7301577192032234 11.3912632045734714 28.1128704123049964
 59.1905156668490591  6.5092827984219914 28.1128704123049964
 76.1021036668490609  6.5092827984219914 28.1128704123049964
 26.7766245941766883  4.0683292100162243 28.1128704123049964
 31.0045638528290759  6.5092827984219914 28.1128704123049964
 54.9626186058955923 13.8322167929792403 28.1128704123049964
  2.8186120388090696  6.5092827984219914 28.1128704123049964
 -8.4557941354520185 16.2731703813850075 28.1128704123049964
 14.0929758528290687  6.5092827984219914 28.1128704123049964
 40.8696849778556057 13.8322167929792403 28.1128704123049964
 32.4138909778556012 13.8322167929792403 28.1128704123049964
 26.7766667918756056 13.8322167929792403 28.1128704123049964
 31.0046060505279790 16.2731703813850075 28.1128704123049964
 -0.0000001354520196 16.2731703813850075 28.1128704123049964
  7.0465089778555976 13.8322167929792403 28.1128704123049964
 22.5487698528290750  6.5092827984219914 28.1128704123049964
  1.4092847918756004 13.8322167929792403 28.1128704123049964
 16.9115878645479825 16.2731703813850075 28.1128704123049964
 -1.4092850221444004 13.8322167929792403 28.1128704123049964
 32.4138487801566981  4.0683292100162243 28.1128704123049964
 28.1859940388090742  6.5092827984219914 28.1128704123049964
  8.4557938645479798 16.2731703813850075 28.1128704123049964
 50.7347639864549222  1.6273023922705114 28.1128704123049964
 63.4184126058955968 13.8322167929792403 28.1128704123049964
 66.2370246582497515 18.7141971991307194 28.1128704123049964
 -2.8186122690778692 21.1551507875364884 28.1128704123049964
 43.6882124722697469 18.7141971991307194 28.1128704123049964
 52.1440064722697443 18.7141971991307194 28.1128704123049964
 22.5488121724349213  1.6273023922705114 28.1128704123049964
 16.9115879864549186  1.6273023922705114 28.1128704123049964
 -5.6371820830978701 21.1551507875364884 28.1128704123049964
 -0.0000424550578693 21.1551507875364884 28.1128704123049964
  5.6371395332232206 11.3912632045734714 28.1128704123049964
  2.8186119169021282 21.1551507875364884 28.1128704123049964
 11.2743638004749194  1.6273023922705114 28.1128704123049964
 -5.6372242807967794 11.3912632045734714 28.1128704123049964
 40.8696427395214528  8.9502363868277595 28.1128704123049964
  5.6371817309221299 21.1551507875364884 28.1128704123049964
 23.9580546582497540 18.7141971991307194 28.1128704123049964
 47.9161941724349276  1.6273023922705114 28.1128704123049964
 11.2743637192032189 11.3912632045734714 28.1128704123049964
 -2.8185702881026811 56.9561695641874692 28.6327538495249954
 -5.6372246600626781 56.9561695641874692 28.6327538495249954
  5.6371814735631682 52.0741891580359919 28.6327538495249954
 23.9580547666116068  5.6956316022867357 28.6327538495249954
 25.3674242112439856  8.1365851906925037 28.6327538495249954
 22.5487698392839881  8.1365851906925037 28.6327538495249954
 -9.8651215991092069 49.6332355696302230 28.6327538495249954
 28.1859940252639873  8.1365851906925037 28.6327538495249954
  2.8185693399373224 56.9561695641874692 28.6327538495249954
 -21.1394854131292078 49.6332355696302230 28.6327538495249954
 -0.0000004740826793 56.9561695641874692 28.6327538495249954
 -1.4093275991092098 49.6332355696302230 28.6327538495249954
  8.4557935259173256 56.9561695641874692 28.6327538495249954
 18.3209151385716105  5.6956316022867357 28.6327538495249954
 16.9115875259173158 56.9561695641874692 28.6327538495249954
 22.5488117118973186 56.9561695641874692 28.6327538495249954
 28.1859513399373292 56.9561695641874692 28.6327538495249954
 31.0046057118973302 56.9561695641874692 28.6327538495249954
 33.8231755259173212 56.9561695641874692 28.6327538495249954
 -26.7767095991092070 49.6332355696302230 28.6327538495249954
 39.4603997118973240 56.9561695641874692 28.6327538495249954
  9.8651211385716078  5.6956316022867357 28.6327538495249954
 -18.3209155991092061 49.6332355696302230 28.6327538495249954
 -31.0046066600626737 56.9561695641874692 28.6327538495249954
 43.6882967322155622 54.5151427464417537 28.6327538495249954
 52.1440907322155596 54.5151427464417537 28.6327538495249954
 80.3300429525916257  5.6956316022867357 28.6327538495249954
 -2.8186121607160102  8.1365851906925037 28.6327538495249954
 11.2744056595431719 52.0741891580359919 28.6327538495249954
 71.8742489525916284  5.6956316022867357 28.6327538495249954
 19.7301996595431604 52.0741891580359919 28.6327538495249954
 -28.1859945264368292 52.0741891580359919 28.6327538495249954
  0.0000422112439907  8.1365851906925037 28.6327538495249954
 54.9626605868708040 49.6332355696302230 28.6327538495249954
 25.3674238455231631 52.0741891580359919 28.6327538495249954
 28.1859936595431719 52.0741891580359919 28.6327538495249954
 31.0045634735631737 52.0741891580359919 28.6327538495249954
 36.6417876595431693 52.0741891580359919 28.6327538495249954
 45.0975816595431809 52.0741891580359919 28.6327538495249954
 52.1440907728507952 49.6332355696302230 28.6327538495249954
 -29.5952372154302985 59.3971231525932382 28.6327538495249954
  8.4558362112439873  8.1365851906925037 28.6327538495249954
 43.6882967728507978 49.6332355696302230 28.6327538495249954
 43.6882971385716132  5.6956316022867357 28.6327538495249954
 12.6836905462355407 54.5151427464417537 28.6327538495249954
  7.0465509181955595 54.5151427464417537 28.6327538495249954
 16.9116302112439918  8.1365851906925037 28.6327538495249954
 49.3254367666116167  5.6956316022867357 28.6327538495249954
 -1.4092430818044526 54.5151427464417537 28.6327538495249954
 19.7302000252639935  8.1365851906925037 28.6327538495249954
 -4.2278974537644496 54.5151427464417537 28.6327538495249954
 14.0929758392839890  8.1365851906925037 28.6327538495249954
 38.0510725868707951 49.6332355696302230 28.6327538495249954
 54.9626609525916123  5.6956316022867357 28.6327538495249954
 -12.6836914537644478 54.5151427464417537 28.6327538495249954
 -15.5022612677844460 54.5151427464417537 28.6327538495249954
 -21.1394854537644470 54.5151427464417537 28.6327538495249954
 12.6836905868707941 49.6332355696302230 28.6327538495249954
 63.4184549525916097  5.6956316022867357 28.6327538495249954
 18.3209150166646637 20.3414995914012344 28.6327538495249954
 -9.8650794014102949 59.3971231525932382 28.6327538495249954
  7.0465507962886189 69.1610107355562462 28.6327538495249954
 -4.2278975756713866 69.1610107355562462 28.6327538495249954
 -7.0464673896913883 69.1610107355562462 28.6327538495249954
 -18.3208312037113821 69.1610107355562462 28.6327538495249954
 36.6417875376362474 66.7200571471504844 28.6327538495249954
 22.5487693516562366 66.7200571471504844 28.6327538495249954
 14.0929753516562410 66.7200571471504844 28.6327538495249954
 60.5998429002374621  0.8136511961352557 28.6327538495249954
  8.4558357236162376 66.7200571471504844 28.6327538495249954
 69.0556369002374737  0.8136511961352557 28.6327538495249954
 83.1486550862174738  0.8136511961352557 28.6327538495249954
 -11.2744066483437688 66.7200571471504844 28.6327538495249954
 -0.0000000270901599  3.2546047845410229 28.6327538495249954
 -19.7302006483437680 66.7200571471504844 28.6327538495249954
  5.6372241588898389  3.2546047845410229 28.6327538495249954
 -25.3673402763837679 66.7200571471504844 28.6327538495249954
 -31.0045644623637671 66.7200571471504844 28.6327538495249954
 21.1394844243286215 69.1610107355562462 28.6327538495249954
 23.9581387962886225 69.1610107355562462 28.6327538495249954
 26.7767086103086172 69.1610107355562462 28.6327538495249954
 35.2325026103086287 69.1610107355562462 28.6327538495249954
 33.8231754040103922 71.6020375533019688 28.6327538495249954
 25.3673814040103807 71.6020375533019688 28.6327538495249954
 21.1395272721974621  0.8136511961352557 28.6327538495249954
 19.7301572180303850 71.6020375533019688 28.6327538495249954
 16.9115874040103833 71.6020375533019688 28.6327538495249954
 11.2743632180303894 71.6020375533019688 28.6327538495249954
  8.4557934040103735 71.6020375533019688 28.6327538495249954
  5.6372235899903860 71.6020375533019688 28.6327538495249954
 19.7302423448698399  3.2546047845410229 28.6327538495249954
  2.8185692180303707 71.6020375533019688 28.6327538495249954
 26.7766669002374584  0.8136511961352557 28.6327538495249954
 -14.0930187819696204 71.6020375533019688 28.6327538495249954
 -19.7301584100096186 71.6020375533019688 28.6327538495249954
 -22.5488127819696196 71.6020375533019688 28.6327538495249954
 -28.1859524100096195 71.6020375533019688 28.6327538495249954
 -33.8231765959896151 71.6020375533019688 28.6327538495249954
 29.5953212721974559  0.8136511961352557 28.6327538495249954
 46.5069092721974613  0.8136511961352557 28.6327538495249954
 -2.8185704100096114 71.6020375533019688 28.6327538495249954
 46.5068664649638706 64.2791035587447084 28.6327538495249954
 43.6882966509438617 64.2791035587447084 28.6327538495249954
 40.8696422789838678 64.2791035587447084 28.6327538495249954
 -25.3673825147179137 61.8380767409990000 28.6327538495249954
 50.7347639729098461  3.2546047845410229 28.6327538495249954
 59.1905579729098434  3.2546047845410229 28.6327538495249954
 49.3254785985897115 59.3971231525932382 28.6327538495249954
 46.5069087845697027 59.3971231525932382 28.6327538495249954
 62.0092123448698445  3.2546047845410229 28.6327538495249954
 64.8277821588898462  3.2546047845410229 28.6327538495249954
 36.6418299791490298 47.1922087518845075 28.6327538495249954
 45.0976243448698426  3.2546047845410229 28.6327538495249954
 67.6463519729098550  3.2546047845410229 28.6327538495249954
 73.2835761588898578  3.2546047845410229 28.6327538495249954
 78.9208003448698463  3.2546047845410229 28.6327538495249954
 15.5023025985896936 59.3971231525932382 28.6327538495249954
 12.6837327845697061 59.3971231525932382 28.6327538495249954
  9.8650784126096909 59.3971231525932382 28.6327538495249954
  7.0465085985897025 59.3971231525932382 28.6327538495249954
 81.7393701588898551  3.2546047845410229 28.6327538495249954
 -7.0465095873903012 59.3971231525932382 28.6327538495249954
 70.4650063448698489  3.2546047845410229 28.6327538495249954
 -15.5023035873902977 59.3971231525932382 28.6327538495249954
 -16.9115885147179164 61.8380767409990000 28.6327538495249954
 36.6418303448698452  3.2546047845410229 28.6327538495249954
 38.0510724649638732 64.2791035587447084 28.6327538495249954
 35.2325026509438644 64.2791035587447084 28.6327538495249954
 32.4138482789838704 64.2791035587447084 28.6327538495249954
 23.9580542789838589 64.2791035587447084 28.6327538495249954
 21.1394844649638500 64.2791035587447084 28.6327538495249954
 18.3209146509438554 64.2791035587447084 28.6327538495249954
  7.0464662789838490 64.2791035587447084 28.6327538495249954
  1.4093266509438596 64.2791035587447084 28.6327538495249954
 42.2789699729098274  3.2546047845410229 28.6327538495249954
 -1.4093277210161486 64.2791035587447084 28.6327538495249954
 -18.3209157210161457 64.2791035587447084 28.6327538495249954
 -32.4138493490561430 64.2791035587447084 28.6327538495249954
 -35.2325037210161440 64.2791035587447084 28.6327538495249954
 47.9161936712620928 61.8380767409990000 28.6327538495249954
 42.2789694852820901 61.8380767409990000 28.6327538495249954
 33.8231754852820927 61.8380767409990000 28.6327538495249954
 28.1860358572420893 61.8380767409990000 28.6327538495249954
 33.8231759729098371  3.2546047845410229 28.6327538495249954
 -4.2278975350361501 64.2791035587447084 28.6327538495249954
 32.4138905985897026 59.3971231525932382 28.6327538495249954
 46.5069089064766459 44.7512551634787386 28.6327538495249954
 31.0046057931690235 47.1922087518845075 28.6327538495249954
  1.4092846564235810 30.1053871743642461 28.6327538495249954
 71.8742911502905173 15.4595191852497500 28.6327538495249954
 -4.2278549716164209 30.1053871743642461 28.6327538495249954
 -5.6371397770370981 17.9004727736555189 28.6327538495249954
 -2.8185699630171004 17.9004727736555189 28.6327538495249954
 50.7347637697312024 27.6644335859584807 28.6327538495249954
 -0.0000001489970986 17.9004727736555189 28.6327538495249954
 42.2789697697312050 27.6644335859584807 28.6327538495249954
 36.6417455837512094 27.6644335859584807 28.6327538495249954
  2.8186542229628988 17.9004727736555189 28.6327538495249954
 31.0046059557112059 27.6644335859584807 28.6327538495249954
 28.1859515837511907 27.6644335859584807 28.6327538495249954
 25.3673817697312032 27.6644335859584807 28.6327538495249954
 22.5488119557112086 27.6644335859584807 28.6327538495249954
 19.7301575837512004 27.6644335859584807 28.6327538495249954
 16.9115877697311987 27.6644335859584807 28.6327538495249954
 11.2743635837511977 27.6644335859584807 28.6327538495249954
 15.5023028424035783 30.1053871743642461 28.6327538495249954
  5.6372240369829028 17.9004727736555189 28.6327538495249954
 57.7812729643105243 15.4595191852497500 28.6327538495249954
 49.3254789643105269 15.4595191852497500 28.6327538495249954
  4.2279391502905188 15.4595191852497500 28.6327538495249954
 62.0092121010559580 32.5463407627700150 28.6327538495249954
 12.6837331502905215 15.4595191852497500 28.6327538495249954
 56.3719879150759695 32.5463407627700150 28.6327538495249954
 53.5534181010559607 32.5463407627700150 28.6327538495249954
 47.9161939150759579 32.5463407627700150 28.6327538495249954
 39.4603999150759606 32.5463407627700150 28.6327538495249954
 18.3208727783305179 15.4595191852497500 28.6327538495249954
 31.0046059150759525 32.5463407627700150 28.6327538495249954
  8.4557937290959586 32.5463407627700150 28.6327538495249954
 21.1395271502905153 15.4595191852497500 28.6327538495249954
 -5.6371398989440404 32.5463407627700150 28.6327538495249954
 -11.2743640849240396 32.5463407627700150 28.6327538495249954
 66.2370668424035927 30.1053871743642461 28.6327538495249954
 60.5998426564235899 30.1053871743642461 28.6327538495249954
 57.7812728424035953 30.1053871743642461 28.6327538495249954
 35.2324607783305126 15.4595191852497500 28.6327538495249954
 54.9627031502905297 15.4595191852497500 28.6327538495249954
 -11.2743640442888005 27.6644335859584807 28.6327538495249954
  8.4557938510029000 17.9004727736555189 28.6327538495249954
 14.0930180369829028 17.9004727736555189 28.6327538495249954
 53.5533759033570504 22.7824531798069998 28.6327538495249954
 47.9161940369829011 17.9004727736555189 28.6327538495249954
 39.4603577173770574 22.7824531798069998 28.6327538495249954
 56.3719880369828985 17.9004727736555189 28.6327538495249954
 31.0045637173770388 22.7824531798069998 28.6327538495249954
 62.0092122229629013 17.9004727736555189 28.6327538495249954
 64.8277820369829101 17.9004727736555189 28.6327538495249954
 25.3674240893370566 22.7824531798069998 28.6327538495249954
 -5.6371820966429516 22.7824531798069998 28.6327538495249954
 -8.4557519106629488 22.7824531798069998 28.6327538495249954
 -11.2744062826229499 22.7824531798069998 28.6327538495249954
 69.0556790166646692 20.3414995914012344 28.6327538495249954
 -7.0464669833353293 20.3414995914012344 28.6327538495249954
 63.4184548306846807 20.3414995914012344 28.6327538495249954
 46.5068668306846718 20.3414995914012344 28.6327538495249954
 32.4138486447046574 20.3414995914012344 28.6327538495249954
 26.7767090166646753 20.3414995914012344 28.6327538495249954
 59.1906000893370532 22.7824531798069998 28.6327538495249954
 62.0091699033570620 22.7824531798069998 28.6327538495249954
 64.8277397173770566 22.7824531798069998 28.6327538495249954
 67.6463940893370506 22.7824531798069998 28.6327538495249954
 60.5998849760294434 25.2234067682127652 28.6327538495249954
 57.7813151620094345 25.2234067682127652 28.6327538495249954
 52.1440909760294318 25.2234067682127652 28.6327538495249954
 49.3255211620094371 25.2234067682127652 28.6327538495249954
 43.6882969760294344 25.2234067682127652 28.6327538495249954
 40.8697271620094256 25.2234067682127652 28.6327538495249954
 38.0510727900494388 25.2234067682127652 28.6327538495249954
 35.2325029760294228 25.2234067682127652 28.6327538495249954
 -12.6836912912222672 34.9873675805157234 28.6327538495249954
 32.4139331620094353 25.2234067682127652 28.6327538495249954
 23.9581391620094379 25.2234067682127652 28.6327538495249954
 28.1860362229629082 17.9004727736555189 28.6327538495249954
  9.8651209760294343 25.2234067682127652 28.6327538495249954
  4.2278967900494315 25.2234067682127652 28.6327538495249954
 39.4604000369828896 17.9004727736555189 28.6327538495249954
 -1.4092428379905699 25.2234067682127652 28.6327538495249954
 -9.8650368379905675 25.2234067682127652 28.6327538495249954
 70.4649639033570594 22.7824531798069998 28.6327538495249954
 19.7302422229628966 17.9004727736555189 28.6327538495249954
 -9.8651214772022673 34.9873675805157234 28.6327538495249954
 -1.4093274772022688 34.9873675805157234 28.6327538495249954
  4.2278967087777302 34.9873675805157234 28.6327538495249954
 -12.6836490935233588 44.7512551634787386 28.6327538495249954
 -21.1394430935233544 44.7512551634787386 28.6327538495249954
 -23.9580974654833554 44.7512551634787386 28.6327538495249954
 53.5533334618442680 42.3103015750729767 28.6327538495249954
 50.7347636478242734 42.3103015750729767 28.6327538495249954
 47.9161938338042646 42.3103015750729767 28.6327538495249954
 45.0975394618442706 42.3103015750729767 28.6327538495249954
 42.2789696478242618 42.3103015750729767 28.6327538495249954
 39.4603998338042672 42.3103015750729767 28.6327538495249954
 36.6417454618442662 42.3103015750729767 28.6327538495249954
 23.9581392839163634 10.5775387790982709 28.6327538495249954
 29.5952789119563668 10.5775387790982709 28.6327538495249954
 32.4139332839163785 10.5775387790982709 28.6327538495249954
 14.0930178338042680 42.3103015750729767 28.6327538495249954
 43.6882970979363634 10.5775387790982709 28.6327538495249954
  8.4557936478242581 42.3103015750729767 28.6327538495249954
  2.8185694618442589 42.3103015750729767 28.6327538495249954
 15.5023452839163713 10.5775387790982709 28.6327538495249954
 -4.2278550935233552 44.7512551634787386 28.6327538495249954
  1.4092845345166412 44.7512551634787386 28.6327538495249954
 15.5023027204966439 44.7512551634787386 28.6327538495249954
 42.2790122112439946  8.1365851906925037 28.6327538495249954
 16.9115876071890092 47.1922087518845075 28.6327538495249954
 14.0930177931690217 47.1922087518845075 28.6327538495249954
  5.6372237931690181 47.1922087518845075 28.6327538495249954
  2.8186539791490159 47.1922087518845075 28.6327538495249954
 -0.0000003928109814 47.1922087518845075 28.6327538495249954
 -2.8185702068309761 47.1922087518845075 28.6327538495249954
 -5.6371400208509774 47.1922087518845075 28.6327538495249954
 -5.6372245381557384 42.3103015750729767 28.6327538495249954
 -16.9115883928109767 47.1922087518845075 28.6327538495249954
  7.0464666447046698 20.3414995914012344 28.6327538495249954
 40.8696847204966431 44.7512551634787386 28.6327538495249954
 38.0511149064766485 44.7512551634787386 28.6327538495249954
 35.2324605345166475 44.7512551634787386 28.6327538495249954
 32.4138907204966458 44.7512551634787386 28.6327538495249954
 29.5953209064766369 44.7512551634787386 28.6327538495249954
 23.9580967204966342 44.7512551634787386 28.6327538495249954
 21.1395269064766467 44.7512551634787386 28.6327538495249954
 52.1440485345166493 44.7512551634787386 28.6327538495249954
 36.6417880252639918  8.1365851906925037 28.6327538495249954
 -8.4557943521757366 42.3103015750729767 28.6327538495249954
 -14.0930185381557376 42.3103015750729767 28.6327538495249954
 14.0929755954701115 37.4283211689214923 28.6327538495249954
 11.2744057814501097 37.4283211689214923 28.6327538495249954
 50.7347638916381456 13.0185655968439828 28.6327538495249954
 -2.8186124045298877 37.4283211689214923 28.6327538495249954
 59.1905578916381430 13.0185655968439828 28.6327538495249954
 -14.0929762185498877 37.4283211689214923 28.6327538495249954
 -19.7302004045298887 37.4283211689214923 28.6327538495249954
 63.4184547087777446 34.9873675805157234 28.6327538495249954
 54.9626607087777472 34.9873675805157234 28.6327538495249954
 35.2325028947577295 34.9873675805157234 28.6327538495249954
 32.4138485227977426 34.9873675805157234 28.6327538495249954
 29.5952787087777267 34.9873675805157234 28.6327538495249954
 26.7767088947577392 34.9873675805157234 28.6327538495249954
 23.9580545227977240 34.9873675805157234 28.6327538495249954
 18.3209148947577418 34.9873675805157234 28.6327538495249954
 15.5022605227977337 34.9873675805157234 28.6327538495249954
 -4.2278548497094786 15.4595191852497500 28.6327538495249954
 33.8232179674301037 37.4283211689214923 28.6327538495249954
 31.0046060776181456 13.0185655968439828 28.6327538495249954
 42.2790119674301152 37.4283211689214923 28.6327538495249954
 45.0975817814501099 37.4283211689214923 28.6327538495249954
 -22.5488125381557367 42.3103015750729767 28.6327538495249954
 57.7813152839163777 10.5775387790982709 28.6327538495249954
 66.2371092839163680 10.5775387790982709 28.6327538495249954
 69.0556790979363768 10.5775387790982709 28.6327538495249954
 43.6882968541224912 39.8692747573272612 28.6327538495249954
 74.6929032839163654 10.5775387790982709 28.6327538495249954
 -2.8185699223818586 13.0185655968439828 28.6327538495249954
 29.5952786681424982 39.8692747573272612 28.6327538495249954
 52.1440910979363750 10.5775387790982709 28.6327538495249954
 23.9581390401024947 39.8692747573272612 28.6327538495249954
 12.6836906681424875 39.8692747573272612 28.6327538495249954
 -7.0464671458775081 39.8692747573272612 28.6327538495249954
  2.8185697056581414 13.0185655968439828 28.6327538495249954
 -21.1394853318575109 39.8692747573272612 28.6327538495249954
 62.0091697814501188 37.4283211689214923 28.6327538495249954
 56.3719455954701161 37.4283211689214923 28.6327538495249954
 53.5533757814501215 37.4283211689214923 28.6327538495249954
 50.7348059674301126 37.4283211689214923 28.6327538495249954
 21.1394846681424795 39.8692747573272612 28.6327538495249954
 42.2789694040103896 71.6020375533019688 28.6327538495249954
