 H  O 
 1.0000000000000000
    84.5579400000000021    0.0000000000000000    0.0000000000000000
   -42.2789706095346958   73.2293399455724767    0.0000000000000000
     0.0000000000000000    0.0000000000000000   46.9039550000000034
 H   O  
 268 237
Cartesian
 -0.0000000135450799  1.6273023922705114 28.1128704123049964
 12.6836484839886605 28.4780847820937346 28.1128704123049964
 18.3208726699686650 28.4780847820937346 28.1128704123049964
 21.1394424839886597 28.4780847820937346 28.1128704123049964
 29.5952364839886641 28.4780847820937346 28.1128704123049964
 32.4138908559486651 28.4780847820937346 28.1128704123049964
 43.6882546699686571 28.4780847820937346 28.1128704123049964
 46.5068244839886518 28.4780847820937346 28.1128704123049964
 -4.2278975214910632 62.6518011664742076 28.1128704123049964
 54.9626184839886562 28.4780847820937346 28.1128704123049964
 60.5998426699686590 28.4780847820937346 28.1128704123049964
 66.2370668559486688 28.4780847820937346 28.1128704123049964
 -18.3209157074710660 62.6518011664742076 28.1128704123049964
 -21.1394855214910677 62.6518011664742076 28.1128704123049964
 -8.4557942573589582 30.9190383704995000 28.1128704123049964
  9.8650786699686659 28.4780847820937346 28.1128704123049964
 47.9161936848071619 60.2107743487284921 28.1128704123049964
  5.6372239286210437 30.9190383704995000 28.1128704123049964
  8.4557937426410454 30.9190383704995000 28.1128704123049964
 14.0930179286210446 30.9190383704995000 28.1128704123049964
 42.2789694988271592 60.2107743487284921 28.1128704123049964
 28.1859515566610455 30.9190383704995000 28.1128704123049964
 31.0046059286210465 30.9190383704995000 28.1128704123049964
 -14.0930186465175975 55.3288671719169614 28.1128704123049964
 36.6417455566610357 30.9190383704995000 28.1128704123049964
 33.8231754988271618 60.2107743487284921 28.1128704123049964
 45.0975395566610331 30.9190383704995000 28.1128704123049964
 47.9161939286210341 30.9190383704995000 28.1128704123049964
 -18.3209154636571903 33.3600651882452155 28.1128704123049964
 -12.6836912776771893 33.3600651882452155 28.1128704123049964
 -8.4557944605375948 55.3288671719169614 28.1128704123049964
 16.9115876207341032 45.5649063596139996 28.1128704123049964
  1.4092421065489333 62.6518011664742076 28.1128704123049964
  4.2278964785089341 62.6518011664742076 28.1128704123049964
 67.6463517832762875 26.0371311936879657 28.1128704123049964
 50.7347215449421185 21.1551507875364884 28.1128704123049964
 39.4603573652013111 65.0927547548799765 28.1128704123049964
 59.1905155449421230 21.1551507875364884 28.1128704123049964
 62.0091699169021311 21.1551507875364884 28.1128704123049964
 -7.0464670104254905 23.5961043759422537 28.1128704123049964
 31.0045633652013137 65.0927547548799765 28.1128704123049964
 -23.9581397715441291 48.0059331773597151 28.1128704123049964
 -0.0000428207786890 65.0927547548799765 28.1128704123049964
 15.5022606176145086 23.5961043759422537 28.1128704123049964
 -26.7767095855641273 48.0059331773597151 28.1128704123049964
 -5.6371824488186855 65.0927547548799765 28.1128704123049964
 43.6882969895745106 23.5961043759422537 28.1128704123049964
 -31.0046066465175976 55.3288671719169614 28.1128704123049964
 49.3254366176144998 23.5961043759422537 28.1128704123049964
 -14.0929764488186855 65.0927547548799765 28.1128704123049964
 -14.0930184027037182 26.0371311936879657 28.1128704123049964
 -11.2744485886837182 26.0371311936879657 28.1128704123049964
  7.0464662925289359 62.6518011664742076 28.1128704123049964
 12.6836904785089395 62.6518011664742076 28.1128704123049964
 -26.7767096261993700 52.8878403541712458 28.1128704123049964
 42.2789697832762812 26.0371311936879657 28.1128704123049964
 21.1394844785089369 62.6518011664742076 28.1128704123049964
 -25.3673824605375984 55.3288671719169614 28.1128704123049964
 -7.0465516496371885 33.3600651882452155 28.1128704123049964
 28.1859515972962846 26.0371311936879657 28.1128704123049964
 -33.8232188207786848 65.0927547548799765 28.1128704123049964
 -28.1860368324975958 55.3288671719169614 28.1128704123049964
 -25.3674248207786874 65.0927547548799765 28.1128704123049964
  5.6371394113162827 26.0371311936879657 28.1128704123049964
 -19.7302006347986882 65.0927547548799765 28.1128704123049964
 50.7347636207340997 45.5649063596139996 28.1128704123049964
 26.7766241065489261 62.6518011664742076 28.1128704123049964
  5.6372238067141032 45.5649063596139996 28.1128704123049964
  1.4092423503628120 33.3600651882452155 28.1128704123049964
 -0.0000003792658964 45.5649063596139996 28.1128704123049964
 46.5068666816875762 38.2419723650567462 28.1128704123049964
 50.7347635394624064 55.3288671719169614 28.1128704123049964
 35.2324603042478444 72.4156887494372228 28.1128704123049964
 60.5998848676675763 38.2419723650567462 28.1128704123049964
 -22.5488125246106605 40.6829991828024689 28.1128704123049964
 -11.2744487105906597 40.6829991828024689 28.1128704123049964
 -8.4557943386306622 40.6829991828024689 28.1128704123049964
 45.0975393534824036 55.3288671719169614 28.1128704123049964
 39.4603151675024009 55.3288671719169614 28.1128704123049964
  5.6371392894093386 40.6829991828024689 28.1128704123049964
 36.6417453534824062 55.3288671719169614 28.1128704123049964
  8.4557936613693432 40.6829991828024689 28.1128704123049964
 14.0929332894093395 40.6829991828024689 28.1128704123049964
 19.7301574753893405 40.6829991828024689 28.1128704123049964
 25.3673816613693432 40.6829991828024689 28.1128704123049964
 28.1859514753893379 40.6829991828024689 28.1128704123049964
 31.0045212894093325 40.6829991828024689 28.1128704123049964
 38.0510303620817112 43.1239527712082307 28.1128704123049964
  9.8650785480617262 43.1239527712082307 28.1128704123049964
  7.0465087340417254 43.1239527712082307 28.1128704123049964
 16.9115875394624062 55.3288671719169614 28.1128704123049964
  1.4092845480617260 43.1239527712082307 28.1128704123049964
 -4.2279396379182765 43.1239527712082307 28.1128704123049964
 54.9626183620817130 43.1239527712082307 28.1128704123049964
 -12.6837336379182783 43.1239527712082307 28.1128704123049964
 -18.3208732659582765 43.1239527712082307 28.1128704123049964
 46.5068243620817157 43.1239527712082307 28.1128704123049964
 53.5533334753893371 40.6829991828024689 28.1128704123049964
 50.7347636613693425 40.6829991828024689 28.1128704123049964
 31.0045211675023928 55.3288671719169614 28.1128704123049964
 45.0975394753893397 40.6829991828024689 28.1128704123049964
 22.5487271675023955 55.3288671719169614 28.1128704123049964
 32.4138907340417219 43.1239527712082307 28.1128704123049964
 40.8696424957075664 38.2419723650567462 28.1128704123049964
 -21.1395277598252136 57.7698207603227232 28.1128704123049964
 15.5022605363428152 33.3600651882452155 28.1128704123049964
 18.3208303503628116 33.3600651882452155 28.1128704123049964
 16.9115874988271635 60.2107743487284921 28.1128704123049964
 23.9580545363428143 33.3600651882452155 28.1128704123049964
 -2.8185701932858982 45.5649063596139996 28.1128704123049964
 32.4138485363428117 33.3600651882452155 28.1128704123049964
 43.6882123503628037 33.3600651882452155 28.1128704123049964
  8.4557934988271644 60.2107743487284921 28.1128704123049964
 -5.6372246465175939 55.3288671719169614 28.1128704123049964
 57.7812305363428109 33.3600651882452155 28.1128704123049964
  2.8185693128471621 60.2107743487284921 28.1128704123049964
 -11.2743641932859031 45.5649063596139996 28.1128704123049964
 -2.8185703151928343 60.2107743487284921 28.1128704123049964
  5.6371816090151947 35.8010187766509844 28.1128704123049964
 -19.7301581932858987 45.5649063596139996 28.1128704123049964
 -16.9115885011728366 60.2107743487284921 28.1128704123049964
 -25.3673825011728376 60.2107743487284921 28.1128704123049964
  1.4092844261547897 57.7698207603227232 28.1128704123049964
  9.8650784261547866 57.7698207603227232 28.1128704123049964
 12.6836482401747883 57.7698207603227232 28.1128704123049964
  9.8651208676675761 38.2419723650567462 28.1128704123049964
  4.2278966816875769 38.2419723650567462 28.1128704123049964
 15.5023026121347893 57.7698207603227232 28.1128704123049964
 35.2325028676675771 38.2419723650567462 28.1128704123049964
 -4.2278973183124275 38.2419723650567462 28.1128704123049964
 21.1394422401747804 57.7698207603227232 28.1128704123049964
 -15.5022611323324266 38.2419723650567462 28.1128704123049964
 -33.8231765011728385 60.2107743487284921 28.1128704123049964
 -0.0000004605375943 55.3288671719169614 28.1128704123049964
 53.5533757949951976 35.8010187766509844 28.1128704123049964
 50.7347214230351895 35.8010187766509844 28.1128704123049964
 18.3208724261547857 57.7698207603227232 28.1128704123049964
 36.6417879169021319 21.1551507875364884 28.1128704123049964
 45.0975819169021293 21.1551507875364884 28.1128704123049964
 31.0045637309221327 21.1551507875364884 28.1128704123049964
 11.2744056730882534 50.4468867657654769 28.1128704123049964
 59.1905156668490591  6.5092827984219914 28.1128704123049964
 -29.5953218817321577 72.4156887494372228 28.1128704123049964
 67.6463096668490635  6.5092827984219914 28.1128704123049964
 73.2835338528290663  6.5092827984219914 28.1128704123049964
 -32.4138916957521559 72.4156887494372228 28.1128704123049964
 -40.8696856957521533 72.4156887494372228 28.1128704123049964
  1.4093271114814494  8.9502363868277595 28.1128704123049964
 39.4603150455954648 69.9747351610314468 28.1128704123049964
  4.2278969255014500  8.9502363868277595 28.1128704123049964
  7.0464667395214500  8.9502363868277595 28.1128704123049964
 12.6836909255014501  8.9502363868277595 28.1128704123049964
 15.5022607395214518  8.9502363868277595 28.1128704123049964
 33.8231754175554755 69.9747351610314468 28.1128704123049964
 -21.1395278817321568 72.4156887494372228 28.1128704123049964
 21.1394849255014528  8.9502363868277595 28.1128704123049964
 29.5952789255014537  8.9502363868277595 28.1128704123049964
 46.5068669255014484  8.9502363868277595 28.1128704123049964
 49.3254367395214430  8.9502363868277595 28.1128704123049964
 19.7301572315754683 69.9747351610314468 28.1128704123049964
  5.6371390455954664 69.9747351610314468 28.1128704123049964
 77.5114731114814504  8.9502363868277595 28.1128704123049964
  2.8185692315754580 69.9747351610314468 28.1128704123049964
  2.8185697192032206 11.3912632045734714 28.1128704123049964
  8.4557513011282524 50.4468867657654769 28.1128704123049964
 11.2743637192032189 11.3912632045734714 28.1128704123049964
 16.9115879051832216 11.3912632045734714 28.1128704123049964
 19.7301577192032234 11.3912632045734714 28.1128704123049964
 -2.8186125128917427 50.4468867657654769 28.1128704123049964
 33.8231759051832199 11.3912632045734714 28.1128704123049964
 22.5487270455954629 69.9747351610314468 28.1128704123049964
 -11.2744065128917477 50.4468867657654769 28.1128704123049964
 -18.3208735097721558 72.4156887494372228 28.1128704123049964
 33.8231336668490670  6.5092827984219914 28.1128704123049964
  8.4557939864549194  1.6273023922705114 28.1128704123049964
 53.5533756730882544 50.4468867657654769 28.1128704123049964
 39.4604001724349231  1.6273023922705114 28.1128704123049964
 42.2789699864549249  1.6273023922705114 28.1128704123049964
 45.0975398004749266  1.6273023922705114 28.1128704123049964
 50.7347639864549222  1.6273023922705114 28.1128704123049964
 53.5533338004749169  1.6273023922705114 28.1128704123049964
 56.3719881724349250  1.6273023922705114 28.1128704123049964
 67.6463519864549170  1.6273023922705114 28.1128704123049964
 70.4649218004749116  1.6273023922705114 28.1128704123049964
 81.7393701724349171  1.6273023922705114 28.1128704123049964
  1.4092425941766900  4.0683292100162243 28.1128704123049964
  7.0464667801566900  4.0683292100162243 28.1128704123049964
 26.7766663042478434 72.4156887494372228 28.1128704123049964
 36.6417880388090680  6.5092827984219914 28.1128704123049964
 15.5022607801566892  4.0683292100162243 28.1128704123049964
 45.0975816730882570 50.4468867657654769 28.1128704123049964
 42.2789273011282489 50.4468867657654769 28.1128704123049964
 28.1859936730882552 50.4468867657654769 28.1128704123049964
 -1.4092855097721566 72.4156887494372228 28.1128704123049964
 -4.2279398817321576 72.4156887494372228 28.1128704123049964
 19.7301996730882578 50.4468867657654769 28.1128704123049964
 -9.8650795097721549 72.4156887494372228 28.1128704123049964
 -0.0000423331509293  6.5092827984219914 28.1128704123049964
  5.6371818528290705  6.5092827984219914 28.1128704123049964
 14.0929758528290687  6.5092827984219914 28.1128704123049964
 16.9115456668490722  6.5092827984219914 28.1128704123049964
 19.7302000388090732  6.5092827984219914 28.1128704123049964
 28.1859940388090742  6.5092827984219914 28.1128704123049964
 -15.5023036957521541 72.4156887494372228 28.1128704123049964
 18.3208723042478390 72.4156887494372228 28.1128704123049964
 -16.9116306988717469 50.4468867657654769 28.1128704123049964
 -8.4558366988717459 50.4468867657654769 28.1128704123049964
 21.1394845597806302 52.8878403541712458 28.1128704123049964
 62.0091276785679781 16.2731703813850075 28.1128704123049964
 29.5952785597806276 52.8878403541712458 28.1128704123049964
 -22.5487703269117468 50.4468867657654769 28.1128704123049964
 -9.8651213417502497 18.7141971991307194 28.1128704123049964
 -4.2278971557702505 18.7141971991307194 28.1128704123049964
 18.3209146238536960 67.5337083432857384 28.1128704123049964
  1.4092424722697507 18.7141971991307194 28.1128704123049964
 23.9580544144358711 48.0059331773597151 28.1128704123049964
 18.3208302284558755 48.0059331773597151 28.1128704123049964
 26.7766244722697486 18.7141971991307194 28.1128704123049964
 12.6836906004158720 48.0059331773597151 28.1128704123049964
  4.2278964378736958 67.5337083432857384 28.1128704123049964
  1.4093266238536943 67.5337083432857384 28.1128704123049964
 -1.4093277481063067 67.5337083432857384 28.1128704123049964
 23.9580542518936852 67.5337083432857384 28.1128704123049964
  9.8650362284558710 48.0059331773597151 28.1128704123049964
 -7.0464673761463033 67.5337083432857384 28.1128704123049964
 -12.6836915621263024 67.5337083432857384 28.1128704123049964
 66.2370246582497515 18.7141971991307194 28.1128704123049964
 -18.3209157481063052 67.5337083432857384 28.1128704123049964
 -8.4558364550578684 21.1551507875364884 28.1128704123049964
 -21.1394855621263069 67.5337083432857384 28.1128704123049964
 -2.8186122690778692 21.1551507875364884 28.1128704123049964
 -0.0000424550578693 21.1551507875364884 28.1128704123049964
  2.8186119169021282 21.1551507875364884 28.1128704123049964
  8.4557515449421317 21.1551507875364884 28.1128704123049964
 -4.2278973995841262 48.0059331773597151 28.1128704123049964
 16.9115455449421290 21.1551507875364884 28.1128704123049964
 -32.4138493761463025 67.5337083432857384 28.1128704123049964
 -38.0510735621263052 67.5337083432857384 28.1128704123049964
 52.1440064722697443 18.7141971991307194 28.1128704123049964
 39.4604000505279870 16.2731703813850075 28.1128704123049964
 67.6463518645479809 16.2731703813850075 28.1128704123049964
 19.7301576785679771 16.2731703813850075 28.1128704123049964
 59.1905579051832120 11.3912632045734714 28.1128704123049964
 62.0091277192032209 11.3912632045734714 28.1128704123049964
 -33.8231765824445318 69.9747351610314468 28.1128704123049964
 46.5068666004158757 48.0059331773597151 28.1128704123049964
 76.1021459051832210 11.3912632045734714 28.1128704123049964
 -4.2279393941043990 13.8322167929792403 28.1128704123049964
 -36.6418309544045329 69.9747351610314468 28.1128704123049964
  7.0465089778555976 13.8322167929792403 28.1128704123049964
 -39.4604007684245346 69.9747351610314468 28.1128704123049964
 15.5023029778556030 13.8322167929792403 28.1128704123049964
 26.7767086238536862 67.5337083432857384 28.1128704123049964
 43.6882966238536952 67.5337083432857384 28.1128704123049964
 23.9580969778556039 13.8322167929792403 28.1128704123049964
 29.5952366058956002 13.8322167929792403 28.1128704123049964
 40.8696849778556057 13.8322167929792403 28.1128704123049964
  8.4557935394624035 55.3288671719169614 28.1128704123049964
 49.3254789778556031 13.8322167929792403 28.1128704123049964
 35.2324182284558631 48.0059331773597151 28.1128704123049964
 11.2743636785679815 16.2731703813850075 28.1128704123049964
 32.4138482518936897 67.5337083432857384 28.1128704123049964
 -8.4557941354520185 16.2731703813850075 28.1128704123049964
 43.6882122284558676 48.0059331773597151 28.1128704123049964
 69.0556367918755996 13.8322167929792403 28.1128704123049964
 63.4184126058955968 13.8322167929792403 28.1128704123049964
 71.8742066058955942 13.8322167929792403 28.1128704123049964
 54.9626186058955923 13.8322167929792403 28.1128704123049964
 39.4603574735631781 52.0741891580359919 28.6327538495249954
 -8.4557521544768282 52.0741891580359919 28.6327538495249954
 47.9161514735631755 52.0741891580359919 28.6327538495249954
 16.9116298455231728 52.0741891580359919 28.6327538495249954
 -18.3208310818044460 54.5151427464417537 28.6327538495249954
 33.8232178455231747 52.0741891580359919 28.6327538495249954
 42.2790118455231720 52.0741891580359919 28.6327538495249954
 -4.2278974537644496 54.5151427464417537 28.6327538495249954
 53.5533756595431782 52.0741891580359919 28.6327538495249954
 14.0929754735631594 52.0741891580359919 28.6327538495249954
 11.2744056595431719 52.0741891580359919 28.6327538495249954
 25.3674238455231631 52.0741891580359919 28.6327538495249954
 -5.6371823404568273 52.0741891580359919 28.6327538495249954
 -23.9580552677844487 54.5151427464417537 28.6327538495249954
  4.2278965462355513 54.5151427464417537 28.6327538495249954
  2.8186116595431669 52.0741891580359919 28.6327538495249954
 16.9115874852820909 61.8380767409990000 28.6327538495249954
 18.3209147322155452 54.5151427464417537 28.6327538495249954
 14.0929753516562410 66.7200571471504844 28.6327538495249954
 19.7301995376362349 66.7200571471504844 28.6327538495249954
 28.1859935376362323 66.7200571471504844 28.6327538495249954
 36.6417875376362474 66.7200571471504844 28.6327538495249954
 42.2790117236162359 66.7200571471504844 28.6327538495249954
 -35.2324192037113804 69.1610107355562462 28.6327538495249954
 -26.7766252037113830 69.1610107355562462 28.6327538495249954
 -23.9580553896913813 69.1610107355562462 28.6327538495249954
 -21.1394855756713831 69.1610107355562462 28.6327538495249954
 -18.3208312037113821 69.1610107355562462 28.6327538495249954
 -15.5022613896913821 69.1610107355562462 28.6327538495249954
 -12.6836915756713875 69.1610107355562462 28.6327538495249954
 -7.0464673896913883 69.1610107355562462 28.6327538495249954
 -4.2278975756713866 69.1610107355562462 28.6327538495249954
 -1.4092432037113782 69.1610107355562462 28.6327538495249954
 -25.3673825959896213 71.6020375533019688 28.6327538495249954
 -14.0930187819696204 71.6020375533019688 28.6327538495249954
 -5.6372247819696195 71.6020375533019688 28.6327538495249954
 -0.0000005959896168 71.6020375533019688 28.6327538495249954
  5.6372235899903860 71.6020375533019688 28.6327538495249954
 11.2743632180303894 71.6020375533019688 28.6327538495249954
 16.9115874040103833 71.6020375533019688 28.6327538495249954
 22.5488115899903860 71.6020375533019688 28.6327538495249954
 28.1859512180303895 71.6020375533019688 28.6327538495249954
 31.0046055899903834 71.6020375533019688 28.6327538495249954
 11.2744055376362251 66.7200571471504844 28.6327538495249954
  8.4558357236162376 66.7200571471504844 28.6327538495249954
  5.6371813516562215 66.7200571471504844 28.6327538495249954
 -2.8186126483437688 66.7200571471504844 28.6327538495249954
 26.7767087322155568 54.5151427464417537 28.6327538495249954
 -28.1859522881026763 56.9561695641874692 28.6327538495249954
 -32.4138915873902960 59.3971231525932382 28.6327538495249954
 -12.6836492154302967 59.3971231525932382 28.6327538495249954
 -7.0465095873903012 59.3971231525932382 28.6327538495249954
 -1.4092854014103018 59.3971231525932382 28.6327538495249954
  7.0465085985897025 59.3971231525932382 28.6327538495249954
 12.6837327845697061 59.3971231525932382 28.6327538495249954
 21.1395267845696964 59.3971231525932382 28.6327538495249954
 23.9580965985897052 59.3971231525932382 28.6327538495249954
 29.5953207845697079 59.3971231525932382 28.6327538495249954
 38.0511147845697053 59.3971231525932382 28.6327538495249954
 15.5023449181955559 54.5151427464417537 28.6327538495249954
 46.5069087845697027 59.3971231525932382 28.6327538495249954
 -0.0000005147179177 61.8380767409990000 28.6327538495249954
 22.5488116712620865 61.8380767409990000 28.6327538495249954
 -29.5952795350361448 64.2791035587447084 28.6327538495249954
 -15.5022613490561429 64.2791035587447084 28.6327538495249954
 -9.8651217210161430 64.2791035587447084 28.6327538495249954
 -1.4093277210161486 64.2791035587447084 28.6327538495249954
  4.2278964649638544 64.2791035587447084 28.6327538495249954
 35.2325026509438644 64.2791035587447084 28.6327538495249954
 43.6882966509438617 64.2791035587447084 28.6327538495249954
 46.5068664649638706 64.2791035587447084 28.6327538495249954
 -22.5487704623637697 66.7200571471504844 28.6327538495249954
 -16.9115462763837670 66.7200571471504844 28.6327538495249954
 -22.5487281427579163 61.8380767409990000 28.6327538495249954
 -11.2744065264368292 52.0741891580359919 28.6327538495249954
 56.3719455954701161 37.4283211689214923 28.6327538495249954
 -28.1859945264368292 52.0741891580359919 28.6327538495249954
 47.9161940369829011 17.9004727736555189 28.6327538495249954
 42.2789698510029055 17.9004727736555189 28.6327538495249954
 36.6418302229629020 17.9004727736555189 28.6327538495249954
 33.8231758510028868 17.9004727736555189 28.6327538495249954
 31.0046060369829029 17.9004727736555189 28.6327538495249954
 28.1860362229629082 17.9004727736555189 28.6327538495249954
 22.5488120369828984 17.9004727736555189 28.6327538495249954
 56.3719880369828985 17.9004727736555189 28.6327538495249954
  5.6372240369829028 17.9004727736555189 28.6327538495249954
 66.2370669643105288 15.4595191852497500 28.6327538495249954
 57.7812729643105243 15.4595191852497500 28.6327538495249954
 35.2324607783305126 15.4595191852497500 28.6327538495249954
 15.5023029643105232 15.4595191852497500 28.6327538495249954
 -7.0465092216694787 15.4595191852497500 28.6327538495249954
 50.7347638916381456 13.0185655968439828 28.6327538495249954
 45.0975397056581500 13.0185655968439828 28.6327538495249954
 -0.0000001489970986 17.9004727736555189 28.6327538495249954
 19.7301577056581365 13.0185655968439828 28.6327538495249954
 59.1905578510029073 17.9004727736555189 28.6327538495249954
 70.4650062229628986 17.9004727736555189 28.6327538495249954
 -1.4092428379905699 25.2234067682127652 28.6327538495249954
 67.6463940893370506 22.7824531798069998 28.6327538495249954
 47.9161517173770548 22.7824531798069998 28.6327538495249954
 28.1859939033570512 22.7824531798069998 28.6327538495249954
 19.7301999033570468 22.7824531798069998 28.6327538495249954
 11.2744059033570529 22.7824531798069998 28.6327538495249954
  0.0000420893370479 22.7824531798069998 28.6327538495249954
 62.0092122229629013 17.9004727736555189 28.6327538495249954
 -2.8186122826229494 22.7824531798069998 28.6327538495249954
 54.9626608306846691 20.3414995914012344 28.6327538495249954
 40.8696426447046761 20.3414995914012344 28.6327538495249954
 32.4138486447046574 20.3414995914012344 28.6327538495249954
 29.5952788306846699 20.3414995914012344 28.6327538495249954
 21.1394848306846654 20.3414995914012344 28.6327538495249954
 12.6836908306846716 20.3414995914012344 28.6327538495249954
 -7.0464669833353293 20.3414995914012344 28.6327538495249954
 -11.2744062826229499 22.7824531798069998 28.6327538495249954
 11.2743637056581409 13.0185655968439828 28.6327538495249954
 -0.0000001083618602 13.0185655968439828 28.6327538495249954
 74.6929032839163654 10.5775387790982709 28.6327538495249954
 43.6882971385716132  5.6956316022867357 28.6327538495249954
 32.4138487666116077  5.6956316022867357 28.6327538495249954
  9.8651211385716078  5.6956316022867357 28.6327538495249954
 76.1021459729098524  3.2546047845410229 28.6327538495249954
 70.4650063448698489  3.2546047845410229 28.6327538495249954
 62.0092123448698445  3.2546047845410229 28.6327538495249954
 53.5534183448698329  3.2546047845410229 28.6327538495249954
 46.5068669525916008  5.6956316022867357 28.6327538495249954
 39.4604001588898399  3.2546047845410229 28.6327538495249954
 33.8231759729098371  3.2546047845410229 28.6327538495249954
 31.0046061588898354  3.2546047845410229 28.6327538495249954
 25.3673819729098362  3.2546047845410229 28.6327538495249954
 19.7302423448698399  3.2546047845410229 28.6327538495249954
 11.2744483448698372  3.2546047845410229 28.6327538495249954
 35.2324609002374558  0.8136511961352557 28.6327538495249954
  4.2279392721974602  0.8136511961352557 28.6327538495249954
 36.6418303448698452  3.2546047845410229 28.6327538495249954
 49.3254367666116167  5.6956316022867357 28.6327538495249954
 63.4184549525916097  5.6956316022867357 28.6327538495249954
 77.5114731385716169  5.6956316022867357 28.6327538495249954
 66.2371092839163680 10.5775387790982709 28.6327538495249954
 57.7813152839163777 10.5775387790982709 28.6327538495249954
 52.1440910979363750 10.5775387790982709 28.6327538495249954
 49.3255212839163661 10.5775387790982709 28.6327538495249954
 40.8697272839163759 10.5775387790982709 28.6327538495249954
 38.0510729119563607 10.5775387790982709 28.6327538495249954
 29.5952789119563668 10.5775387790982709 28.6327538495249954
 26.7767090979363651 10.5775387790982709 28.6327538495249954
 23.9581392839163634 10.5775387790982709 28.6327538495249954
  7.0465512839163686 10.5775387790982709 28.6327538495249954
 -1.4092427160836287 10.5775387790982709 28.6327538495249954
 62.0091700252639910  8.1365851906925037 28.6327538495249954
 56.3719458392839954  8.1365851906925037 28.6327538495249954
 25.3674242112439856  8.1365851906925037 28.6327538495249954
 16.9116302112439918  8.1365851906925037 28.6327538495249954
  2.8186120252639890  8.1365851906925037 28.6327538495249954
 80.3300429525916257  5.6956316022867357 28.6327538495249954
  1.4093269760294336 25.2234067682127652 28.6327538495249954
 -14.0929763404568273 52.0741891580359919 28.6327538495249954
  9.8651209760294343 25.2234067682127652 28.6327538495249954
 15.5023451620094264 25.2234067682127652 28.6327538495249954
 -7.0465094654833562 44.7512551634787386 28.6327538495249954
 -15.5023034654833562 44.7512551634787386 28.6327538495249954
 59.1905576478242708 42.3103015750729767 28.6327538495249954
 42.2789696478242618 42.3103015750729767 28.6327538495249954
 33.8231756478242644 42.3103015750729767 28.6327538495249954
 11.2743634618442599 42.3103015750729767 28.6327538495249954
  2.8185694618442589 42.3103015750729767 28.6327538495249954
  9.8650785345166412 44.7512551634787386 28.6327538495249954
 -14.0930185381557376 42.3103015750729767 28.6327538495249954
 57.7813150401024913 39.8692747573272612 28.6327538495249954
 49.3255210401024939 39.8692747573272612 28.6327538495249954
  7.0465510401024849 39.8692747573272612 28.6327538495249954
 -1.4092429598975091 39.8692747573272612 28.6327538495249954
 -7.0464671458775081 39.8692747573272612 28.6327538495249954
 53.5533757814501215 37.4283211689214923 28.6327538495249954
 45.0975817814501099 37.4283211689214923 28.6327538495249954
 -16.9115883521757375 42.3103015750729767 28.6327538495249954
 31.0045635954701204 37.4283211689214923 28.6327538495249954
 12.6837329064766493 44.7512551634787386 28.6327538495249954
 26.7766665345166501 44.7512551634787386 28.6327538495249954
 49.3254364008908013 49.6332355696302230 28.6327538495249954
 46.5068665868708067 49.6332355696302230 28.6327538495249954
 15.5022604008907816 49.6332355696302230 28.6327538495249954
  7.0464664008907913 49.6332355696302230 28.6327538495249954
 -12.6836914131292051 49.6332355696302230 28.6327538495249954
 -26.7767095991092070 49.6332355696302230 28.6327538495249954
 39.4603997931690245 47.1922087518845075 28.6327538495249954
 21.1395269064766467 44.7512551634787386 28.6327538495249954
 31.0046057931690235 47.1922087518845075 28.6327538495249954
 -0.0000003928109814 47.1922087518845075 28.6327538495249954
 -5.6371400208509774 47.1922087518845075 28.6327538495249954
 -19.7301582068309784 47.1922087518845075 28.6327538495249954
 -22.5487280208509766 47.1922087518845075 28.6327538495249954
 54.9627029064766432 44.7512551634787386 28.6327538495249954
 46.5069089064766459 44.7512551634787386 28.6327538495249954
 29.5953209064766369 44.7512551634787386 28.6327538495249954
 14.0930177931690217 47.1922087518845075 28.6327538495249954
 25.3674239674301170 37.4283211689214923 28.6327538495249954
 22.5487695954701017 37.4283211689214923 28.6327538495249954
 16.9116299674301196 37.4283211689214923 28.6327538495249954
 15.5023028424035783 30.1053871743642461 28.6327538495249954
  4.2279390283835818 30.1053871743642461 28.6327538495249954
 -4.2278549716164209 30.1053871743642461 28.6327538495249954
 -9.8650791575964192 30.1053871743642461 28.6327538495249954
 -12.6836489716164174 30.1053871743642461 28.6327538495249954
 -15.5023033435764184 30.1053871743642461 28.6327538495249954
 50.7347637697312024 27.6644335859584807 28.6327538495249954
 32.4138908424035748 30.1053871743642461 28.6327538495249954
 45.0975395837512067 27.6644335859584807 28.6327538495249954
 -8.4557942302688005 27.6644335859584807 28.6327538495249954
 63.4184547900494380 25.2234067682127652 28.6327538495249954
 57.7813151620094345 25.2234067682127652 28.6327538495249954
 52.1440909760294318 25.2234067682127652 28.6327538495249954
 38.0510727900494388 25.2234067682127652 28.6327538495249954
 35.2325029760294228 25.2234067682127652 28.6327538495249954
 23.9581391620094379 25.2234067682127652 28.6327538495249954
  8.4557937697312031 27.6644335859584807 28.6327538495249954
 40.8696848424035863 30.1053871743642461 28.6327538495249954
 -11.2743640849240396 32.5463407627700150 28.6327538495249954
 -2.8185700849240374 32.5463407627700150 28.6327538495249954
  0.0000419674301133 37.4283211689214923 28.6327538495249954
 -8.4557520325698885 37.4283211689214923 28.6327538495249954
 -11.2744064045298860 37.4283211689214923 28.6327538495249954
 -19.7302004045298887 37.4283211689214923 28.6327538495249954
 54.9626607087777472 34.9873675805157234 28.6327538495249954
 49.3254365227977445 34.9873675805157234 28.6327538495249954
 38.0510727087777383 34.9873675805157234 28.6327538495249954
 12.6836907087777320 34.9873675805157234 28.6327538495249954
  7.0464665227977319 34.9873675805157234 28.6327538495249954
 -1.4093274772022688 34.9873675805157234 28.6327538495249954
 -9.8651214772022673 34.9873675805157234 28.6327538495249954
 62.0092121010559580 32.5463407627700150 28.6327538495249954
 56.3719879150759695 32.5463407627700150 28.6327538495249954
 53.5534181010559607 32.5463407627700150 28.6327538495249954
 28.1860361010559650 32.5463407627700150 28.6327538495249954
 19.7302421010559677 32.5463407627700150 28.6327538495249954
 11.2744481010559561 32.5463407627700150 28.6327538495249954
 12.6836907900494289 25.2234067682127652 28.6327538495249954
 42.2789694040103896 71.6020375533019688 28.6327538495249954
