 H  O 
 1.0000000000000000
    84.5579400000000021    0.0000000000000000    0.0000000000000000
   -42.2789706095346958   73.2293399455724767    0.0000000000000000
     0.0000000000000000    0.0000000000000000   46.9039550000000034
 H   O  
 208 331
Cartesian
 -22.5488126871528358 60.2107743487284921 28.1128704123049964
  1.4092844261547897 57.7698207603227232 28.1128704123049964
 -11.2744485886837182 26.0371311936879657 28.1128704123049964
  2.8185695972962814 26.0371311936879657 28.1128704123049964
 -7.0465095738452108 57.7698207603227232 28.1128704123049964
 31.0045214113162864 26.0371311936879657 28.1128704123049964
 -15.5023035738452162 57.7698207603227232 28.1128704123049964
 47.9161094113162704 26.0371311936879657 28.1128704123049964
 50.7347637832762715 26.0371311936879657 28.1128704123049964
 67.6463517832762875 26.0371311936879657 28.1128704123049964
 -15.5023033300313369 28.4780847820937346 28.1128704123049964
 -4.2279395160113378 28.4780847820937346 28.1128704123049964
  7.0465088559486642 28.4780847820937346 28.1128704123049964
 39.4603151675024009 55.3288671719169614 28.1128704123049964
 54.9626608035945097 23.5961043759422537 28.1128704123049964
 23.9580968559486607 28.4780847820937346 28.1128704123049964
 38.0510304839886544 28.4780847820937346 28.1128704123049964
 16.9115875394624062 55.3288671719169614 28.1128704123049964
 54.9626184839886562 28.4780847820937346 28.1128704123049964
 63.4184124839886536 28.4780847820937346 28.1128704123049964
 66.2370668559486688 28.4780847820937346 28.1128704123049964
 -2.8186548324975988 55.3288671719169614 28.1128704123049964
  2.8185695566610427 30.9190383704995000 28.1128704123049964
  5.6372239286210437 30.9190383704995000 28.1128704123049964
 -22.5488126465175966 55.3288671719169614 28.1128704123049964
 33.8231757426410411 30.9190383704995000 28.1128704123049964
 49.3254363738006276 52.8878403541712458 28.1128704123049964
 39.4603999286210438 30.9190383704995000 28.1128704123049964
 50.7347637426410429 30.9190383704995000 28.1128704123049964
 19.7301573534824009 55.3288671719169614 28.1128704123049964
 43.6882967457606384 52.8878403541712458 28.1128704123049964
 46.5068668035945052 23.5961043759422537 28.1128704123049964
 43.6882969895745106 23.5961043759422537 28.1128704123049964
 -9.8651217074710615 62.6518011664742076 28.1128704123049964
  4.2278968442297478 18.7141971991307194 28.1128704123049964
  7.0464666582497495 18.7141971991307194 28.1128704123049964
 -12.6836915214910633 62.6518011664742076 28.1128704123049964
 18.3208304722697477 18.7141971991307194 28.1128704123049964
 23.9580546582497540 18.7141971991307194 28.1128704123049964
 -15.5023458934510643 62.6518011664742076 28.1128704123049964
 35.2324184722697566 18.7141971991307194 28.1128704123049964
 38.0510728442297577 18.7141971991307194 28.1128704123049964
 -35.2325037074710679 62.6518011664742076 28.1128704123049964
 42.2789694988271592 60.2107743487284921 28.1128704123049964
 71.8742488442297542 18.7141971991307194 28.1128704123049964
 36.6417453128471564 60.2107743487284921 28.1128704123049964
 18.3208724261547857 57.7698207603227232 28.1128704123049964
 31.0046056848071565 60.2107743487284921 28.1128704123049964
 28.1859513128471555 60.2107743487284921 28.1128704123049964
  8.4557934988271644 60.2107743487284921 28.1128704123049964
 33.8231335449421309 21.1551507875364884 28.1128704123049964
  5.6372236848071626 60.2107743487284921 28.1128704123049964
 47.9161517309221239 21.1551507875364884 28.1128704123049964
 -8.4557945011728339 60.2107743487284921 28.1128704123049964
 59.1905155449421230 21.1551507875364884 28.1128704123049964
 64.8277397309221328 21.1551507875364884 28.1128704123049964
 -11.2743643151928357 60.2107743487284921 28.1128704123049964
 -4.2278971964054897 23.5961043759422537 28.1128704123049964
 15.5022606176145086 23.5961043759422537 28.1128704123049964
 26.7767089895745123 23.5961043759422537 28.1128704123049964
 21.1394422401747804 57.7698207603227232 28.1128704123049964
 -0.0000424550578693 21.1551507875364884 28.1128704123049964
 62.0091275566610349 30.9190383704995000 28.1128704123049964
 64.8277819286210502 30.9190383704995000 28.1128704123049964
 32.4138483738006258 52.8878403541712458 28.1128704123049964
 -16.9115883386306614 40.6829991828024689 28.1128704123049964
 -14.0930185246106596 40.6829991828024689 28.1128704123049964
 40.8696424144358730 48.0059331773597151 28.1128704123049964
  5.6371392894093386 40.6829991828024689 28.1128704123049964
 29.5952786004158739 48.0059331773597151 28.1128704123049964
 22.5487272894093422 40.6829991828024689 28.1128704123049964
 25.3673816613693432 40.6829991828024689 28.1128704123049964
 33.8231756613693406 40.6829991828024689 28.1128704123049964
 12.6836906004158720 48.0059331773597151 28.1128704123049964
 36.6417454753893352 40.6829991828024689 28.1128704123049964
  7.0464664144358764 48.0059331773597151 28.1128704123049964
 39.4603152894093299 40.6829991828024689 28.1128704123049964
 -1.4093275855641247 48.0059331773597151 28.1128704123049964
 60.5998848676675763 38.2419723650567462 28.1128704123049964
 50.7347636613693425 40.6829991828024689 28.1128704123049964
 -12.6837336379182783 43.1239527712082307 28.1128704123049964
 -4.2279396379182765 43.1239527712082307 28.1128704123049964
 -1.4092852659582757 43.1239527712082307 28.1128704123049964
 42.2789696207341024 45.5649063596139996 28.1128704123049964
  9.8650785480617262 43.1239527712082307 28.1128704123049964
 15.5023027340417219 43.1239527712082307 28.1128704123049964
 23.9580967340417281 43.1239527712082307 28.1128704123049964
 19.7301574347541049 45.5649063596139996 28.1128704123049964
 38.0510303620817112 43.1239527712082307 28.1128704123049964
 49.3254787340417238 43.1239527712082307 28.1128704123049964
 52.1440485480617184 43.1239527712082307 28.1128704123049964
 -25.3673823792659014 45.5649063596139996 28.1128704123049964
 -2.8185701932858982 45.5649063596139996 28.1128704123049964
 -18.3208732659582765 43.1239527712082307 28.1128704123049964
 54.9626606004158731 48.0059331773597151 28.1128704123049964
 40.8696424957075664 38.2419723650567462 28.1128704123049964
 -22.5487703269117468 50.4468867657654769 28.1128704123049964
 -7.0465516496371885 33.3600651882452155 28.1128704123049964
 -4.2278972776771910 33.3600651882452155 28.1128704123049964
 29.5952785597806276 52.8878403541712458 28.1128704123049964
 18.3208303503628116 33.3600651882452155 28.1128704123049964
 23.9580545363428143 33.3600651882452155 28.1128704123049964
  1.4093267457606342 52.8878403541712458 28.1128704123049964
 57.7812305363428109 33.3600651882452155 28.1128704123049964
 60.5998003503628055 33.3600651882452155 28.1128704123049964
 -18.3209156261993691 52.8878403541712458 28.1128704123049964
 -5.6371822050048115 35.8010187766509844 28.1128704123049964
 -2.8186123909848098 35.8010187766509844 28.1128704123049964
 -29.5952794402193682 52.8878403541712458 28.1128704123049964
  5.6371816090151947 35.8010187766509844 28.1128704123049964
 14.0929756090151947 35.8010187766509844 28.1128704123049964
 31.0045634871082498 50.4468867657654769 28.1128704123049964
 28.1859936730882552 50.4468867657654769 28.1128704123049964
 47.9161516090151949 35.8010187766509844 28.1128704123049964
 25.3673393011282471 50.4468867657654769 28.1128704123049964
 -15.5022611323324266 38.2419723650567462 28.1128704123049964
  8.4557513011282524 50.4468867657654769 28.1128704123049964
 -12.6836913183124267 38.2419723650567462 28.1128704123049964
 40.8696844902278471 72.4156887494372228 28.1128704123049964
  5.6371814871082586 50.4468867657654769 28.1128704123049964
  1.4093268676675752 38.2419723650567462 28.1128704123049964
 -8.4558366988717459 50.4468867657654769 28.1128704123049964
  9.8651208676675761 38.2419723650567462 28.1128704123049964
 23.9580544957075787 38.2419723650567462 28.1128704123049964
 -14.0929763269117494 50.4468867657654769 28.1128704123049964
 38.0510726816875717 38.2419723650567462 28.1128704123049964
 -7.0465515277302488 18.7141971991307194 28.1128704123049964
 -1.4093277074710613 62.6518011664742076 28.1128704123049964
 -5.6372245652458988 45.5649063596139996 28.1128704123049964
 59.1905579051832120 11.3912632045734714 28.1128704123049964
 25.3673819051832226 11.3912632045734714 28.1128704123049964
 35.2324185941766927  4.0683292100162243 28.1128704123049964
 25.3673391792213039 65.0927547548799765 28.1128704123049964
 -40.8696856957521533 72.4156887494372228 28.1128704123049964
 28.1859517192032243 11.3912632045734714 28.1128704123049964
 39.4603155332232234 11.3912632045734714 28.1128704123049964
 32.4138487801566981  4.0683292100162243 28.1128704123049964
 14.0929753652013119 65.0927547548799765 28.1128704123049964
 -32.4138916957521559 72.4156887494372228 28.1128704123049964
 42.2789694175554729 69.9747351610314468 28.1128704123049964
 42.2789699051832244 11.3912632045734714 28.1128704123049964
 -18.3208735097721558 72.4156887494372228 28.1128704123049964
 70.4649217192032182 11.3912632045734714 28.1128704123049964
 18.3208305941766909  4.0683292100162243 28.1128704123049964
  9.8650787918756002 13.8322167929792403 28.1128704123049964
  2.8186115511813119 65.0927547548799765 28.1128704123049964
 15.5023029778556030 13.8322167929792403 28.1128704123049964
 -7.0465096957521522 72.4156887494372228 28.1128704123049964
 -0.0000428207786890 65.0927547548799765 28.1128704123049964
 26.7766667918756056 13.8322167929792403 28.1128704123049964
 45.0975397192032190 11.3912632045734714 28.1128704123049964
 49.3254367801566929  4.0683292100162243 28.1128704123049964
  2.8185697192032206 11.3912632045734714 28.1128704123049964
 33.8231331792213084 65.0927547548799765 28.1128704123049964
 21.1394844378736906 67.5337083432857384 28.1128704123049964
 70.4649640388090717  6.5092827984219914 28.1128704123049964
 36.6417880388090680  6.5092827984219914 28.1128704123049964
 40.8696422518936870 67.5337083432857384 28.1128704123049964
 73.2835338528290663  6.5092827984219914 28.1128704123049964
 -31.0046067684245337 69.9747351610314468 28.1128704123049964
 76.1021036668490609  6.5092827984219914 28.1128704123049964
 16.9115456668490722  6.5092827984219914 28.1128704123049964
 -1.4093277481063067 67.5337083432857384 28.1128704123049964
  7.0464667395214500  8.9502363868277595 28.1128704123049964
  5.6371818528290705  6.5092827984219914 28.1128704123049964
 18.3209151114814510  8.9502363868277595 28.1128704123049964
 -2.8186121471709296  6.5092827984219914 28.1128704123049964
 67.6463518645479809 16.2731703813850075 28.1128704123049964
 -7.0464673761463033 67.5337083432857384 28.1128704123049964
 40.8696427395214528  8.9502363868277595 28.1128704123049964
 71.8742489661366903  4.0683292100162243 28.1128704123049964
 66.2370247801566876  4.0683292100162243 28.1128704123049964
 63.4184549661366859  4.0683292100162243 28.1128704123049964
 60.5998005941766849  4.0683292100162243 28.1128704123049964
 -5.6372242807967794 11.3912632045734714 28.1128704123049964
  1.4092843042478451 72.4156887494372228 28.1128704123049964
 29.5952366058956002 13.8322167929792403 28.1128704123049964
 29.5952784378736951 67.5337083432857384 28.1128704123049964
 -14.0929764488186855 65.0927547548799765 28.1128704123049964
 29.5952784785089271 62.6518011664742076 28.1128704123049964
 29.5952361182678381 72.4156887494372228 28.1128704123049964
 35.2324603042478444 72.4156887494372228 28.1128704123049964
 16.9115879864549186  1.6273023922705114 28.1128704123049964
 -31.0045644488186873 65.0927547548799765 28.1128704123049964
 50.7347639864549222  1.6273023922705114 28.1128704123049964
 -8.4557941354520185 16.2731703813850075 28.1128704123049964
 43.6882121065489244 62.6518011664742076 28.1128704123049964
 11.2743636785679815 16.2731703813850075 28.1128704123049964
 25.3673819864549230  1.6273023922705114 28.1128704123049964
 63.4184126058955968 13.8322167929792403 28.1128704123049964
 62.0091278004749142  1.6273023922705114 28.1128704123049964
 12.6836481182678362 72.4156887494372228 28.1128704123049964
 54.9626186058955923 13.8322167929792403 28.1128704123049964
 11.2743638004749194  1.6273023922705114 28.1128704123049964
 81.7393701724349171  1.6273023922705114 28.1128704123049964
 50.7347638645479790 16.2731703813850075 28.1128704123049964
 43.6882547918756003 13.8322167929792403 28.1128704123049964
  7.0464662925289359 62.6518011664742076 28.1128704123049964
  8.4557939864549194  1.6273023922705114 28.1128704123049964
 56.3719880505279747 16.2731703813850075 28.1128704123049964
 47.9161941724349276  1.6273023922705114 28.1128704123049964
 40.8696422925289298 62.6518011664742076 28.1128704123049964
  9.8650361065489385 62.6518011664742076 28.1128704123049964
 46.5068246058955950 13.8322167929792403 28.1128704123049964
 -16.9116308207786865 65.0927547548799765 28.1128704123049964
  8.4557938645479798 16.2731703813850075 28.1128704123049964
 64.8277821724349081  1.6273023922705114 28.1128704123049964
  5.6372240505279780 16.2731703813850075 28.1128704123049964
  7.0464664008907913 49.6332355696302230 28.6327538495249954
 -7.0464673896913883 69.1610107355562462 28.6327538495249954
 21.1395269064766467 44.7512551634787386 28.6327538495249954
  7.0465507962886189 69.1610107355562462 28.6327538495249954
 -23.9580553896913813 69.1610107355562462 28.6327538495249954
 -9.8650372037113900 69.1610107355562462 28.6327538495249954
 15.5023027204966439 44.7512551634787386 28.6327538495249954
  9.8651207728507995 49.6332355696302230 28.6327538495249954
 26.7767087728507853 49.6332355696302230 28.6327538495249954
 39.4603995899903808 71.6020375533019688 28.6327538495249954
 42.2790117236162359 66.7200571471504844 28.6327538495249954
 -1.4092852795033535 44.7512551634787386 28.6327538495249954
 29.5952785868707942 49.6332355696302230 28.6327538495249954
 40.8696424008908039 49.6332355696302230 28.6327538495249954
 39.4603573516562420 66.7200571471504844 28.6327538495249954
 18.3208725345166314 44.7512551634787386 28.6327538495249954
  4.2278965868707896 49.6332355696302230 28.6327538495249954
 29.5952784243286260 69.1610107355562462 28.6327538495249954
 -9.8651215991092069 49.6332355696302230 28.6327538495249954
 -0.0000005959896168 71.6020375533019688 28.6327538495249954
 -2.8185702068309761 47.1922087518845075 28.6327538495249954
 -5.6371400208509774 47.1922087518845075 28.6327538495249954
 -8.4557945959896212 71.6020375533019688 28.6327538495249954
 -25.3673823928109776 47.1922087518845075 28.6327538495249954
 57.7812727204966521 44.7512551634787386 28.6327538495249954
 -16.9115885959896168 71.6020375533019688 28.6327538495249954
 54.9627029064766432 44.7512551634787386 28.6327538495249954
 31.0045633516562411 66.7200571471504844 28.6327538495249954
 16.9115876071890092 47.1922087518845075 28.6327538495249954
 46.5069089064766459 44.7512551634787386 28.6327538495249954
 -31.0046067819696169 71.6020375533019688 28.6327538495249954
 31.0046055899903834 71.6020375533019688 28.6327538495249954
 19.7302419791490244 47.1922087518845075 28.6327538495249954
 31.0046057931690235 47.1922087518845075 28.6327538495249954
 14.0930175899903762 71.6020375533019688 28.6327538495249954
 40.8696847204966431 44.7512551634787386 28.6327538495249954
 42.2789696071890333 47.1922087518845075 28.6327538495249954
 45.0976239791490272 47.1922087518845075 28.6327538495249954
 40.8697267962886173 69.1610107355562462 28.6327538495249954
 56.3719877931690334 47.1922087518845075 28.6327538495249954
 32.4138907204966458 44.7512551634787386 28.6327538495249954
 21.1394844243286215 69.1610107355562462 28.6327538495249954
 29.5953209064766369 44.7512551634787386 28.6327538495249954
 18.3209146103086198 69.1610107355562462 28.6327538495249954
 -12.6836914131292051 49.6332355696302230 28.6327538495249954
 43.6882545345166520 44.7512551634787386 28.6327538495249954
  5.6372236712620847 61.8380767409990000 28.6327538495249954
 33.8232178455231747 52.0741891580359919 28.6327538495249954
 22.5487693516562366 66.7200571471504844 28.6327538495249954
 -18.3209157210161457 64.2791035587447084 28.6327538495249954
 -9.8650794014102949 59.3971231525932382 28.6327538495249954
 -4.2278550935233552 44.7512551634787386 28.6327538495249954
 -23.9580975873902986 59.3971231525932382 28.6327538495249954
 47.9161937118973214 56.9561695641874692 28.6327538495249954
 -15.5022613490561429 64.2791035587447084 28.6327538495249954
 42.2789695259173328 56.9561695641874692 28.6327538495249954
 -21.1394855350361439 64.2791035587447084 28.6327538495249954
 39.4603997118973240 56.9561695641874692 28.6327538495249954
 -1.4093277210161486 64.2791035587447084 28.6327538495249954
 16.9115875259173158 56.9561695641874692 28.6327538495249954
  1.4093266509438596 64.2791035587447084 28.6327538495249954
 -0.0000004740826793 56.9561695641874692 28.6327538495249954
 -2.8185702881026811 56.9561695641874692 28.6327538495249954
  9.8651206509438563 64.2791035587447084 28.6327538495249954
 -22.5488126600626764 56.9561695641874692 28.6327538495249954
 19.7301573399373318 56.9561695641874692 28.6327538495249954
 -25.3673824740826745 56.9561695641874692 28.6327538495249954
 -7.0465095873903012 59.3971231525932382 28.6327538495249954
  7.0465085985897025 59.3971231525932382 28.6327538495249954
  8.4557934852820722 61.8380767409990000 28.6327538495249954
 -11.2743643287379136 61.8380767409990000 28.6327538495249954
 11.2744478572420874 61.8380767409990000 28.6327538495249954
 -14.0929341427579153 61.8380767409990000 28.6327538495249954
 14.0930176712620749 61.8380767409990000 28.6327538495249954
 28.1860358572420893 61.8380767409990000 28.6327538495249954
 31.0046056712620839 61.8380767409990000 28.6327538495249954
 -29.5952795350361448 64.2791035587447084 28.6327538495249954
 -28.1859523287379155 61.8380767409990000 28.6327538495249954
 -31.0045221427579136 61.8380767409990000 28.6327538495249954
 43.6882544126097088 59.3971231525932382 28.6327538495249954
 42.2789694852820901 61.8380767409990000 28.6327538495249954
 32.4138905985897026 59.3971231525932382 28.6327538495249954
 -32.4138493490561430 64.2791035587447084 28.6327538495249954
 21.1395267845696964 59.3971231525932382 28.6327538495249954
  9.8650784126096909 59.3971231525932382 28.6327538495249954
 39.4603996712620955 61.8380767409990000 28.6327538495249954
 -19.7302005264368283 52.0741891580359919 28.6327538495249954
 -28.1859522881026763 56.9561695641874692 28.6327538495249954
 49.3255209181955507 54.5151427464417537 28.6327538495249954
 -19.7302006483437680 66.7200571471504844 28.6327538495249954
 47.9161514735631755 52.0741891580359919 28.6327538495249954
 -16.9115462763837670 66.7200571471504844 28.6327538495249954
 -5.6371824623637705 66.7200571471504844 28.6327538495249954
 -2.8186126483437688 66.7200571471504844 28.6327538495249954
 31.0045634735631737 52.0741891580359919 28.6327538495249954
 28.1859936595431719 52.0741891580359919 28.6327538495249954
 -25.3673402763837679 66.7200571471504844 28.6327538495249954
  0.0000417236162395 66.7200571471504844 28.6327538495249954
  8.4558358455231772 52.0741891580359919 28.6327538495249954
  5.6371814735631682 52.0741891580359919 28.6327538495249954
  2.8186116595431669 52.0741891580359919 28.6327538495249954
 -8.4557521544768282 52.0741891580359919 28.6327538495249954
 19.7301995376362349 66.7200571471504844 28.6327538495249954
 -14.0929763404568273 52.0741891580359919 28.6327538495249954
 -16.9115461544768308 52.0741891580359919 28.6327538495249954
 11.2744056595431719 52.0741891580359919 28.6327538495249954
 12.6836904649638509 64.2791035587447084 28.6327538495249954
 50.7348058455231694 52.0741891580359919 28.6327538495249954
 53.5533756595431782 52.0741891580359919 28.6327538495249954
 43.6882967322155622 54.5151427464417537 28.6327538495249954
 40.8697269181955534 54.5151427464417537 28.6327538495249954
 29.5952785462355585 54.5151427464417537 28.6327538495249954
 21.1394845462355612 54.5151427464417537 28.6327538495249954
 26.7767086509438528 64.2791035587447084 28.6327538495249954
 18.3209147322155452 54.5151427464417537 28.6327538495249954
 29.5952784649638616 64.2791035587447084 28.6327538495249954
 -28.1859946483437653 66.7200571471504844 28.6327538495249954
  1.4093267322155492 54.5151427464417537 28.6327538495249954
 -1.4092430818044526 54.5151427464417537 28.6327538495249954
 -18.3208310818044460 54.5151427464417537 28.6327538495249954
 40.8696422789838678 64.2791035587447084 28.6327538495249954
 -21.1394854537644470 54.5151427464417537 28.6327538495249954
 43.6882966509438617 64.2791035587447084 28.6327538495249954
 -31.0045644623637671 66.7200571471504844 28.6327538495249954
 -23.9580552677844487 54.5151427464417537 28.6327538495249954
 32.4138482789838704 64.2791035587447084 28.6327538495249954
  7.0465090862174584  0.8136511961352557 28.6327538495249954
 -11.2744064045298860 37.4283211689214923 28.6327538495249954
 -21.1394430935233544 44.7512551634787386 28.6327538495249954
 46.5069091502905181 15.4595191852497500 28.6327538495249954
 35.2324607783305126 15.4595191852497500 28.6327538495249954
 32.4138909643105251 15.4595191852497500 28.6327538495249954
 26.7766667783305188 15.4595191852497500 28.6327538495249954
 23.9580969643105171 15.4595191852497500 28.6327538495249954
  9.8650787783305205 15.4595191852497500 28.6327538495249954
  7.0465089643105223 15.4595191852497500 28.6327538495249954
 -4.2278548497094786 15.4595191852497500 28.6327538495249954
 -7.0465092216694787 15.4595191852497500 28.6327538495249954
 64.8277820776181386 13.0185655968439828 28.6327538495249954
 62.0091277056581518 13.0185655968439828 28.6327538495249954
 59.1905578916381430 13.0185655968439828 28.6327538495249954
 47.9161940776181368 13.0185655968439828 28.6327538495249954
 45.0975397056581500 13.0185655968439828 28.6327538495249954
 42.2789698916381340 13.0185655968439828 28.6327538495249954
 28.1859517056581375 13.0185655968439828 28.6327538495249954
 25.3673818916381357 13.0185655968439828 28.6327538495249954
 16.9115878916381419 13.0185655968439828 28.6327538495249954
 11.2743637056581409 13.0185655968439828 28.6327538495249954
 77.5114730979363742 10.5775387790982709 28.6327538495249954
 43.6882970979363634 10.5775387790982709 28.6327538495249954
 49.3254789643105269 15.4595191852497500 28.6327538495249954
 52.1440487783305286 15.4595191852497500 28.6327538495249954
 54.9627031502905297 15.4595191852497500 28.6327538495249954
 57.7812729643105243 15.4595191852497500 28.6327538495249954
 35.2325030166646727 20.3414995914012344 28.6327538495249954
 23.9580546447046672 20.3414995914012344 28.6327538495249954
 18.3209150166646637 20.3414995914012344 28.6327538495249954
 15.5022606447046662 20.3414995914012344 28.6327538495249954
  4.2278968306846716 20.3414995914012344 28.6327538495249954
  1.4093270166646681 20.3414995914012344 28.6327538495249954
 -1.4093273552953294 20.3414995914012344 28.6327538495249954
 -4.2278971693153311 20.3414995914012344 28.6327538495249954
 73.2835760369829075 17.9004727736555189 28.6327538495249954
 70.4650062229628986 17.9004727736555189 28.6327538495249954
 40.8697272839163759 10.5775387790982709 28.6327538495249954
 67.6463518510029047 17.9004727736555189 28.6327538495249954
 50.7347638510029029 17.9004727736555189 28.6327538495249954
 36.6418302229629020 17.9004727736555189 28.6327538495249954
 33.8231758510028868 17.9004727736555189 28.6327538495249954
 16.9115878510028992 17.9004727736555189 28.6327538495249954
  8.4557938510029000 17.9004727736555189 28.6327538495249954
  5.6372240369829028 17.9004727736555189 28.6327538495249954
  2.8186542229628988 17.9004727736555189 28.6327538495249954
 -8.4557941489970982 17.9004727736555189 28.6327538495249954
 69.0556367783305234 15.4595191852497500 28.6327538495249954
 66.2370669643105288 15.4595191852497500 28.6327538495249954
 56.3719880369828985 17.9004727736555189 28.6327538495249954
 38.0510728306846602 20.3414995914012344 28.6327538495249954
 26.7767090979363651 10.5775387790982709 28.6327538495249954
 18.3209150979363713 10.5775387790982709 28.6327538495249954
 73.2835761588898578  3.2546047845410229 28.6327538495249954
 64.8277821588898462  3.2546047845410229 28.6327538495249954
 62.0092123448698445  3.2546047845410229 28.6327538495249954
 59.1905579729098434  3.2546047845410229 28.6327538495249954
 50.7347639729098461  3.2546047845410229 28.6327538495249954
 47.9161941588898301  3.2546047845410229 28.6327538495249954
 33.8231759729098371  3.2546047845410229 28.6327538495249954
 28.1860363448698337  3.2546047845410229 28.6327538495249954
 25.3673819729098362  3.2546047845410229 28.6327538495249954
 19.7302423448698399  3.2546047845410229 28.6327538495249954
 16.9115879729098388  3.2546047845410229 28.6327538495249954
  8.4557939729098397  3.2546047845410229 28.6327538495249954
  5.6372241588898389  3.2546047845410229 28.6327538495249954
 -0.0000000270901599  3.2546047845410229 28.6327538495249954
 83.1486550862174738  0.8136511961352557 28.6327538495249954
 63.4184972721974631  0.8136511961352557 28.6327538495249954
 52.1440489002374647  0.8136511961352557 28.6327538495249954
 49.3254790862174488  0.8136511961352557 28.6327538495249954
 35.2324609002374558  0.8136511961352557 28.6327538495249954
 23.9580970862174638  0.8136511961352557 28.6327538495249954
  9.8650789002374601  0.8136511961352557 28.6327538495249954
 81.7393701588898551  3.2546047845410229 28.6327538495249954
  9.8651211385716078  5.6956316022867357 28.6327538495249954
 15.5022607666116095  5.6956316022867357 28.6327538495249954
 18.3209151385716105  5.6956316022867357 28.6327538495249954
 -1.4092427160836287 10.5775387790982709 28.6327538495249954
 -4.2278970880436288 10.5775387790982709 28.6327538495249954
 76.1021882112439840  8.1365851906925037 28.6327538495249954
 73.2835338392839901  8.1365851906925037 28.6327538495249954
 70.4649640252639955  8.1365851906925037 28.6327538495249954
 56.3719458392839954  8.1365851906925037 28.6327538495249954
 53.5533760252639937  8.1365851906925037 28.6327538495249954
 42.2790122112439946  8.1365851906925037 28.6327538495249954
 39.4603578392839793  8.1365851906925037 28.6327538495249954
 36.6417880252639918  8.1365851906925037 28.6327538495249954
 23.9581392839163634 10.5775387790982709 28.6327538495249954
 28.1859940252639873  8.1365851906925037 28.6327538495249954
  5.6371818392839907  8.1365851906925037 28.6327538495249954
 -2.8186121607160102  8.1365851906925037 28.6327538495249954
 71.8742489525916284  5.6956316022867357 28.6327538495249954
 69.0556791385716195  5.6956316022867357 28.6327538495249954
 60.5998851385716151  5.6956316022867357 28.6327538495249954
 57.7812307666116141  5.6956316022867357 28.6327538495249954
 54.9626609525916123  5.6956316022867357 28.6327538495249954
 43.6882971385716132  5.6956316022867357 28.6327538495249954
 35.2325031385716159  5.6956316022867357 28.6327538495249954
 26.7767091385716043  5.6956316022867357 28.6327538495249954
 16.9116302112439918  8.1365851906925037 28.6327538495249954
 -7.0465094654833562 44.7512551634787386 28.6327538495249954
 57.7812306447046780 20.3414995914012344 28.6327538495249954
 69.0556790166646692 20.3414995914012344 28.6327538495249954
 53.5533757814501215 37.4283211689214923 28.6327538495249954
 50.7348059674301126 37.4283211689214923 28.6327538495249954
 39.4603575954701142 37.4283211689214923 28.6327538495249954
 25.3674239674301170 37.4283211689214923 28.6327538495249954
 14.0929755954701115 37.4283211689214923 28.6327538495249954
 11.2744057814501097 37.4283211689214923 28.6327538495249954
  8.4558359674301080 37.4283211689214923 28.6327538495249954
  5.6371815954701097 37.4283211689214923 28.6327538495249954
 -2.8186124045298877 37.4283211689214923 28.6327538495249954
 -5.6371822185498859 37.4283211689214923 28.6327538495249954
 -14.0929762185498877 37.4283211689214923 28.6327538495249954
 60.5998848947577358 34.9873675805157234 28.6327538495249954
 57.7812305227977419 34.9873675805157234 28.6327538495249954
 49.3254365227977445 34.9873675805157234 28.6327538495249954
 46.5068667087777357 34.9873675805157234 28.6327538495249954
 23.9580545227977240 34.9873675805157234 28.6327538495249954
 15.5022605227977337 34.9873675805157234 28.6327538495249954
 12.6836907087777320 34.9873675805157234 28.6327538495249954
 -1.4093274772022688 34.9873675805157234 28.6327538495249954
 -4.2278972912222672 34.9873675805157234 28.6327538495249954
 -12.6836912912222672 34.9873675805157234 28.6327538495249954
 -18.3208309598975099 39.8692747573272612 28.6327538495249954
 -15.5022611458775117 39.8692747573272612 28.6327538495249954
 -12.6836913318575100 39.8692747573272612 28.6327538495249954
  4.2278966681424874 39.8692747573272612 28.6327538495249954
 -23.9580974654833554 44.7512551634787386 28.6327538495249954
 50.7347636478242734 42.3103015750729767 28.6327538495249954
 39.4603998338042672 42.3103015750729767 28.6327538495249954
 33.8231756478242644 42.3103015750729767 28.6327538495249954
 31.0046058338042556 42.3103015750729767 28.6327538495249954
 22.5488118338042653 42.3103015750729767 28.6327538495249954
 19.7301574618442501 42.3103015750729767 28.6327538495249954
  8.4557936478242581 42.3103015750729767 28.6327538495249954
  5.6372238338042564 42.3103015750729767 28.6327538495249954
 -2.8185701661957374 42.3103015750729767 28.6327538495249954
 62.0092121010559580 32.5463407627700150 28.6327538495249954
 -14.0930185381557376 42.3103015750729767 28.6327538495249954
 -19.7301581661957393 42.3103015750729767 28.6327538495249954
 -22.5488125381557367 42.3103015750729767 28.6327538495249954
 54.9626606681424974 39.8692747573272612 28.6327538495249954
 52.1440908541225028 39.8692747573272612 28.6327538495249954
 49.3255210401024939 39.8692747573272612 28.6327538495249954
 38.0510726681424956 39.8692747573272612 28.6327538495249954
 35.2325028541224938 39.8692747573272612 28.6327538495249954
 23.9581390401024947 39.8692747573272612 28.6327538495249954
  9.8651208541224857 39.8692747573272612 28.6327538495249954
  7.0465510401024849 39.8692747573272612 28.6327538495249954
 -16.9115883521757375 42.3103015750729767 28.6327538495249954
 66.2370246447046753 20.3414995914012344 28.6327538495249954
 59.1905577290959641 32.5463407627700150 28.6327538495249954
 39.4603999150759606 32.5463407627700150 28.6327538495249954
 11.2743635837511977 27.6644335859584807 28.6327538495249954
  8.4557937697312031 27.6644335859584807 28.6327538495249954
  5.6372239557112023 27.6644335859584807 28.6327538495249954
 -14.0930184162487979 27.6644335859584807 28.6327538495249954
 52.1440909760294318 25.2234067682127652 28.6327538495249954
 49.3255211620094371 25.2234067682127652 28.6327538495249954
 46.5068667900494361 25.2234067682127652 28.6327538495249954
 32.4139331620094353 25.2234067682127652 28.6327538495249954
 26.7767089760294326 25.2234067682127652 28.6327538495249954
 15.5023451620094264 25.2234067682127652 28.6327538495249954
 -12.6836912099505668 25.2234067682127652 28.6327538495249954
 56.3719457173770593 22.7824531798069998 28.6327538495249954
 47.9161517173770548 22.7824531798069998 28.6327538495249954
 45.0975819033570531 22.7824531798069998 28.6327538495249954
 31.0045637173770388 22.7824531798069998 28.6327538495249954
 28.1859939033570512 22.7824531798069998 28.6327538495249954
 25.3674240893370566 22.7824531798069998 28.6327538495249954
 16.9116300893370450 22.7824531798069998 28.6327538495249954
  0.0000420893370479 22.7824531798069998 28.6327538495249954
 -2.8186122826229494 22.7824531798069998 28.6327538495249954
 -5.6371820966429516 22.7824531798069998 28.6327538495249954
 22.5488119557112086 27.6644335859584807 28.6327538495249954
 25.3673817697312032 27.6644335859584807 28.6327538495249954
 36.6417455837512094 27.6644335859584807 28.6327538495249954
 39.4603999557111962 27.6644335859584807 28.6327538495249954
 33.8231757290959649 32.5463407627700150 28.6327538495249954
 25.3673817290959498 32.5463407627700150 28.6327538495249954
 22.5488119150759623 32.5463407627700150 28.6327538495249954
 19.7302421010559677 32.5463407627700150 28.6327538495249954
 16.9115877290959595 32.5463407627700150 28.6327538495249954
 -2.8185700849240374 32.5463407627700150 28.6327538495249954
 -5.6371398989440404 32.5463407627700150 28.6327538495249954
 66.2370668424035927 30.1053871743642461 28.6327538495249954
 63.4184970283835838 30.1053871743642461 28.6327538495249954
 60.5998426564235899 30.1053871743642461 28.6327538495249954
 56.3719879150759695 32.5463407627700150 28.6327538495249954
 40.8696848424035863 30.1053871743642461 28.6327538495249954
 35.2324606564235907 30.1053871743642461 28.6327538495249954
 32.4138908424035748 30.1053871743642461 28.6327538495249954
 23.9580968424035810 30.1053871743642461 28.6327538495249954
  7.0465088424035836 30.1053871743642461 28.6327538495249954
  4.2279390283835818 30.1053871743642461 28.6327538495249954
 -4.2278549716164209 30.1053871743642461 28.6327538495249954
 67.6463517697312113 27.6644335859584807 28.6327538495249954
 64.8277819557112025 27.6644335859584807 28.6327538495249954
 53.5533335837512112 27.6644335859584807 28.6327538495249954
 47.9161939557112078 27.6644335859584807 28.6327538495249954
 38.0511150283835775 30.1053871743642461 28.6327538495249954
 42.2789694040103896 71.6020375533019688 28.6327538495249954
