 H  O 
 1.0000000000000000
    84.5579400000000021    0.0000000000000000    0.0000000000000000
   -42.2789706095346958   73.2293399455724767    0.0000000000000000
     0.0000000000000000    0.0000000000000000   46.9039550000000034
 H   O  
 200 336
Cartesian
  2.8185698004749202  1.6273023922705114 28.1128704123049964
 38.0510302401747822 57.7698207603227232 28.1128704123049964
 29.5952362401747777 57.7698207603227232 28.1128704123049964
 -5.6372244027037182 26.0371311936879657 28.1128704123049964
  2.8185695972962814 26.0371311936879657 28.1128704123049964
  9.8650784261547866 57.7698207603227232 28.1128704123049964
 -1.4092853878652121 57.7698207603227232 28.1128704123049964
 -7.0465095738452108 57.7698207603227232 28.1128704123049964
 25.3673817832762829 26.0371311936879657 28.1128704123049964
 36.6417455972962784 26.0371311936879657 28.1128704123049964
 39.4603154113162731 26.0371311936879657 28.1128704123049964
 50.7347637832762715 26.0371311936879657 28.1128704123049964
 -18.3208733878652161 57.7698207603227232 28.1128704123049964
 -26.7766673878652135 57.7698207603227232 28.1128704123049964
 -29.5953217598252145 57.7698207603227232 28.1128704123049964
  7.0465088559486642 28.4780847820937346 28.1128704123049964
 23.9580968559486607 28.4780847820937346 28.1128704123049964
 -32.4138915738452127 57.7698207603227232 28.1128704123049964
 32.4138908559486651 28.4780847820937346 28.1128704123049964
 49.3254788559486528 28.4780847820937346 28.1128704123049964
 52.1440486699686616 28.4780847820937346 28.1128704123049964
 66.2370668559486688 28.4780847820937346 28.1128704123049964
 -14.0930184433389574 30.9190383704995000 28.1128704123049964
 -5.6372244433389582 30.9190383704995000 28.1128704123049964
 22.5487271675023955 55.3288671719169614 28.1128704123049964
 11.2743635566610401 30.9190383704995000 28.1128704123049964
 19.7301573534824009 55.3288671719169614 28.1128704123049964
 19.7301575566610410 30.9190383704995000 28.1128704123049964
 66.2370246176145088 23.5961043759422537 28.1128704123049964
 25.3673817426410437 30.9190383704995000 28.1128704123049964
 -31.0046066871528367 60.2107743487284921 28.1128704123049964
 -22.5488126871528358 60.2107743487284921 28.1128704123049964
 12.6836904785089395 62.6518011664742076 28.1128704123049964
  7.0464662925289359 62.6518011664742076 28.1128704123049964
 12.6836908442297531 18.7141971991307194 28.1128704123049964
 15.5022606582497549 18.7141971991307194 28.1128704123049964
  1.4092421065489333 62.6518011664742076 28.1128704123049964
 18.3208304722697477 18.7141971991307194 28.1128704123049964
 32.4138486582497549 18.7141971991307194 28.1128704123049964
 -9.8651217074710615 62.6518011664742076 28.1128704123049964
 38.0510728442297577 18.7141971991307194 28.1128704123049964
 -15.5023458934510643 62.6518011664742076 28.1128704123049964
 49.3254366582497497 18.7141971991307194 28.1128704123049964
 52.1440064722697443 18.7141971991307194 28.1128704123049964
 -18.3209157074710660 62.6518011664742076 28.1128704123049964
 54.9626608442297453 18.7141971991307194 28.1128704123049964
 -5.6371820830978701 21.1551507875364884 28.1128704123049964
 -0.0000424550578693 21.1551507875364884 28.1128704123049964
 11.2744059169021327 21.1551507875364884 28.1128704123049964
 14.0929757309221344 21.1551507875364884 28.1128704123049964
 -35.2325037074710679 62.6518011664742076 28.1128704123049964
 42.2789694988271592 60.2107743487284921 28.1128704123049964
 25.3673395449421299 21.1551507875364884 28.1128704123049964
 31.0046056848071565 60.2107743487284921 28.1128704123049964
 50.7347215449421185 21.1551507875364884 28.1128704123049964
 59.1905155449421230 21.1551507875364884 28.1128704123049964
 62.0091699169021311 21.1551507875364884 28.1128704123049964
  2.8185693128471621 60.2107743487284921 28.1128704123049964
  7.0464666176145112 23.5961043759422537 28.1128704123049964
 -28.1859523151928357 60.2107743487284921 28.1128704123049964
 70.4649216785679755 16.2731703813850075 28.1128704123049964
 45.0975395566610331 30.9190383704995000 28.1128704123049964
 -11.2744488324975958 55.3288671719169614 28.1128704123049964
 -19.7302427105906588 40.6829991828024689 28.1128704123049964
 43.6882122284558676 48.0059331773597151 28.1128704123049964
  2.8185694753893440 40.6829991828024689 28.1128704123049964
 14.0929332894093395 40.6829991828024689 28.1128704123049964
 35.2324182284558631 48.0059331773597151 28.1128704123049964
 19.7301574753893405 40.6829991828024689 28.1128704123049964
 29.5952786004158739 48.0059331773597151 28.1128704123049964
 33.8231756613693406 40.6829991828024689 28.1128704123049964
 45.0975394753893397 40.6829991828024689 28.1128704123049964
 47.9161092894093343 40.6829991828024689 28.1128704123049964
 50.7347636613693425 40.6829991828024689 28.1128704123049964
  4.2278966004158747 48.0059331773597151 28.1128704123049964
 -7.0465094519382783 43.1239527712082307 28.1128704123049964
 12.6836483620817209 43.1239527712082307 28.1128704123049964
 15.5023027340417219 43.1239527712082307 28.1128704123049964
 18.3208725480617254 43.1239527712082307 28.1128704123049964
 32.4138907340417219 43.1239527712082307 28.1128704123049964
 -18.3209155855641299 48.0059331773597151 28.1128704123049964
 -26.7767095855641273 48.0059331773597151 28.1128704123049964
 56.3719878067141025 45.5649063596139996 28.1128704123049964
 46.5068243620817157 43.1239527712082307 28.1128704123049964
 -8.4557943792659014 45.5649063596139996 28.1128704123049964
 39.4603998067140935 45.5649063596139996 28.1128704123049964
 -5.6372245652458988 45.5649063596139996 28.1128704123049964
  5.6372238067141032 45.5649063596139996 28.1128704123049964
 25.3673816207341005 45.5649063596139996 28.1128704123049964
 16.9115876207341032 45.5649063596139996 28.1128704123049964
 54.9626606004158731 48.0059331773597151 28.1128704123049964
 -8.4557944605375948 55.3288671719169614 28.1128704123049964
 -22.5488125246106605 40.6829991828024689 28.1128704123049964
 49.3254364957075708 38.2419723650567462 28.1128704123049964
 59.1905577426410403 30.9190383704995000 28.1128704123049964
 46.5068665597806330 52.8878403541712458 28.1128704123049964
 -9.8651214636571893 33.3600651882452155 28.1128704123049964
 40.8696423738006303 52.8878403541712458 28.1128704123049964
 -4.2278972776771910 33.3600651882452155 28.1128704123049964
  7.0464665363428152 33.3600651882452155 28.1128704123049964
 29.5952785597806276 52.8878403541712458 28.1128704123049964
 21.1394845597806302 52.8878403541712458 28.1128704123049964
 35.2324183503628063 33.3600651882452155 28.1128704123049964
 40.8696425363428091 33.3600651882452155 28.1128704123049964
  9.8651207457606311 52.8878403541712458 28.1128704123049964
 -7.0464672542393672 52.8878403541712458 28.1128704123049964
 -15.5022612542393716 52.8878403541712458 28.1128704123049964
 63.4184547223228137 33.3600651882452155 28.1128704123049964
 50.7347213011282463 50.4468867657654769 28.1128704123049964
 36.6417876730882455 50.4468867657654769 28.1128704123049964
 16.9115454230351894 35.8010187766509844 28.1128704123049964
 25.3673394230351938 35.8010187766509844 28.1128704123049964
 45.0975817949951860 35.8010187766509844 28.1128704123049964
 53.5533757949951976 35.8010187766509844 28.1128704123049964
 11.2744056730882534 50.4468867657654769 28.1128704123049964
 -15.5022611323324266 38.2419723650567462 28.1128704123049964
  1.4093268676675752 38.2419723650567462 28.1128704123049964
 -0.0000426988717480 50.4468867657654769 28.1128704123049964
 -19.7302005128917450 50.4468867657654769 28.1128704123049964
 29.5952786816875744 38.2419723650567462 28.1128704123049964
 -22.5487703269117468 50.4468867657654769 28.1128704123049964
 60.5998848676675763 38.2419723650567462 28.1128704123049964
 18.3208301065489287 62.6518011664742076 28.1128704123049964
 70.4649639169021356 21.1551507875364884 28.1128704123049964
 59.1905578645479835 16.2731703813850075 28.1128704123049964
 -8.4557945824445344 69.9747351610314468 28.1128704123049964
 67.6463096668490635  6.5092827984219914 28.1128704123049964
 76.1021036668490609  6.5092827984219914 28.1128704123049964
 -4.2278970744985491  8.9502363868277595 28.1128704123049964
  9.8651211114814483  8.9502363868277595 28.1128704123049964
 12.6836909255014501  8.9502363868277595 28.1128704123049964
 15.5022607395214518  8.9502363868277595 28.1128704123049964
 -28.1860369544045355 69.9747351610314468 28.1128704123049964
 -36.6418309544045329 69.9747351610314468 28.1128704123049964
 21.1394844785089369 62.6518011664742076 28.1128704123049964
 43.6882971114814538  8.9502363868277595 28.1128704123049964
 53.5533760388090698  6.5092827984219914 28.1128704123049964
 -39.4604007684245346 69.9747351610314468 28.1128704123049964
 54.9626609255014458  8.9502363868277595 28.1128704123049964
 26.7767086238536862 67.5337083432857384 28.1128704123049964
 63.4184549255014502  8.9502363868277595 28.1128704123049964
  2.8185697192032206 11.3912632045734714 28.1128704123049964
  8.4557939051832172 11.3912632045734714 28.1128704123049964
  9.8651206238536986 67.5337083432857384 28.1128704123049964
 19.7301577192032234 11.3912632045734714 28.1128704123049964
 -7.0464673761463033 67.5337083432857384 28.1128704123049964
 42.2789699051832244 11.3912632045734714 28.1128704123049964
 45.0975397192032190 11.3912632045734714 28.1128704123049964
 -32.4138493761463025 67.5337083432857384 28.1128704123049964
 46.5068669255014484  8.9502363868277595 28.1128704123049964
 50.7347216668490617  6.5092827984219914 28.1128704123049964
  2.8185692315754580 69.9747351610314468 28.1128704123049964
 33.8231336668490670  6.5092827984219914 28.1128704123049964
 29.5952361182678381 72.4156887494372228 28.1128704123049964
  5.6372241724349186  1.6273023922705114 28.1128704123049964
 22.5488121724349213  1.6273023922705114 28.1128704123049964
 31.0046061724349222  1.6273023922705114 28.1128704123049964
 45.0975398004749266  1.6273023922705114 28.1128704123049964
  1.4092843042478451 72.4156887494372228 28.1128704123049964
 56.3719881724349250  1.6273023922705114 28.1128704123049964
 -1.4092855097721566 72.4156887494372228 28.1128704123049964
 62.0091278004749142  1.6273023922705114 28.1128704123049964
 -15.5023036957521541 72.4156887494372228 28.1128704123049964
 78.9207158004749090  1.6273023922705114 28.1128704123049964
 -1.4093272198433096  4.0683292100162243 28.1128704123049964
 -23.9580976957521585 72.4156887494372228 28.1128704123049964
 32.4138487801566981  4.0683292100162243 28.1128704123049964
 -35.2324615097721576 72.4156887494372228 28.1128704123049964
 35.2324185941766927  4.0683292100162243 28.1128704123049964
 -38.0511158817321586 72.4156887494372228 28.1128704123049964
 39.4603150455954648 69.9747351610314468 28.1128704123049964
 71.8742489661366903  4.0683292100162243 28.1128704123049964
 28.1859512315754728 69.9747351610314468 28.1128704123049964
 11.2744060388090670  6.5092827984219914 28.1128704123049964
 14.0929330455954638 69.9747351610314468 28.1128704123049964
 14.0929758528290687  6.5092827984219914 28.1128704123049964
 22.5487698528290750  6.5092827984219914 28.1128704123049964
 31.0045638528290759  6.5092827984219914 28.1128704123049964
 59.1905579051832120 11.3912632045734714 28.1128704123049964
 42.2789271792213057 65.0927547548799765 28.1128704123049964
 32.4138487395214483  8.9502363868277595 28.1128704123049964
 19.7301574347541049 45.5649063596139996 28.1128704123049964
 -1.4092850221444004 13.8322167929792403 28.1128704123049964
 38.0510306058956047 13.8322167929792403 28.1128704123049964
 69.0556367918755996 13.8322167929792403 28.1128704123049964
 19.7301995511813146 65.0927547548799765 28.1128704123049964
 66.2370669778556049 13.8322167929792403 28.1128704123049964
  2.8185696785679806 16.2731703813850075 28.1128704123049964
  1.4092847918756004 13.8322167929792403 28.1128704123049964
  8.4557938645479798 16.2731703813850075 28.1128704123049964
 16.9115878645479825 16.2731703813850075 28.1128704123049964
 -19.7302006347986882 65.0927547548799765 28.1128704123049964
 46.5068246058955950 13.8322167929792403 28.1128704123049964
 36.6417875511813165 65.0927547548799765 28.1128704123049964
 76.1021459051832210 11.3912632045734714 28.1128704123049964
 33.8231758645479843 16.2731703813850075 28.1128704123049964
 70.4649217192032182 11.3912632045734714 28.1128704123049964
 29.5952366058956002 13.8322167929792403 28.1128704123049964
 29.5952784785089271 62.6518011664742076 28.1128704123049964
 23.9580969778556039 13.8322167929792403 28.1128704123049964
 26.7767087728507853 49.6332355696302230 28.6327538495249954
 12.6836905868707941 49.6332355696302230 28.6327538495249954
 53.5534179791490246 47.1922087518845075 28.6327538495249954
 45.0976238572420840 61.8380767409990000 28.6327538495249954
 -36.6417464100096169 71.6020375533019688 28.6327538495249954
 -28.1859523287379155 61.8380767409990000 28.6327538495249954
 -15.5022613490561429 64.2791035587447084 28.6327538495249954
 56.3719877931690334 47.1922087518845075 28.6327538495249954
 -16.9115885147179164 61.8380767409990000 28.6327538495249954
 -23.9580552271492060 49.6332355696302230 28.6327538495249954
 47.9161936712620928 61.8380767409990000 28.6327538495249954
 -18.3209157210161457 64.2791035587447084 28.6327538495249954
 -21.1394854131292078 49.6332355696302230 28.6327538495249954
 38.0510724243286234 69.1610107355562462 28.6327538495249954
  9.8651207728507995 49.6332355696302230 28.6327538495249954
 -14.0929341427579153 61.8380767409990000 28.6327538495249954
 -18.3209155991092061 49.6332355696302230 28.6327538495249954
 -1.4093275991092098 49.6332355696302230 28.6327538495249954
 26.7767086103086172 69.1610107355562462 28.6327538495249954
  4.2278965868707896 49.6332355696302230 28.6327538495249954
  1.4093267728507877 49.6332355696302230 28.6327538495249954
 -19.7301583287379145 61.8380767409990000 28.6327538495249954
 39.4603997931690245 47.1922087518845075 28.6327538495249954
 -22.5488127819696196 71.6020375533019688 28.6327538495249954
 -28.1859524100096195 71.6020375533019688 28.6327538495249954
  5.6372236712620847 61.8380767409990000 28.6327538495249954
  2.8185692180303707 71.6020375533019688 28.6327538495249954
 57.7812727204966521 44.7512551634787386 28.6327538495249954
 11.2743632180303894 71.6020375533019688 28.6327538495249954
 54.9627029064766432 44.7512551634787386 28.6327538495249954
 43.6882545345166520 44.7512551634787386 28.6327538495249954
 31.0046056712620839 61.8380767409990000 28.6327538495249954
 40.8696847204966431 44.7512551634787386 28.6327538495249954
 16.9115874040103833 71.6020375533019688 28.6327538495249954
 38.0511149064766485 44.7512551634787386 28.6327538495249954
 28.1859512180303895 71.6020375533019688 28.6327538495249954
 35.2324605345166475 44.7512551634787386 28.6327538495249954
 16.9115874852820909 61.8380767409990000 28.6327538495249954
 28.1860358572420893 61.8380767409990000 28.6327538495249954
 14.0930175899903762 71.6020375533019688 28.6327538495249954
 -33.8231765959896151 71.6020375533019688 28.6327538495249954
  2.8186538572420905 61.8380767409990000 28.6327538495249954
 -0.0000005959896168 71.6020375533019688 28.6327538495249954
 -25.3673825959896213 71.6020375533019688 28.6327538495249954
 39.4603996712620955 61.8380767409990000 28.6327538495249954
 28.1860359791490147 47.1922087518845075 28.6327538495249954
 33.8231754852820927 61.8380767409990000 28.6327538495249954
 -19.7301584100096186 71.6020375533019688 28.6327538495249954
 22.5488117931690120 47.1922087518845075 28.6327538495249954
 -16.9115883928109767 47.1922087518845075 28.6327538495249954
 -0.0000005147179177 61.8380767409990000 28.6327538495249954
  8.4557936071890190 47.1922087518845075 28.6327538495249954
  5.6372237931690181 47.1922087518845075 28.6327538495249954
 -14.0930187819696204 71.6020375533019688 28.6327538495249954
  2.8186539791490159 47.1922087518845075 28.6327538495249954
 -5.6371400208509774 47.1922087518845075 28.6327538495249954
 -8.4557943928109793 47.1922087518845075 28.6327538495249954
 19.7302419791490244 47.1922087518845075 28.6327538495249954
 12.6836904243286224 69.1610107355562462 28.6327538495249954
 42.2789695259173328 56.9561695641874692 28.6327538495249954
 35.2325027728508005 49.6332355696302230 28.6327538495249954
 21.1394845462355612 54.5151427464417537 28.6327538495249954
 28.1859935376362323 66.7200571471504844 28.6327538495249954
 29.5952784649638616 64.2791035587447084 28.6327538495249954
 -7.0465095873903012 59.3971231525932382 28.6327538495249954
 25.3674237236162377 66.7200571471504844 28.6327538495249954
 23.9581389181955480 54.5151427464417537 28.6327538495249954
 22.5487693516562366 66.7200571471504844 28.6327538495249954
 38.0510725462355595 54.5151427464417537 28.6327538495249954
 -18.3208734014102959 59.3971231525932382 28.6327538495249954
 40.8697269181955534 54.5151427464417537 28.6327538495249954
 14.0929753516562410 66.7200571471504844 28.6327538495249954
 43.6882967322155622 54.5151427464417537 28.6327538495249954
 11.2744055376362251 66.7200571471504844 28.6327538495249954
 -23.9580975873902986 59.3971231525932382 28.6327538495249954
  8.4558357236162376 66.7200571471504844 28.6327538495249954
 -28.1859522881026763 56.9561695641874692 28.6327538495249954
 -26.7766674014102968 59.3971231525932382 28.6327538495249954
 28.1859513399373292 56.9561695641874692 28.6327538495249954
 46.5068664649638706 64.2791035587447084 28.6327538495249954
 19.7301573399373318 56.9561695641874692 28.6327538495249954
 11.2743633399373131 56.9561695641874692 28.6327538495249954
 -36.6417886483437698 66.7200571471504844 28.6327538495249954
 -32.4138915873902960 59.3971231525932382 28.6327538495249954
 -1.4092854014103018 59.3971231525932382 28.6327538495249954
 38.0510724649638732 64.2791035587447084 28.6327538495249954
 -29.5952372154302985 59.3971231525932382 28.6327538495249954
 -8.4557944740826727 56.9561695641874692 28.6327538495249954
 -11.2744066483437688 66.7200571471504844 28.6327538495249954
 -11.2743642881026744 56.9561695641874692 28.6327538495249954
 -8.4557522763837714 66.7200571471504844 28.6327538495249954
 -5.6371824623637705 66.7200571471504844 28.6327538495249954
 -14.0929764623637634 66.7200571471504844 28.6327538495249954
 32.4138484008907994 49.6332355696302230 28.6327538495249954
 36.6417875376362474 66.7200571471504844 28.6327538495249954
 18.3209147322155452 54.5151427464417537 28.6327538495249954
 -33.8231765147179146 61.8380767409990000 28.6327538495249954
 52.1440907728507952 49.6332355696302230 28.6327538495249954
 54.9626605868708040 49.6332355696302230 28.6327538495249954
 -19.7302005264368283 52.0741891580359919 28.6327538495249954
 -7.0464673896913883 69.1610107355562462 28.6327538495249954
 -16.9115461544768308 52.0741891580359919 28.6327538495249954
  1.4093266509438596 64.2791035587447084 28.6327538495249954
  0.0000418455231652 52.0741891580359919 28.6327538495249954
 -9.8650372037113900 69.1610107355562462 28.6327538495249954
  4.2278964649638544 64.2791035587447084 28.6327538495249954
 11.2744056595431719 52.0741891580359919 28.6327538495249954
 19.7301996595431604 52.0741891580359919 28.6327538495249954
 32.4138905985897026 59.3971231525932382 28.6327538495249954
 18.3209146509438554 64.2791035587447084 28.6327538495249954
 29.5953207845697079 59.3971231525932382 28.6327538495249954
 31.0045634735631737 52.0741891580359919 28.6327538495249954
 36.6417876595431693 52.0741891580359919 28.6327538495249954
 21.1394844649638500 64.2791035587447084 28.6327538495249954
 12.6836905462355407 54.5151427464417537 28.6327538495249954
  9.8651207322155532 54.5151427464417537 28.6327538495249954
 -7.0464672677844442 54.5151427464417537 28.6327538495249954
 23.9580967204966342 44.7512551634787386 28.6327538495249954
 -38.0510735756713814 69.1610107355562462 28.6327538495249954
  1.4092844126096999 59.3971231525932382 28.6327538495249954
 -9.8650370818044468 54.5151427464417537 28.6327538495249954
 50.7348058455231694 52.0741891580359919 28.6327538495249954
  9.8650784126096909 59.3971231525932382 28.6327538495249954
 45.0975816595431809 52.0741891580359919 28.6327538495249954
 -26.7766252037113830 69.1610107355562462 28.6327538495249954
 -23.9580553896913813 69.1610107355562462 28.6327538495249954
 39.4603574735631781 52.0741891580359919 28.6327538495249954
  4.2279387845697078 59.3971231525932382 28.6327538495249954
 49.3254364008908013 49.6332355696302230 28.6327538495249954
 -11.2744064045298860 37.4283211689214923 28.6327538495249954
 18.3208725345166314 44.7512551634787386 28.6327538495249954
 60.5998427783305331 15.4595191852497500 28.6327538495249954
 38.0511151502905278 15.4595191852497500 28.6327538495249954
 35.2324607783305126 15.4595191852497500 28.6327538495249954
 32.4138909643105251 15.4595191852497500 28.6327538495249954
  1.4092847783305213 15.4595191852497500 28.6327538495249954
 70.4649217056581421 13.0185655968439828 28.6327538495249954
 67.6463518916381474 13.0185655968439828 28.6327538495249954
 64.8277820776181386 13.0185655968439828 28.6327538495249954
 59.1905578916381430 13.0185655968439828 28.6327538495249954
 45.0975397056581500 13.0185655968439828 28.6327538495249954
 39.4604000776181465 13.0185655968439828 28.6327538495249954
 25.3673818916381357 13.0185655968439828 28.6327538495249954
 22.5488120776181340 13.0185655968439828 28.6327538495249954
  2.8185697056581414 13.0185655968439828 28.6327538495249954
 -0.0000001083618602 13.0185655968439828 28.6327538495249954
 -2.8185699223818586 13.0185655968439828 28.6327538495249954
 77.5114730979363742 10.5775387790982709 28.6327538495249954
 74.6929032839163654 10.5775387790982709 28.6327538495249954
 71.8742489119563714 10.5775387790982709 28.6327538495249954
 60.5998850979363723 10.5775387790982709 28.6327538495249954
 57.7813152839163777 10.5775387790982709 28.6327538495249954
 69.0556367783305234 15.4595191852497500 28.6327538495249954
 71.8742911502905173 15.4595191852497500 28.6327538495249954
 -8.4557941489970982 17.9004727736555189 28.6327538495249954
 -5.6371397770370981 17.9004727736555189 28.6327538495249954
  5.6371817173770493 22.7824531798069998 28.6327538495249954
 -5.6371820966429516 22.7824531798069998 28.6327538495249954
 -8.4557519106629488 22.7824531798069998 28.6327538495249954
 60.5998850166646719 20.3414995914012344 28.6327538495249954
 52.1440910166646745 20.3414995914012344 28.6327538495249954
 49.3254366447046735 20.3414995914012344 28.6327538495249954
 38.0510728306846602 20.3414995914012344 28.6327538495249954
 26.7767090166646753 20.3414995914012344 28.6327538495249954
 23.9580546447046672 20.3414995914012344 28.6327538495249954
 15.5022606447046662 20.3414995914012344 28.6327538495249954
 54.9626609119563767 10.5775387790982709 28.6327538495249954
 12.6836908306846716 20.3414995914012344 28.6327538495249954
 -4.2278971693153311 20.3414995914012344 28.6327538495249954
 53.5534182229629039 17.9004727736555189 28.6327538495249954
 50.7347638510029029 17.9004727736555189 28.6327538495249954
 39.4604000369828896 17.9004727736555189 28.6327538495249954
 36.6418302229629020 17.9004727736555189 28.6327538495249954
 33.8231758510028868 17.9004727736555189 28.6327538495249954
 31.0046060369829029 17.9004727736555189 28.6327538495249954
 16.9115878510028992 17.9004727736555189 28.6327538495249954
 14.0930180369829028 17.9004727736555189 28.6327538495249954
  2.8186542229628988 17.9004727736555189 28.6327538495249954
  9.8651210166646699 20.3414995914012344 28.6327538495249954
 46.5068669119563793 10.5775387790982709 28.6327538495249954
 43.6882970979363634 10.5775387790982709 28.6327538495249954
 40.8697272839163759 10.5775387790982709 28.6327538495249954
 81.7393701588898551  3.2546047845410229 28.6327538495249954
 70.4650063448698489  3.2546047845410229 28.6327538495249954
 62.0092123448698445  3.2546047845410229 28.6327538495249954
 45.0976243448698426  3.2546047845410229 28.6327538495249954
 33.8231759729098371  3.2546047845410229 28.6327538495249954
 31.0046061588898354  3.2546047845410229 28.6327538495249954
 22.5488121588898416  3.2546047845410229 28.6327538495249954
 19.7302423448698399  3.2546047845410229 28.6327538495249954
  2.8186543448698407  3.2546047845410229 28.6327538495249954
 -0.0000000270901599  3.2546047845410229 28.6327538495249954
 -1.4093272333883895  5.6956316022867357 28.6327538495249954
 80.3300852721974650  0.8136511961352557 28.6327538495249954
 63.4184972721974631  0.8136511961352557 28.6327538495249954
 60.5998429002374621  0.8136511961352557 28.6327538495249954
 57.7812730862174604  0.8136511961352557 28.6327538495249954
 46.5069092721974613  0.8136511961352557 28.6327538495249954
 43.6882549002374461  0.8136511961352557 28.6327538495249954
 40.8696850862174585  0.8136511961352557 28.6327538495249954
 23.9580970862174638  0.8136511961352557 28.6327538495249954
 21.1395272721974621  0.8136511961352557 28.6327538495249954
 18.3208729002374611  0.8136511961352557 28.6327538495249954
  4.2279392721974602  0.8136511961352557 28.6327538495249954
 77.5114309002374711  0.8136511961352557 28.6327538495249954
  8.4558360893370512 22.7824531798069998 28.6327538495249954
  9.8651211385716078  5.6956316022867357 28.6327538495249954
 32.4138487666116077  5.6956316022867357 28.6327538495249954
 26.7767090979363651 10.5775387790982709 28.6327538495249954
 23.9581392839163634 10.5775387790982709 28.6327538495249954
 21.1394849119563659 10.5775387790982709 28.6327538495249954
 18.3209150979363713 10.5775387790982709 28.6327538495249954
  9.8651210979363722 10.5775387790982709 28.6327538495249954
  7.0465512839163686 10.5775387790982709 28.6327538495249954
  4.2278969119563712 10.5775387790982709 28.6327538495249954
 78.9207580252639929  8.1365851906925037 28.6327538495249954
 76.1021882112439840  8.1365851906925037 28.6327538495249954
 59.1906002112439964  8.1365851906925037 28.6327538495249954
 12.6836909525916113  5.6956316022867357 28.6327538495249954
 56.3719458392839954  8.1365851906925037 28.6327538495249954
 45.0975820252639821  8.1365851906925037 28.6327538495249954
 39.4603578392839793  8.1365851906925037 28.6327538495249954
 31.0045638392839891  8.1365851906925037 28.6327538495249954
 28.1859940252639873  8.1365851906925037 28.6327538495249954
 14.0929758392839890  8.1365851906925037 28.6327538495249954
 11.2744060252639908  8.1365851906925037 28.6327538495249954
 66.2370247666116256  5.6956316022867357 28.6327538495249954
 63.4184549525916097  5.6956316022867357 28.6327538495249954
 52.1440911385716035  5.6956316022867357 28.6327538495249954
 35.2325031385716159  5.6956316022867357 28.6327538495249954
 53.5533760252639937  8.1365851906925037 28.6327538495249954
 11.2744059033570529 22.7824531798069998 28.6327538495249954
 22.5487697173770485 22.7824531798069998 28.6327538495249954
 25.3674240893370566 22.7824531798069998 28.6327538495249954
 -21.1394853318575109 39.8692747573272612 28.6327538495249954
 53.5533757814501215 37.4283211689214923 28.6327538495249954
 45.0975817814501099 37.4283211689214923 28.6327538495249954
 33.8232179674301037 37.4283211689214923 28.6327538495249954
 31.0045635954701204 37.4283211689214923 28.6327538495249954
 28.1859937814501045 37.4283211689214923 28.6327538495249954
 25.3674239674301170 37.4283211689214923 28.6327538495249954
  5.6371815954701097 37.4283211689214923 28.6327538495249954
  2.8186117814501150 37.4283211689214923 28.6327538495249954
  0.0000419674301133 37.4283211689214923 28.6327538495249954
 -18.3208309598975099 39.8692747573272612 28.6327538495249954
 31.0046055899903834 71.6020375533019688 28.6327538495249954
 -16.9115460325698876 37.4283211689214923 28.6327538495249954
 43.6882968947577410 34.9873675805157234 28.6327538495249954
 35.2325028947577295 34.9873675805157234 28.6327538495249954
 18.3209148947577418 34.9873675805157234 28.6327538495249954
 15.5022605227977337 34.9873675805157234 28.6327538495249954
 12.6836907087777320 34.9873675805157234 28.6327538495249954
  4.2278967087777302 34.9873675805157234 28.6327538495249954
  1.4093268947577322 34.9873675805157234 28.6327538495249954
 -7.0464671052422672 34.9873675805157234 28.6327538495249954
 -9.8651214772022673 34.9873675805157234 28.6327538495249954
 -14.0929762185498877 37.4283211689214923 28.6327538495249954
 -12.6836912912222672 34.9873675805157234 28.6327538495249954
 -15.5022611458775117 39.8692747573272612 28.6327538495249954
 18.3209148541224920 39.8692747573272612 28.6327538495249954
  9.8650785345166412 44.7512551634787386 28.6327538495249954
  7.0465087204966403 44.7512551634787386 28.6327538495249954
 -4.2278550935233552 44.7512551634787386 28.6327538495249954
 -7.0465094654833562 44.7512551634787386 28.6327538495249954
 -9.8650792795033553 44.7512551634787386 28.6327538495249954
 56.3719878338042619 42.3103015750729767 28.6327538495249954
 53.5533334618442680 42.3103015750729767 28.6327538495249954
 45.0975394618442706 42.3103015750729767 28.6327538495249954
 42.2789696478242618 42.3103015750729767 28.6327538495249954
 36.6417454618442662 42.3103015750729767 28.6327538495249954
  1.4093268541224926 39.8692747573272612 28.6327538495249954
 33.8231756478242644 42.3103015750729767 28.6327538495249954
 14.0930178338042680 42.3103015750729767 28.6327538495249954
 -5.6372245381557384 42.3103015750729767 28.6327538495249954
 -8.4557943521757366 42.3103015750729767 28.6327538495249954
 -19.7301581661957393 42.3103015750729767 28.6327538495249954
 60.5998848541225001 39.8692747573272612 28.6327538495249954
 52.1440908541225028 39.8692747573272612 28.6327538495249954
 49.3255210401024939 39.8692747573272612 28.6327538495249954
 46.5068666681425000 39.8692747573272612 28.6327538495249954
 32.4139330401024850 39.8692747573272612 28.6327538495249954
 29.5952786681424982 39.8692747573272612 28.6327538495249954
 16.9115876478242626 42.3103015750729767 28.6327538495249954
 21.1395269064766467 44.7512551634787386 28.6327538495249954
 62.0092121010559580 32.5463407627700150 28.6327538495249954
 56.3719879150759695 32.5463407627700150 28.6327538495249954
 28.1859515837511907 27.6644335859584807 28.6327538495249954
 25.3673817697312032 27.6644335859584807 28.6327538495249954
  5.6372239557112023 27.6644335859584807 28.6327538495249954
 -5.6372244162487979 27.6644335859584807 28.6327538495249954
 69.0556789760294407 25.2234067682127652 28.6327538495249954
 66.2371091620094319 25.2234067682127652 28.6327538495249954
 38.0510727900494388 25.2234067682127652 28.6327538495249954
 26.7767089760294326 25.2234067682127652 28.6327538495249954
 23.9581391620094379 25.2234067682127652 28.6327538495249954
  7.0465511620094325 25.2234067682127652 28.6327538495249954
 33.8231757697311934 27.6644335859584807 28.6327538495249954
  4.2278967900494315 25.2234067682127652 28.6327538495249954
 -4.2278972099505676 25.2234067682127652 28.6327538495249954
 -7.0464670239705693 25.2234067682127652 28.6327538495249954
 70.4649639033570594 22.7824531798069998 28.6327538495249954
 67.6463940893370506 22.7824531798069998 28.6327538495249954
 64.8277397173770566 22.7824531798069998 28.6327538495249954
 62.0091699033570620 22.7824531798069998 28.6327538495249954
 59.1906000893370532 22.7824531798069998 28.6327538495249954
 45.0975819033570531 22.7824531798069998 28.6327538495249954
 42.2790120893370442 22.7824531798069998 28.6327538495249954
 39.4603577173770574 22.7824531798069998 28.6327538495249954
  1.4093269760294336 25.2234067682127652 28.6327538495249954
 59.1905577290959641 32.5463407627700150 28.6327538495249954
 50.7347637697312024 27.6644335859584807 28.6327538495249954
 -4.2278549716164209 30.1053871743642461 28.6327538495249954
 45.0976241010559633 32.5463407627700150 28.6327538495249954
 42.2789697290959623 32.5463407627700150 28.6327538495249954
 39.4603999150759606 32.5463407627700150 28.6327538495249954
 36.6418301010559517 32.5463407627700150 28.6327538495249954
 19.7302421010559677 32.5463407627700150 28.6327538495249954
 16.9115877290959595 32.5463407627700150 28.6327538495249954
 14.0930179150759578 32.5463407627700150 28.6327538495249954
 11.2744481010559561 32.5463407627700150 28.6327538495249954
  8.4557937290959586 32.5463407627700150 28.6327538495249954
 -5.6371398989440404 32.5463407627700150 28.6327538495249954
 53.5533335837512112 27.6644335859584807 28.6327538495249954
 -8.4557942709040379 32.5463407627700150 28.6327538495249954
 60.5998426564235899 30.1053871743642461 28.6327538495249954
 57.7812728424035953 30.1053871743642461 28.6327538495249954
 54.9627030283835865 30.1053871743642461 28.6327538495249954
 46.5069090283835891 30.1053871743642461 28.6327538495249954
 43.6882546564235881 30.1053871743642461 28.6327538495249954
 32.4138908424035748 30.1053871743642461 28.6327538495249954
 26.7766666564235685 30.1053871743642461 28.6327538495249954
 23.9580968424035810 30.1053871743642461 28.6327538495249954
 15.5023028424035783 30.1053871743642461 28.6327538495249954
  9.8650786564235791 30.1053871743642461 28.6327538495249954
 -14.0929338989440378 32.5463407627700150 28.6327538495249954
 33.8231754040103922 71.6020375533019688 28.6327538495249954
