 H  O 
 1.0000000000000000
    84.5579400000000021    0.0000000000000000    0.0000000000000000
   -42.2789706095346958   73.2293399455724767    0.0000000000000000
     0.0000000000000000    0.0000000000000000   46.9039550000000034
 H   O  
 207 353
Cartesian
 11.2743638004749194  1.6273023922705114 28.1128704123049964
 22.5487274113162819 26.0371311936879657 28.1128704123049964
 21.1394422401747804 57.7698207603227232 28.1128704123049964
 25.3673817832762829 26.0371311936879657 28.1128704123049964
 12.6836482401747883 57.7698207603227232 28.1128704123049964
 42.2789697832762812 26.0371311936879657 28.1128704123049964
  7.0465086121347857 57.7698207603227232 28.1128704123049964
 50.7347637832762715 26.0371311936879657 28.1128704123049964
  4.2278542401747847 57.7698207603227232 28.1128704123049964
 59.1905577832762830 26.0371311936879657 28.1128704123049964
 -15.5023035738452162 57.7698207603227232 28.1128704123049964
 -9.8650791440513395 28.4780847820937346 28.1128704123049964
 -1.4092851440513405 28.4780847820937346 28.1128704123049964
 -18.3208733878652161 57.7698207603227232 28.1128704123049964
 19.7301575972962873 26.0371311936879657 28.1128704123049964
  4.2278544839886631 28.4780847820937346 28.1128704123049964
 18.3208726699686650 28.4780847820937346 28.1128704123049964
 -29.5953217598252145 57.7698207603227232 28.1128704123049964
 32.4138908559486651 28.4780847820937346 28.1128704123049964
 50.7347635394624064 55.3288671719169614 28.1128704123049964
 47.9161091675023982 55.3288671719169614 28.1128704123049964
 60.5998426699686590 28.4780847820937346 28.1128704123049964
 36.6417453534824062 55.3288671719169614 28.1128704123049964
 -16.9115882573589573 30.9190383704995000 28.1128704123049964
 25.3673815394624036 55.3288671719169614 28.1128704123049964
 22.5487271675023955 55.3288671719169614 28.1128704123049964
 14.0930179286210446 30.9190383704995000 28.1128704123049964
 16.9115875394624062 55.3288671719169614 28.1128704123049964
 33.8231757426410411 30.9190383704995000 28.1128704123049964
 -21.1395277598252136 57.7698207603227232 28.1128704123049964
 -0.0000004605375943 55.3288671719169614 28.1128704123049964
 23.9580966121347885 57.7698207603227232 28.1128704123049964
 63.4184548035945070 23.5961043759422537 28.1128704123049964
 32.4138482925289324 62.6518011664742076 28.1128704123049964
 62.0091276785679781 16.2731703813850075 28.1128704123049964
 70.4649216785679755 16.2731703813850075 28.1128704123049964
 12.6836904785089395 62.6518011664742076 28.1128704123049964
  1.4092424722697507 18.7141971991307194 28.1128704123049964
 -7.0465518934510678 62.6518011664742076 28.1128704123049964
 -18.3209157074710660 62.6518011664742076 28.1128704123049964
 38.0510728442297577 18.7141971991307194 28.1128704123049964
 47.9161936848071619 60.2107743487284921 28.1128704123049964
 60.5998004722697488 18.7141971991307194 28.1128704123049964
 42.2789694988271592 60.2107743487284921 28.1128704123049964
 -11.2744062690778684 21.1551507875364884 28.1128704123049964
 -0.0000424550578693 21.1551507875364884 28.1128704123049964
 69.0556789895745169 23.5961043759422537 28.1128704123049964
  2.8186119169021282 21.1551507875364884 28.1128704123049964
 33.8231335449421309 21.1551507875364884 28.1128704123049964
 42.2789275449421211 21.1551507875364884 28.1128704123049964
 53.5533759169021195 21.1551507875364884 28.1128704123049964
  5.6372236848071626 60.2107743487284921 28.1128704123049964
 -7.0464670104254905 23.5961043759422537 28.1128704123049964
 -1.4093273823854895 23.5961043759422537 28.1128704123049964
  7.0464666176145112 23.5961043759422537 28.1128704123049964
  9.8651209895745122 23.5961043759422537 28.1128704123049964
 18.3209149895745149 23.5961043759422537 28.1128704123049964
 -11.2743643151928357 60.2107743487284921 28.1128704123049964
 23.9580546176145113 23.5961043759422537 28.1128704123049964
 26.7767089895745123 23.5961043759422537 28.1128704123049964
 -25.3673825011728376 60.2107743487284921 28.1128704123049964
 19.7301573128471581 60.2107743487284921 28.1128704123049964
 53.5533336785679737 16.2731703813850075 28.1128704123049964
 42.2789697426410385 30.9190383704995000 28.1128704123049964
 -11.2744488324975958 55.3288671719169614 28.1128704123049964
 40.8696424144358730 48.0059331773597151 28.1128704123049964
 -22.5488125246106605 40.6829991828024689 28.1128704123049964
 -11.2744487105906597 40.6829991828024689 28.1128704123049964
 35.2324182284558631 48.0059331773597151 28.1128704123049964
 -8.4557943386306622 40.6829991828024689 28.1128704123049964
 -0.0000003386306579 40.6829991828024689 28.1128704123049964
 23.9580544144358711 48.0059331773597151 28.1128704123049964
  5.6371392894093386 40.6829991828024689 28.1128704123049964
 18.3208302284558755 48.0059331773597151 28.1128704123049964
 36.6417454753893352 40.6829991828024689 28.1128704123049964
 50.7347636613693425 40.6829991828024689 28.1128704123049964
 -9.8650792659582809 43.1239527712082307 28.1128704123049964
 -4.2278973995841262 48.0059331773597151 28.1128704123049964
 52.1440908676675789 38.2419723650567462 28.1128704123049964
 -7.0465094519382783 43.1239527712082307 28.1128704123049964
 -7.0465517715441273 48.0059331773597151 28.1128704123049964
 23.9580967340417281 43.1239527712082307 28.1128704123049964
 40.8696847340417122 43.1239527712082307 28.1128704123049964
 -21.1394853995841281 48.0059331773597151 28.1128704123049964
 49.3254787340417238 43.1239527712082307 28.1128704123049964
 52.1440485480617184 43.1239527712082307 28.1128704123049964
 57.7812727340417212 43.1239527712082307 28.1128704123049964
 -16.9115883792659005 45.5649063596139996 28.1128704123049964
 -5.6372245652458988 45.5649063596139996 28.1128704123049964
 28.1859514347540951 45.5649063596139996 28.1128704123049964
 -2.8185701932858982 45.5649063596139996 28.1128704123049964
  2.8185694347540982 45.5649063596139996 28.1128704123049964
 11.2743634347540986 45.5649063596139996 28.1128704123049964
  9.8650785480617262 43.1239527712082307 28.1128704123049964
 -5.6372246465175939 55.3288671719169614 28.1128704123049964
 49.3254364957075708 38.2419723650567462 28.1128704123049964
 -28.1859945128917460 50.4468867657654769 28.1128704123049964
 50.7347637426410429 30.9190383704995000 28.1128704123049964
 -14.0930186465175975 55.3288671719169614 28.1128704123049964
 -9.8651214636571893 33.3600651882452155 28.1128704123049964
 -16.9115884605376010 55.3288671719169614 28.1128704123049964
 -4.2278972776771910 33.3600651882452155 28.1128704123049964
 52.1440907457606357 52.8878403541712458 28.1128704123049964
  9.8650363503628089 33.3600651882452155 28.1128704123049964
 40.8696423738006303 52.8878403541712458 28.1128704123049964
 29.5952787223228171 33.3600651882452155 28.1128704123049964
 32.4138485363428117 33.3600651882452155 28.1128704123049964
 32.4138483738006258 52.8878403541712458 28.1128704123049964
 57.7812305363428109 33.3600651882452155 28.1128704123049964
  7.0464663738006301 52.8878403541712458 28.1128704123049964
 40.8696424957075664 38.2419723650567462 28.1128704123049964
 -16.9116305769648072 35.8010187766509844 28.1128704123049964
  8.4557514230351885 35.8010187766509844 28.1128704123049964
 -15.5022612542393716 52.8878403541712458 28.1128704123049964
 14.0929756090151947 35.8010187766509844 28.1128704123049964
 25.3673394230351938 35.8010187766509844 28.1128704123049964
 -18.3209156261993691 52.8878403541712458 28.1128704123049964
 31.0045636090151895 35.8010187766509844 28.1128704123049964
 45.0975817949951860 35.8010187766509844 28.1128704123049964
 50.7347214230351895 35.8010187766509844 28.1128704123049964
 62.0091697949951950 35.8010187766509844 28.1128704123049964
 40.8696844902278471 72.4156887494372228 28.1128704123049964
  2.8186116730882564 50.4468867657654769 28.1128704123049964
 -11.2744065128917477 50.4468867657654769 28.1128704123049964
 21.1394846816875770 38.2419723650567462 28.1128704123049964
 -0.0000425769648080 35.8010187766509844 28.1128704123049964
 50.7347638645479790 16.2731703813850075 28.1128704123049964
 -5.6372246871528393 60.2107743487284921 28.1128704123049964
 35.2325026238536978 67.5337083432857384 28.1128704123049964
 50.7347216668490617  6.5092827984219914 28.1128704123049964
 62.0091700388090601  6.5092827984219914 28.1128704123049964
 -2.8186549544045376 69.9747351610314468 28.1128704123049964
 -4.2278970744985491  8.9502363868277595 28.1128704123049964
 -25.3673825824445345 69.9747351610314468 28.1128704123049964
  1.4093271114814494  8.9502363868277595 28.1128704123049964
 -36.6418309544045329 69.9747351610314468 28.1128704123049964
 12.6836909255014501  8.9502363868277595 28.1128704123049964
 32.4138487395214483  8.9502363868277595 28.1128704123049964
 35.2325031114814493  8.9502363868277595 28.1128704123049964
 29.5952784378736951 67.5337083432857384 28.1128704123049964
 43.6882971114814538  8.9502363868277595 28.1128704123049964
 23.9580542518936852 67.5337083432857384 28.1128704123049964
 15.5022602518936878 67.5337083432857384 28.1128704123049964
  1.4093266238536943 67.5337083432857384 28.1128704123049964
 14.0929335332232206 11.3912632045734714 28.1128704123049964
 16.9115879051832216 11.3912632045734714 28.1128704123049964
 22.5487275332232180 11.3912632045734714 28.1128704123049964
 31.0045215332232189 11.3912632045734714 28.1128704123049964
 33.8231759051832199 11.3912632045734714 28.1128704123049964
 -12.6836915621263024 67.5337083432857384 28.1128704123049964
 42.2789699051832244 11.3912632045734714 28.1128704123049964
 -21.1394855621263069 67.5337083432857384 28.1128704123049964
 53.5533337192032164 11.3912632045734714 28.1128704123049964
 67.6463519051832236 11.3912632045734714 28.1128704123049964
 42.2789276668490714  6.5092827984219914 28.1128704123049964
 39.4603578528290697  6.5092827984219914 28.1128704123049964
 31.0045638528290759  6.5092827984219914 28.1128704123049964
 22.5487698528290750  6.5092827984219914 28.1128704123049964
 14.0930181724349168  1.6273023922705114 28.1128704123049964
 29.5952361182678381 72.4156887494372228 28.1128704123049964
 18.3208723042478390 72.4156887494372228 28.1128704123049964
 42.2789699864549249  1.6273023922705114 28.1128704123049964
 12.6836481182678362 72.4156887494372228 28.1128704123049964
 50.7347639864549222  1.6273023922705114 28.1128704123049964
 62.0091278004749142  1.6273023922705114 28.1128704123049964
 76.1021459864549144  1.6273023922705114 28.1128704123049964
 78.9207158004749090  1.6273023922705114 28.1128704123049964
  1.4092425941766900  4.0683292100162243 28.1128704123049964
  4.2278541182678469 72.4156887494372228 28.1128704123049964
  7.0464667801566900  4.0683292100162243 28.1128704123049964
 -4.2279393941043990 13.8322167929792403 28.1128704123049964
 26.7766245941766883  4.0683292100162243 28.1128704123049964
 -23.9580976957521585 72.4156887494372228 28.1128704123049964
 -26.7766675097721567 72.4156887494372228 28.1128704123049964
 57.7812307801566902  4.0683292100162243 28.1128704123049964
 60.5998005941766849  4.0683292100162243 28.1128704123049964
 63.4184549661366859  4.0683292100162243 28.1128704123049964
 66.2370247801566876  4.0683292100162243 28.1128704123049964
 -29.5953218817321577 72.4156887494372228 28.1128704123049964
 71.8742489661366903  4.0683292100162243 28.1128704123049964
 74.6928187801566850  4.0683292100162243 28.1128704123049964
 77.5113885941766796  4.0683292100162243 28.1128704123049964
  5.6371818528290705  6.5092827984219914 28.1128704123049964
 22.5487270455954629 69.9747351610314468 28.1128704123049964
 -12.6837338817321594 72.4156887494372228 28.1128704123049964
 -35.2325037481063035 67.5337083432857384 28.1128704123049964
 14.0930178067140996 45.5649063596139996 28.1128704123049964
 69.0556367918755996 13.8322167929792403 28.1128704123049964
 -25.3674248207786874 65.0927547548799765 28.1128704123049964
 71.8742066058955942 13.8322167929792403 28.1128704123049964
 -5.6371824488186855 65.0927547548799765 28.1128704123049964
 39.4603573652013111 65.0927547548799765 28.1128704123049964
 -8.4557941354520185 16.2731703813850075 28.1128704123049964
 -38.0510735621263052 67.5337083432857384 28.1128704123049964
 57.7812729778555934 13.8322167929792403 28.1128704123049964
 66.2370669778556049 13.8322167929792403 28.1128704123049964
 -33.8232188207786848 65.0927547548799765 28.1128704123049964
 32.4138909778556012 13.8322167929792403 28.1128704123049964
 19.7301576785679771 16.2731703813850075 28.1128704123049964
 12.6836486058956019 13.8322167929792403 28.1128704123049964
  5.6371813652013136 65.0927547548799765 28.1128704123049964
 25.3673818645479834 16.2731703813850075 28.1128704123049964
 52.1440487918755977 13.8322167929792403 28.1128704123049964
  1.4092847918756004 13.8322167929792403 28.1128704123049964
 -36.6417886347986865 65.0927547548799765 28.1128704123049964
 42.2789698645479817 16.2731703813850075 28.1128704123049964
 16.9115451792213065 65.0927547548799765 28.1128704123049964
 -18.3209155991092061 49.6332355696302230 28.6327538495249954
 -28.1859524100096195 71.6020375533019688 28.6327538495249954
 42.2789696071890333 47.1922087518845075 28.6327538495249954
 50.7347636071890307 47.1922087518845075 28.6327538495249954
 -25.3673825147179137 61.8380767409990000 28.6327538495249954
 -26.7767095991092070 49.6332355696302230 28.6327538495249954
 -28.1859523287379155 61.8380767409990000 28.6327538495249954
 49.3254785985897115 59.3971231525932382 28.6327538495249954
  4.2278965868707896 49.6332355696302230 28.6327538495249954
 -15.5022612271492086 49.6332355696302230 28.6327538495249954
 -4.2278975350361501 64.2791035587447084 28.6327538495249954
 26.7767086103086172 69.1610107355562462 28.6327538495249954
 35.2325027728508005 49.6332355696302230 28.6327538495249954
 32.4139327962886199 69.1610107355562462 28.6327538495249954
 23.9580544008907985 49.6332355696302230 28.6327538495249954
 18.3209147728507951 49.6332355696302230 28.6327538495249954
 -31.0046067819696169 71.6020375533019688 28.6327538495249954
 35.2325026103086287 69.1610107355562462 28.6327538495249954
 15.5022604008907816 49.6332355696302230 28.6327538495249954
  7.0464664008907913 49.6332355696302230 28.6327538495249954
 -22.5487281427579163 61.8380767409990000 28.6327538495249954
 43.6882966103086261 69.1610107355562462 28.6327538495249954
  1.4093267728507877 49.6332355696302230 28.6327538495249954
 40.8696845985897141 59.3971231525932382 28.6327538495249954
 35.2324604126097114 59.3971231525932382 28.6327538495249954
 -25.3673825959896213 71.6020375533019688 28.6327538495249954
 33.8231755259173212 56.9561695641874692 28.6327538495249954
 25.3673816071890279 47.1922087518845075 28.6327538495249954
 -26.7767097210161431 64.2791035587447084 28.6327538495249954
  8.4557934040103735 71.6020375533019688 28.6327538495249954
 -22.5487280208509766 47.1922087518845075 28.6327538495249954
 14.0930176712620749 61.8380767409990000 28.6327538495249954
 57.7812727204966521 44.7512551634787386 28.6327538495249954
 54.9627029064766432 44.7512551634787386 28.6327538495249954
 11.2744478572420874 61.8380767409990000 28.6327538495249954
 43.6882545345166520 44.7512551634787386 28.6327538495249954
 40.8696847204966431 44.7512551634787386 28.6327538495249954
 32.4138907204966458 44.7512551634787386 28.6327538495249954
 29.5953209064766369 44.7512551634787386 28.6327538495249954
 22.5488115899903860 71.6020375533019688 28.6327538495249954
 26.7766665345166501 44.7512551634787386 28.6327538495249954
 39.4603995899903808 71.6020375533019688 28.6327538495249954
 16.9115874852820909 61.8380767409990000 28.6327538495249954
 -16.9115883928109767 47.1922087518845075 28.6327538495249954
  5.6372235899903860 71.6020375533019688 28.6327538495249954
  8.4557934852820722 61.8380767409990000 28.6327538495249954
 -14.0930187819696204 71.6020375533019688 28.6327538495249954
 -19.7301583287379145 61.8380767409990000 28.6327538495249954
 22.5488117931690120 47.1922087518845075 28.6327538495249954
 -28.1859945264368292 52.0741891580359919 28.6327538495249954
 -23.9580553490561456 64.2791035587447084 28.6327538495249954
 -11.2743644100096230 71.6020375533019688 28.6327538495249954
 16.9115876071890092 47.1922087518845075 28.6327538495249954
 14.0930177931690217 47.1922087518845075 28.6327538495249954
  5.6372237931690181 47.1922087518845075 28.6327538495249954
 -2.8185704100096114 71.6020375533019688 28.6327538495249954
 -0.0000003928109814 47.1922087518845075 28.6327538495249954
 -2.8185702068309761 47.1922087518845075 28.6327538495249954
 -0.0000005959896168 71.6020375533019688 28.6327538495249954
 -5.6371401427579215 61.8380767409990000 28.6327538495249954
 -5.6371400208509774 47.1922087518845075 28.6327538495249954
 -7.0464673490561447 64.2791035587447084 28.6327538495249954
 19.7302419791490244 47.1922087518845075 28.6327538495249954
 -14.0929763404568273 52.0741891580359919 28.6327538495249954
 -16.9115461544768308 52.0741891580359919 28.6327538495249954
 -7.0465095873903012 59.3971231525932382 28.6327538495249954
 -25.3673824740826745 56.9561695641874692 28.6327538495249954
  5.6371813516562215 66.7200571471504844 28.6327538495249954
 -28.1859522881026763 56.9561695641874692 28.6327538495249954
 14.0929753516562410 66.7200571471504844 28.6327538495249954
 52.1440907322155596 54.5151427464417537 28.6327538495249954
 35.2325026509438644 64.2791035587447084 28.6327538495249954
 32.4138482789838704 64.2791035587447084 28.6327538495249954
 49.3255209181955507 54.5151427464417537 28.6327538495249954
 23.9580967204966342 44.7512551634787386 28.6327538495249954
 40.8697269181955534 54.5151427464417537 28.6327538495249954
 25.3674237236162377 66.7200571471504844 28.6327538495249954
 28.1859935376362323 66.7200571471504844 28.6327538495249954
 35.2325027322155506 54.5151427464417537 28.6327538495249954
 19.7301995376362349 66.7200571471504844 28.6327538495249954
  0.0000417236162395 66.7200571471504844 28.6327538495249954
 40.8696422789838678 64.2791035587447084 28.6327538495249954
 -16.9115884740826736 56.9561695641874692 28.6327538495249954
 25.3673815259173274 56.9561695641874692 28.6327538495249954
 47.9161937118973214 56.9561695641874692 28.6327538495249954
 50.7347635259173302 56.9561695641874692 28.6327538495249954
 22.5488117118973186 56.9561695641874692 28.6327538495249954
 -26.7766674014102968 59.3971231525932382 28.6327538495249954
 -33.8231342763837688 66.7200571471504844 28.6327538495249954
 19.7301573399373318 56.9561695641874692 28.6327538495249954
 -36.6417886483437698 66.7200571471504844 28.6327538495249954
 -14.0929764623637634 66.7200571471504844 28.6327538495249954
  5.6372237118973310 56.9561695641874692 28.6327538495249954
 -23.9580975873902986 59.3971231525932382 28.6327538495249954
 -21.1394432154303011 59.3971231525932382 28.6327538495249954
 -11.2744066483437688 66.7200571471504844 28.6327538495249954
  2.8185693399373224 56.9561695641874692 28.6327538495249954
 -5.6372246600626781 56.9561695641874692 28.6327538495249954
 32.4139329181955560 54.5151427464417537 28.6327538495249954
 23.9581387962886225 69.1610107355562462 28.6327538495249954
 26.7767087322155568 54.5151427464417537 28.6327538495249954
 29.5952784649638616 64.2791035587447084 28.6327538495249954
 12.6836904649638509 64.2791035587447084 28.6327538495249954
 18.3208724126097096 59.3971231525932382 28.6327538495249954
 33.8232178455231747 52.0741891580359919 28.6327538495249954
 -1.4092432037113782 69.1610107355562462 28.6327538495249954
  1.4093266103086164 69.1610107355562462 28.6327538495249954
 31.0045634735631737 52.0741891580359919 28.6327538495249954
 42.2790118455231720 52.0741891580359919 28.6327538495249954
  5.6371814735631682 52.0741891580359919 28.6327538495249954
  2.8186116595431669 52.0741891580359919 28.6327538495249954
 -5.6371823404568273 52.0741891580359919 28.6327538495249954
 21.1395267845696964 59.3971231525932382 28.6327538495249954
 39.4603997118973240 56.9561695641874692 28.6327538495249954
 21.1394844243286215 69.1610107355562462 28.6327538495249954
 32.4138905985897026 59.3971231525932382 28.6327538495249954
 18.3209146103086198 69.1610107355562462 28.6327538495249954
 -4.2278975756713866 69.1610107355562462 28.6327538495249954
 47.9161514735631755 52.0741891580359919 28.6327538495249954
 50.7348058455231694 52.0741891580359919 28.6327538495249954
 31.0045633516562411 66.7200571471504844 28.6327538495249954
  4.2279387845697078 59.3971231525932382 28.6327538495249954
  7.0465509181955595 54.5151427464417537 28.6327538495249954
  4.2278965462355513 54.5151427464417537 28.6327538495249954
 33.8232177236162386 66.7200571471504844 28.6327538495249954
 42.2789694852820901 61.8380767409990000 28.6327538495249954
 -38.0510735756713814 69.1610107355562462 28.6327538495249954
  7.0465085985897025 59.3971231525932382 28.6327538495249954
 -12.6836914537644478 54.5151427464417537 28.6327538495249954
 15.5022602789838597 64.2791035587447084 28.6327538495249954
 -15.5022612677844460 54.5151427464417537 28.6327538495249954
 -21.1394855756713831 69.1610107355562462 28.6327538495249954
 15.5023025985896936 59.3971231525932382 28.6327538495249954
 -15.5022613896913821 69.1610107355562462 28.6327538495249954
 -12.6836915756713875 69.1610107355562462 28.6327538495249954
 -4.2278552154303037 59.3971231525932382 28.6327538495249954
 33.8231754852820927 61.8380767409990000 28.6327538495249954
 -19.7302004045298887 37.4283211689214923 28.6327538495249954
 12.6837329064766493 44.7512551634787386 28.6327538495249954
 52.1440487783305286 15.4595191852497500 28.6327538495249954
 43.6882547783305313 15.4595191852497500 28.6327538495249954
 26.7766667783305188 15.4595191852497500 28.6327538495249954
 23.9580969643105171 15.4595191852497500 28.6327538495249954
 21.1395271502905153 15.4595191852497500 28.6327538495249954
  9.8650787783305205 15.4595191852497500 28.6327538495249954
  7.0465089643105223 15.4595191852497500 28.6327538495249954
  1.4092847783305213 15.4595191852497500 28.6327538495249954
 73.2835760776181360 13.0185655968439828 28.6327538495249954
 70.4649217056581421 13.0185655968439828 28.6327538495249954
 67.6463518916381474 13.0185655968439828 28.6327538495249954
 56.3719880776181483 13.0185655968439828 28.6327538495249954
 53.5533337056581473 13.0185655968439828 28.6327538495249954
 50.7347638916381456 13.0185655968439828 28.6327538495249954
 42.2789698916381340 13.0185655968439828 28.6327538495249954
 31.0046060776181456 13.0185655968439828 28.6327538495249954
 28.1859517056581375 13.0185655968439828 28.6327538495249954
 22.5488120776181340 13.0185655968439828 28.6327538495249954
 16.9115878916381419 13.0185655968439828 28.6327538495249954
 14.0930180776181420 13.0185655968439828 28.6327538495249954
 11.2743637056581409 13.0185655968439828 28.6327538495249954
 -0.0000001083618602 13.0185655968439828 28.6327538495249954
 52.1440910979363750 10.5775387790982709 28.6327538495249954
 60.5998427783305331 15.4595191852497500 28.6327538495249954
 43.6882970979363634 10.5775387790982709 28.6327538495249954
 63.4184971502905270 15.4595191852497500 28.6327538495249954
 74.6928609643105261 15.4595191852497500 28.6327538495249954
  0.0000420893370479 22.7824531798069998 28.6327538495249954
 -2.8186122826229494 22.7824531798069998 28.6327538495249954
 -11.2744062826229499 22.7824531798069998 28.6327538495249954
 60.5998850166646719 20.3414995914012344 28.6327538495249954
 43.6882970166646629 20.3414995914012344 28.6327538495249954
 40.8696426447046761 20.3414995914012344 28.6327538495249954
 32.4138486447046574 20.3414995914012344 28.6327538495249954
 12.6836908306846716 20.3414995914012344 28.6327538495249954
  1.4093270166646681 20.3414995914012344 28.6327538495249954
 73.2835760369829075 17.9004727736555189 28.6327538495249954
 64.8277820369829101 17.9004727736555189 28.6327538495249954
 62.0092122229629013 17.9004727736555189 28.6327538495249954
 59.1905578510029073 17.9004727736555189 28.6327538495249954
 50.7347638510029029 17.9004727736555189 28.6327538495249954
 47.9161940369829011 17.9004727736555189 28.6327538495249954
 42.2789698510029055 17.9004727736555189 28.6327538495249954
 39.4604000369828896 17.9004727736555189 28.6327538495249954
 36.6418302229629020 17.9004727736555189 28.6327538495249954
 25.3673818510029001 17.9004727736555189 28.6327538495249954
  8.4557938510029000 17.9004727736555189 28.6327538495249954
  5.6372240369829028 17.9004727736555189 28.6327538495249954
 -0.0000001489970986 17.9004727736555189 28.6327538495249954
 -8.4557941489970982 17.9004727736555189 28.6327538495249954
 71.8742911502905173 15.4595191852497500 28.6327538495249954
  8.4558360893370512 22.7824531798069998 28.6327538495249954
 40.8697272839163759 10.5775387790982709 28.6327538495249954
 32.4139332839163785 10.5775387790982709 28.6327538495249954
  4.2278969525916086  5.6956316022867357 28.6327538495249954
  1.4093271385716108  5.6956316022867357 28.6327538495249954
 -1.4093272333883895  5.6956316022867357 28.6327538495249954
 76.1021459729098524  3.2546047845410229 28.6327538495249954
 73.2835761588898578  3.2546047845410229 28.6327538495249954
 70.4650063448698489  3.2546047845410229 28.6327538495249954
 59.1905579729098434  3.2546047845410229 28.6327538495249954
 56.3719881588898417  3.2546047845410229 28.6327538495249954
 53.5534183448698329  3.2546047845410229 28.6327538495249954
 50.7347639729098461  3.2546047845410229 28.6327538495249954
 42.2789699729098274  3.2546047845410229 28.6327538495249954
 28.1860363448698337  3.2546047845410229 28.6327538495249954
 25.3673819729098362  3.2546047845410229 28.6327538495249954
 22.5488121588898416  3.2546047845410229 28.6327538495249954
 11.2744483448698372  3.2546047845410229 28.6327538495249954
  2.8186543448698407  3.2546047845410229 28.6327538495249954
 77.5114309002374711  0.8136511961352557 28.6327538495249954
 52.1440489002374647  0.8136511961352557 28.6327538495249954
 49.3254790862174488  0.8136511961352557 28.6327538495249954
 40.8696850862174585  0.8136511961352557 28.6327538495249954
 29.5953212721974559  0.8136511961352557 28.6327538495249954
 15.5023030862174611  0.8136511961352557 28.6327538495249954
 12.6837332721974576  0.8136511961352557 28.6327538495249954
  7.0464667666116103  5.6956316022867357 28.6327538495249954
 35.2325030979363731 10.5775387790982709 28.6327538495249954
 21.1394849525916122  5.6956316022867357 28.6327538495249954
 40.8696427666115980  5.6956316022867357 28.6327538495249954
 15.5023452839163713 10.5775387790982709 28.6327538495249954
 12.6836909119563703 10.5775387790982709 28.6327538495249954
  1.4093270979363695 10.5775387790982709 28.6327538495249954
 -1.4092427160836287 10.5775387790982709 28.6327538495249954
 70.4649640252639955  8.1365851906925037 28.6327538495249954
 67.6463942112439867  8.1365851906925037 28.6327538495249954
 62.0091700252639910  8.1365851906925037 28.6327538495249954
 50.7348062112439848  8.1365851906925037 28.6327538495249954
 45.0975820252639821  8.1365851906925037 28.6327538495249954
 42.2790122112439946  8.1365851906925037 28.6327538495249954
 33.8232182112439972  8.1365851906925037 28.6327538495249954
 31.0045638392839891  8.1365851906925037 28.6327538495249954
 22.5487698392839881  8.1365851906925037 28.6327538495249954
 11.2744060252639908  8.1365851906925037 28.6327538495249954
  2.8186120252639890  8.1365851906925037 28.6327538495249954
  0.0000422112439907  8.1365851906925037 28.6327538495249954
 -2.8186121607160102  8.1365851906925037 28.6327538495249954
 71.8742489525916284  5.6956316022867357 28.6327538495249954
 69.0556791385716195  5.6956316022867357 28.6327538495249954
 66.2370247666116256  5.6956316022867357 28.6327538495249954
 63.4184549525916097  5.6956316022867357 28.6327538495249954
 60.5998851385716151  5.6956316022867357 28.6327538495249954
 52.1440911385716035  5.6956316022867357 28.6327538495249954
 23.9580547666116068  5.6956316022867357 28.6327538495249954
 15.5023027204966439 44.7512551634787386 28.6327538495249954
 11.2744059033570529 22.7824531798069998 28.6327538495249954
 33.8232180893370540 22.7824531798069998 28.6327538495249954
 42.2790119674301152 37.4283211689214923 28.6327538495249954
 39.4603575954701142 37.4283211689214923 28.6327538495249954
 25.3674239674301170 37.4283211689214923 28.6327538495249954
 22.5487695954701017 37.4283211689214923 28.6327538495249954
 19.7301997814501142 37.4283211689214923 28.6327538495249954
  8.4558359674301080 37.4283211689214923 28.6327538495249954
  5.6371815954701097 37.4283211689214923 28.6327538495249954
  2.8186117814501150 37.4283211689214923 28.6327538495249954
  0.0000419674301133 37.4283211689214923 28.6327538495249954
 -2.8186124045298877 37.4283211689214923 28.6327538495249954
 -16.9115460325698876 37.4283211689214923 28.6327538495249954
 60.5998848947577358 34.9873675805157234 28.6327538495249954
 52.1440908947577384 34.9873675805157234 28.6327538495249954
 49.3254365227977445 34.9873675805157234 28.6327538495249954
 29.5952787087777267 34.9873675805157234 28.6327538495249954
 26.7767088947577392 34.9873675805157234 28.6327538495249954
 23.9580545227977240 34.9873675805157234 28.6327538495249954
 12.6836907087777320 34.9873675805157234 28.6327538495249954
  9.8651208947577302 34.9873675805157234 28.6327538495249954
 -1.4093274772022688 34.9873675805157234 28.6327538495249954
 -9.8651214772022673 34.9873675805157234 28.6327538495249954
 62.0092121010559580 32.5463407627700150 28.6327538495249954
 59.1905577290959641 32.5463407627700150 28.6327538495249954
 50.7348059674301126 37.4283211689214923 28.6327538495249954
 50.7347637290959668 32.5463407627700150 28.6327538495249954
 62.0091697814501188 37.4283211689214923 28.6327538495249954
  1.4093268541224926 39.8692747573272612 28.6327538495249954
  9.8650785345166412 44.7512551634787386 28.6327538495249954
 -4.2278550935233552 44.7512551634787386 28.6327538495249954
 -7.0465094654833562 44.7512551634787386 28.6327538495249954
 -9.8650792795033553 44.7512551634787386 28.6327538495249954
 -15.5023034654833562 44.7512551634787386 28.6327538495249954
 -18.3208732795033562 44.7512551634787386 28.6327538495249954
 56.3719878338042619 42.3103015750729767 28.6327538495249954
 53.5533334618442680 42.3103015750729767 28.6327538495249954
 50.7347636478242734 42.3103015750729767 28.6327538495249954
 42.2789696478242618 42.3103015750729767 28.6327538495249954
 39.4603998338042672 42.3103015750729767 28.6327538495249954
 14.0930178338042680 42.3103015750729767 28.6327538495249954
 -5.6372245381557384 42.3103015750729767 28.6327538495249954
 -8.4557943521757366 42.3103015750729767 28.6327538495249954
 60.5998848541225001 39.8692747573272612 28.6327538495249954
 52.1440908541225028 39.8692747573272612 28.6327538495249954
 49.3255210401024939 39.8692747573272612 28.6327538495249954
 40.8697270401024966 39.8692747573272612 28.6327538495249954
 38.0510726681424956 39.8692747573272612 28.6327538495249954
 35.2325028541224938 39.8692747573272612 28.6327538495249954
 23.9581390401024947 39.8692747573272612 28.6327538495249954
 21.1394846681424795 39.8692747573272612 28.6327538495249954
  4.2278966681424874 39.8692747573272612 28.6327538495249954
 -9.8650369598975125 39.8692747573272612 28.6327538495249954
 22.5487697173770485 22.7824531798069998 28.6327538495249954
 33.8231757290959649 32.5463407627700150 28.6327538495249954
 14.0930179150759578 32.5463407627700150 28.6327538495249954
 16.9115877697311987 27.6644335859584807 28.6327538495249954
 14.0930179557111952 27.6644335859584807 28.6327538495249954
 -0.0000002302687971 27.6644335859584807 28.6327538495249954
 -11.2743640442888005 27.6644335859584807 28.6327538495249954
 -14.0930184162487979 27.6644335859584807 28.6327538495249954
 69.0556789760294407 25.2234067682127652 28.6327538495249954
 60.5998849760294434 25.2234067682127652 28.6327538495249954
 52.1440909760294318 25.2234067682127652 28.6327538495249954
 49.3255211620094371 25.2234067682127652 28.6327538495249954
 43.6882969760294344 25.2234067682127652 28.6327538495249954
 32.4139331620094353 25.2234067682127652 28.6327538495249954
 26.7767089760294326 25.2234067682127652 28.6327538495249954
 23.9581391620094379 25.2234067682127652 28.6327538495249954
 21.1394847900494298 25.2234067682127652 28.6327538495249954
 18.3209149760294281 25.2234067682127652 28.6327538495249954
  9.8651209760294343 25.2234067682127652 28.6327538495249954
  7.0465511620094325 25.2234067682127652 28.6327538495249954
 -4.2278972099505676 25.2234067682127652 28.6327538495249954
 -7.0464670239705693 25.2234067682127652 28.6327538495249954
 -9.8650368379905675 25.2234067682127652 28.6327538495249954
 67.6463940893370506 22.7824531798069998 28.6327538495249954
 53.5533759033570504 22.7824531798069998 28.6327538495249954
 42.2790120893370442 22.7824531798069998 28.6327538495249954
 19.7301575837512004 27.6644335859584807 28.6327538495249954
 31.0046059150759525 32.5463407627700150 28.6327538495249954
 22.5488119557112086 27.6644335859584807 28.6327538495249954
 33.8231757697311934 27.6644335859584807 28.6327538495249954
 11.2744481010559561 32.5463407627700150 28.6327538495249954
  8.4557937290959586 32.5463407627700150 28.6327538495249954
 -0.0000002709040391 32.5463407627700150 28.6327538495249954
 -2.8185700849240374 32.5463407627700150 28.6327538495249954
 -5.6371398989440404 32.5463407627700150 28.6327538495249954
 -11.2743640849240396 32.5463407627700150 28.6327538495249954
 60.5998426564235899 30.1053871743642461 28.6327538495249954
 52.1440486564235925 30.1053871743642461 28.6327538495249954
 49.3254788424035837 30.1053871743642461 28.6327538495249954
 43.6882546564235881 30.1053871743642461 28.6327538495249954
 35.2324606564235907 30.1053871743642461 28.6327538495249954
 32.4138908424035748 30.1053871743642461 28.6327538495249954
 18.3208726564235782 30.1053871743642461 28.6327538495249954
 15.5023028424035783 30.1053871743642461 28.6327538495249954
 12.6837330283835765 30.1053871743642461 28.6327538495249954
  9.8650786564235791 30.1053871743642461 28.6327538495249954
 -1.4092851575964171 30.1053871743642461 28.6327538495249954
 -15.5023033435764184 30.1053871743642461 28.6327538495249954
 67.6463517697312113 27.6644335859584807 28.6327538495249954
 62.0091275837512086 27.6644335859584807 28.6327538495249954
 59.1905577697312140 27.6644335859584807 28.6327538495249954
 47.9161939557112078 27.6644335859584807 28.6327538495249954
 42.2789697697312050 27.6644335859584807 28.6327538495249954
 31.0046059557112059 27.6644335859584807 28.6327538495249954
 42.2789694040103896 71.6020375533019688 28.6327538495249954
