 H  O 
 1.0000000000000000
    84.5579400000000021    0.0000000000000000    0.0000000000000000
   -42.2789706095346958   73.2293399455724767    0.0000000000000000
     0.0000000000000000    0.0000000000000000   46.9039550000000034
 H   O  
 191 361
Cartesian
 -0.0000000135450799  1.6273023922705114 28.1128704123049964
  9.8650784261547866 57.7698207603227232 28.1128704123049964
 -2.8186545886837178 26.0371311936879657 28.1128704123049964
 -1.4092853878652121 57.7698207603227232 28.1128704123049964
 -7.0465095738452108 57.7698207603227232 28.1128704123049964
 -12.6837337598252144 57.7698207603227232 28.1128704123049964
 45.0975395972962758 26.0371311936879657 28.1128704123049964
 47.9161094113162704 26.0371311936879657 28.1128704123049964
 -18.3208733878652161 57.7698207603227232 28.1128704123049964
 -23.9580975738452153 57.7698207603227232 28.1128704123049964
 -26.7766673878652135 57.7698207603227232 28.1128704123049964
 -7.0465093300313377 28.4780847820937346 28.1128704123049964
  7.0465088559486642 28.4780847820937346 28.1128704123049964
 66.2370246176145088 23.5961043759422537 28.1128704123049964
  9.8650786699686659 28.4780847820937346 28.1128704123049964
 33.8231755394623974 55.3288671719169614 28.1128704123049964
 32.4138908559486651 28.4780847820937346 28.1128704123049964
 40.8696848559486625 28.4780847820937346 28.1128704123049964
 19.7301573534824009 55.3288671719169614 28.1128704123049964
 63.4184124839886536 28.4780847820937346 28.1128704123049964
 -14.0930184433389574 30.9190383704995000 28.1128704123049964
 -11.2743640713789581 30.9190383704995000 28.1128704123049964
  5.6372239286210437 30.9190383704995000 28.1128704123049964
  8.4557937426410454 30.9190383704995000 28.1128704123049964
 52.1440907457606357 52.8878403541712458 28.1128704123049964
 22.5488119286210420 30.9190383704995000 28.1128704123049964
 25.3673817426410437 30.9190383704995000 28.1128704123049964
 15.5023028559486651 28.4780847820937346 28.1128704123049964
 38.0510725597806356 52.8878403541712458 28.1128704123049964
 12.6836482401747883 57.7698207603227232 28.1128704123049964
 49.3254366176144998 23.5961043759422537 28.1128704123049964
 -9.8651217074710615 62.6518011664742076 28.1128704123049964
 23.9580546582497540 18.7141971991307194 28.1128704123049964
 35.2324184722697566 18.7141971991307194 28.1128704123049964
 40.8696426582497523 18.7141971991307194 28.1128704123049964
 54.9626608442297453 18.7141971991307194 28.1128704123049964
 14.0930176848071671 60.2107743487284921 28.1128704123049964
 63.4184548442297569 18.7141971991307194 28.1128704123049964
 66.2370246582497515 18.7141971991307194 28.1128704123049964
  2.8186119169021282 21.1551507875364884 28.1128704123049964
 11.2743633128471661 60.2107743487284921 28.1128704123049964
  8.4557515449421317 21.1551507875364884 28.1128704123049964
 -22.5488126871528358 60.2107743487284921 28.1128704123049964
 52.1440909895745008 23.5961043759422537 28.1128704123049964
 25.3673395449421299 21.1551507875364884 28.1128704123049964
 64.8277397309221328 21.1551507875364884 28.1128704123049964
 -31.0046066871528367 60.2107743487284921 28.1128704123049964
 -12.6836911964054888 23.5961043759422537 28.1128704123049964
 -4.2278971964054897 23.5961043759422537 28.1128704123049964
 -1.4093273823854895 23.5961043759422537 28.1128704123049964
 46.5068242401747796 57.7698207603227232 28.1128704123049964
 15.5022606176145086 23.5961043759422537 28.1128704123049964
 -19.7301581932858987 45.5649063596139996 28.1128704123049964
 35.2325029895745132 23.5961043759422537 28.1128704123049964
 40.8696426176145025 23.5961043759422537 28.1128704123049964
 40.8696846121347903 57.7698207603227232 28.1128704123049964
 43.6882969895745106 23.5961043759422537 28.1128704123049964
 -25.3673825011728376 60.2107743487284921 28.1128704123049964
 36.6417455566610357 30.9190383704995000 28.1128704123049964
 32.4138483738006258 52.8878403541712458 28.1128704123049964
 56.3719879286210457 30.9190383704995000 28.1128704123049964
 49.3254364957075708 38.2419723650567462 28.1128704123049964
 -16.9115883386306614 40.6829991828024689 28.1128704123049964
  1.4092422284558699 48.0059331773597151 28.1128704123049964
 -2.8186547105906588 40.6829991828024689 28.1128704123049964
  2.8185694753893440 40.6829991828024689 28.1128704123049964
 -23.9581397715441291 48.0059331773597151 28.1128704123049964
 16.9115876613693388 40.6829991828024689 28.1128704123049964
 22.5487272894093422 40.6829991828024689 28.1128704123049964
 25.3673816613693432 40.6829991828024689 28.1128704123049964
 33.8231756613693406 40.6829991828024689 28.1128704123049964
 56.3719878067141025 45.5649063596139996 28.1128704123049964
 36.6417454753893352 40.6829991828024689 28.1128704123049964
 46.5068666816875762 38.2419723650567462 28.1128704123049964
 39.4603152894093299 40.6829991828024689 28.1128704123049964
 47.9161938067141051 45.5649063596139996 28.1128704123049964
 59.1905576613693398 40.6829991828024689 28.1128704123049964
 -15.5023034519382783 43.1239527712082307 28.1128704123049964
 42.2789696207341024 45.5649063596139996 28.1128704123049964
 28.1859514347540951 45.5649063596139996 28.1128704123049964
 12.6836483620817209 43.1239527712082307 28.1128704123049964
 23.9580967340417281 43.1239527712082307 28.1128704123049964
 16.9115876207341032 45.5649063596139996 28.1128704123049964
 14.0930178067140996 45.5649063596139996 28.1128704123049964
 38.0510303620817112 43.1239527712082307 28.1128704123049964
 52.1440485480617184 43.1239527712082307 28.1128704123049964
 -0.0000003792658964 45.5649063596139996 28.1128704123049964
 50.7347636207340997 45.5649063596139996 28.1128704123049964
 12.6836906004158720 48.0059331773597151 28.1128704123049964
 35.2325028676675771 38.2419723650567462 28.1128704123049964
 32.4138484957075690 38.2419723650567462 28.1128704123049964
 59.1905577426410403 30.9190383704995000 28.1128704123049964
 -18.3209154636571903 33.3600651882452155 28.1128704123049964
 -4.2278972776771910 33.3600651882452155 28.1128704123049964
 -1.4093276261993704 52.8878403541712458 28.1128704123049964
 -9.8651216261993682 52.8878403541712458 28.1128704123049964
  9.8650363503628089 33.3600651882452155 28.1128704123049964
 12.6836907223228135 33.3600651882452155 28.1128704123049964
 -12.6836914402193699 52.8878403541712458 28.1128704123049964
 21.1394847223228126 33.3600651882452155 28.1128704123049964
 -23.9580552542393690 52.8878403541712458 28.1128704123049964
 23.9580545363428143 33.3600651882452155 28.1128704123049964
 43.6882123503628037 33.3600651882452155 28.1128704123049964
 42.2789273011282489 50.4468867657654769 28.1128704123049964
 28.1859936730882552 50.4468867657654769 28.1128704123049964
 22.5487694871082525 50.4468867657654769 28.1128704123049964
 14.0929754871082551 50.4468867657654769 28.1128704123049964
 -2.8186123909848098 35.8010187766509844 28.1128704123049964
  2.8186116730882564 50.4468867657654769 28.1128704123049964
 16.9115454230351894 35.8010187766509844 28.1128704123049964
 -0.0000426988717480 50.4468867657654769 28.1128704123049964
 47.9161516090151949 35.8010187766509844 28.1128704123049964
 -11.2744065128917477 50.4468867657654769 28.1128704123049964
 56.3719456090151922 35.8010187766509844 28.1128704123049964
 -7.0464671323324293 38.2419723650567462 28.1128704123049964
 -4.2278973183124275 38.2419723650567462 28.1128704123049964
 49.3254364144358703 48.0059331773597151 28.1128704123049964
  9.8651208676675761 38.2419723650567462 28.1128704123049964
 -7.0465515277302488 18.7141971991307194 28.1128704123049964
 -7.0465518934510678 62.6518011664742076 28.1128704123049964
 23.9580546176145113 23.5961043759422537 28.1128704123049964
 -11.2743641932859031 45.5649063596139996 28.1128704123049964
 -21.1394855621263069 67.5337083432857384 28.1128704123049964
 -29.5953218817321577 72.4156887494372228 28.1128704123049964
 -35.2325037481063035 67.5337083432857384 28.1128704123049964
 36.6417875511813165 65.0927547548799765 28.1128704123049964
 23.9580547801566937  4.0683292100162243 28.1128704123049964
 -7.0465092081243990 13.8322167929792403 28.1128704123049964
 -36.6418309544045329 69.9747351610314468 28.1128704123049964
 31.0045633652013137 65.0927547548799765 28.1128704123049964
  1.4092847918756004 13.8322167929792403 28.1128704123049964
 15.5023029778556030 13.8322167929792403 28.1128704123049964
 -23.9580976957521585 72.4156887494372228 28.1128704123049964
 18.3208727918756047 13.8322167929792403 28.1128704123049964
  9.8650365941766900  4.0683292100162243 28.1128704123049964
 32.4138909778556012 13.8322167929792403 28.1128704123049964
 -18.3208735097721558 72.4156887494372228 28.1128704123049964
 35.2324607918756030 13.8322167929792403 28.1128704123049964
 78.9207158004749090  1.6273023922705114 28.1128704123049964
 33.8231759051832199 11.3912632045734714 28.1128704123049964
 -15.5022613761463042 67.5337083432857384 28.1128704123049964
 49.3254367801566929  4.0683292100162243 28.1128704123049964
  5.6371395332232206 11.3912632045734714 28.1128704123049964
 59.1905156668490591  6.5092827984219914 28.1128704123049964
 38.0510724378736924 67.5337083432857384 28.1128704123049964
 -25.3673825824445345 69.9747351610314468 28.1128704123049964
  9.8651211114814483  8.9502363868277595 28.1128704123049964
 -22.5488127684245363 69.9747351610314468 28.1128704123049964
 23.9580547395214474  8.9502363868277595 28.1128704123049964
 21.1394844378736906 67.5337083432857384 28.1128704123049964
  2.8186120388090696  6.5092827984219914 28.1128704123049964
 43.6882547918756003 13.8322167929792403 28.1128704123049964
 35.2325031114814493  8.9502363868277595 28.1128704123049964
 54.9626609255014458  8.9502363868277595 28.1128704123049964
 77.5113885941766796  4.0683292100162243 28.1128704123049964
 66.2370247395214449  8.9502363868277595 28.1128704123049964
 -7.0464673761463033 67.5337083432857384 28.1128704123049964
 63.4184549661366859  4.0683292100162243 28.1128704123049964
 42.2789694175554729 69.9747351610314468 28.1128704123049964
 71.8742489255014476  8.9502363868277595 28.1128704123049964
 -9.8651217481063078 67.5337083432857384 28.1128704123049964
  9.8651206238536986 67.5337083432857384 28.1128704123049964
 70.4649218004749116  1.6273023922705114 28.1128704123049964
 15.5022607801566892  4.0683292100162243 28.1128704123049964
 33.8231336668490670  6.5092827984219914 28.1128704123049964
 18.3208723042478390 72.4156887494372228 28.1128704123049964
 -25.3674248207786874 65.0927547548799765 28.1128704123049964
  7.0465084902278479 72.4156887494372228 28.1128704123049964
 28.1859518004749177  1.6273023922705114 28.1128704123049964
 32.4138482925289324 62.6518011664742076 28.1128704123049964
 16.9115878645479825 16.2731703813850075 28.1128704123049964
 -1.4092855097721566 72.4156887494372228 28.1128704123049964
 42.2789699864549249  1.6273023922705114 28.1128704123049964
 49.3254789778556031 13.8322167929792403 28.1128704123049964
 74.6928609778556023 13.8322167929792403 28.1128704123049964
 29.5952784785089271 62.6518011664742076 28.1128704123049964
 -2.8185699494720202 16.2731703813850075 28.1128704123049964
 21.1394421182678336 72.4156887494372228 28.1128704123049964
 45.0975398004749266  1.6273023922705114 28.1128704123049964
 56.3719881724349250  1.6273023922705114 28.1128704123049964
 57.7812729778555934 13.8322167929792403 28.1128704123049964
 31.0046060505279790 16.2731703813850075 28.1128704123049964
  7.0464662925289359 62.6518011664742076 28.1128704123049964
 -12.6837338817321594 72.4156887494372228 28.1128704123049964
 -7.0465096957521522 72.4156887494372228 28.1128704123049964
 12.6836481182678362 72.4156887494372228 28.1128704123049964
 23.9580542925289315 62.6518011664742076 28.1128704123049964
 63.4184126058955968 13.8322167929792403 28.1128704123049964
 25.3673819864549230  1.6273023922705114 28.1128704123049964
  2.8186115511813119 65.0927547548799765 28.1128704123049964
 33.8231758645479843 16.2731703813850075 28.1128704123049964
 -9.8651215991092069 49.6332355696302230 28.6327538495249954
 15.5023027204966439 44.7512551634787386 28.6327538495249954
 -1.4093275991092098 49.6332355696302230 28.6327538495249954
 23.9581387962886225 69.1610107355562462 28.6327538495249954
 21.1394844243286215 69.1610107355562462 28.6327538495249954
 12.6836905868707941 49.6332355696302230 28.6327538495249954
 16.9115874040103833 71.6020375533019688 28.6327538495249954
 -25.3673401544768282 52.0741891580359919 28.6327538495249954
 52.1440907728507952 49.6332355696302230 28.6327538495249954
 49.3254364008908013 49.6332355696302230 28.6327538495249954
 43.6882967728507978 49.6332355696302230 28.6327538495249954
 -35.2324192037113804 69.1610107355562462 28.6327538495249954
 -9.8650792795033553 44.7512551634787386 28.6327538495249954
 19.7301572180303850 71.6020375533019688 28.6327538495249954
 -23.9580553896913813 69.1610107355562462 28.6327538495249954
 26.7767087728507853 49.6332355696302230 28.6327538495249954
 23.9580544008907985 49.6332355696302230 28.6327538495249954
  1.4092845345166412 44.7512551634787386 28.6327538495249954
 -21.1394855756713831 69.1610107355562462 28.6327538495249954
 38.0510724243286234 69.1610107355562462 28.6327538495249954
  9.8651206103086064 69.1610107355562462 28.6327538495249954
 12.6837329064766493 44.7512551634787386 28.6327538495249954
  1.4093267728507877 49.6332355696302230 28.6327538495249954
 40.8697267962886173 69.1610107355562462 28.6327538495249954
 57.7812727204966521 44.7512551634787386 28.6327538495249954
 -23.9580552271492060 49.6332355696302230 28.6327538495249954
 -16.9115885959896168 71.6020375533019688 28.6327538495249954
 -25.3673823928109776 47.1922087518845075 28.6327538495249954
 -8.4557945959896212 71.6020375533019688 28.6327538495249954
 -22.5487280208509766 47.1922087518845075 28.6327538495249954
 52.1440485345166493 44.7512551634787386 28.6327538495249954
 -19.7301582068309784 47.1922087518845075 28.6327538495249954
 -11.2743642068309775 47.1922087518845075 28.6327538495249954
 -5.6372247819696195 71.6020375533019688 28.6327538495249954
 -0.0000003928109814 47.1922087518845075 28.6327538495249954
 -2.8185704100096114 71.6020375533019688 28.6327538495249954
 43.6882545345166520 44.7512551634787386 28.6327538495249954
  2.8186539791490159 47.1922087518845075 28.6327538495249954
 -25.3673825959896213 71.6020375533019688 28.6327538495249954
 -21.1394854131292078 49.6332355696302230 28.6327538495249954
 11.2744479791490271 47.1922087518845075 28.6327538495249954
 40.8696847204966431 44.7512551634787386 28.6327538495249954
 32.4138907204966458 44.7512551634787386 28.6327538495249954
 -31.0046067819696169 71.6020375533019688 28.6327538495249954
 29.5953209064766369 44.7512551634787386 28.6327538495249954
 -39.4604007819696179 71.6020375533019688 28.6327538495249954
 14.0930177931690217 47.1922087518845075 28.6327538495249954
 28.1860359791490147 47.1922087518845075 28.6327538495249954
 45.0976239791490272 47.1922087518845075 28.6327538495249954
 47.9161937931690360 47.1922087518845075 28.6327538495249954
 26.7766665345166501 44.7512551634787386 28.6327538495249954
 50.7347636071890307 47.1922087518845075 28.6327538495249954
 23.9580967204966342 44.7512551634787386 28.6327538495249954
 -26.7767095991092070 49.6332355696302230 28.6327538495249954
 -28.1859524100096195 71.6020375533019688 28.6327538495249954
 43.6882966103086261 69.1610107355562462 28.6327538495249954
  2.8186538572420905 61.8380767409990000 28.6327538495249954
 45.0975815376362448 66.7200571471504844 28.6327538495249954
 -26.7766674014102968 59.3971231525932382 28.6327538495249954
 -1.4093277210161486 64.2791035587447084 28.6327538495249954
  1.4093266509438596 64.2791035587447084 28.6327538495249954
 -32.4138915873902960 59.3971231525932382 28.6327538495249954
 50.7347635259173302 56.9561695641874692 28.6327538495249954
  4.2278964649638544 64.2791035587447084 28.6327538495249954
 47.9161937118973214 56.9561695641874692 28.6327538495249954
 45.0975393399373274 56.9561695641874692 28.6327538495249954
  7.0464662789838490 64.2791035587447084 28.6327538495249954
 42.2789695259173328 56.9561695641874692 28.6327538495249954
 18.3209146509438554 64.2791035587447084 28.6327538495249954
 21.1394844649638500 64.2791035587447084 28.6327538495249954
 23.9580542789838589 64.2791035587447084 28.6327538495249954
 33.8231755259173212 56.9561695641874692 28.6327538495249954
 31.0046057118973302 56.9561695641874692 28.6327538495249954
 14.0930177118973283 56.9561695641874692 28.6327538495249954
 29.5952784649638616 64.2791035587447084 28.6327538495249954
 -23.9580975873902986 59.3971231525932382 28.6327538495249954
 11.2743633399373131 56.9561695641874692 28.6327538495249954
 -15.5022613490561429 64.2791035587447084 28.6327538495249954
 -9.8650794014102949 59.3971231525932382 28.6327538495249954
  8.4557934852820722 61.8380767409990000 28.6327538495249954
 -8.4557945147179190 61.8380767409990000 28.6327538495249954
 11.2744478572420874 61.8380767409990000 28.6327538495249954
 -19.7301583287379145 61.8380767409990000 28.6327538495249954
 -22.5487281427579163 61.8380767409990000 28.6327538495249954
 -28.1859523287379155 61.8380767409990000 28.6327538495249954
 -33.8231765147179146 61.8380767409990000 28.6327538495249954
 49.3254785985897115 59.3971231525932382 28.6327538495249954
 46.5069087845697027 59.3971231525932382 28.6327538495249954
 23.9580965985897052 59.3971231525932382 28.6327538495249954
 21.1395267845696964 59.3971231525932382 28.6327538495249954
 15.5023025985896936 59.3971231525932382 28.6327538495249954
 12.6837327845697061 59.3971231525932382 28.6327538495249954
 47.9161936712620928 61.8380767409990000 28.6327538495249954
 -29.5952795350361448 64.2791035587447084 28.6327538495249954
  9.8650784126096909 59.3971231525932382 28.6327538495249954
 -7.0465095873903012 59.3971231525932382 28.6327538495249954
 -18.3209157210161457 64.2791035587447084 28.6327538495249954
 -0.0000004740826793 56.9561695641874692 28.6327538495249954
 -2.8185702881026811 56.9561695641874692 28.6327538495249954
 -8.4557944740826727 56.9561695641874692 28.6327538495249954
 -9.8650370818044468 54.5151427464417537 28.6327538495249954
 42.2790118455231720 52.0741891580359919 28.6327538495249954
 11.2744055376362251 66.7200571471504844 28.6327538495249954
 39.4603574735631781 52.0741891580359919 28.6327538495249954
 19.7301995376362349 66.7200571471504844 28.6327538495249954
  5.6372236712620847 61.8380767409990000 28.6327538495249954
 22.5487693516562366 66.7200571471504844 28.6327538495249954
 22.5487694735631763 52.0741891580359919 28.6327538495249954
 33.8232177236162386 66.7200571471504844 28.6327538495249954
 19.7301996595431604 52.0741891580359919 28.6327538495249954
 36.6417875376362474 66.7200571471504844 28.6327538495249954
 11.2744056595431719 52.0741891580359919 28.6327538495249954
  8.4558358455231772 52.0741891580359919 28.6327538495249954
  0.0000418455231652 52.0741891580359919 28.6327538495249954
 39.4603573516562420 66.7200571471504844 28.6327538495249954
 42.2790117236162359 66.7200571471504844 28.6327538495249954
 -11.2744065264368292 52.0741891580359919 28.6327538495249954
  2.8186115376362340 66.7200571471504844 28.6327538495249954
 -7.0464672677844442 54.5151427464417537 28.6327538495249954
 -4.2278974537644496 54.5151427464417537 28.6327538495249954
  0.0000417236162395 66.7200571471504844 28.6327538495249954
 -11.2743642881026744 56.9561695641874692 28.6327538495249954
 32.4138482789838704 64.2791035587447084 28.6327538495249954
 35.2325026509438644 64.2791035587447084 28.6327538495249954
 -16.9115884740826736 56.9561695641874692 28.6327538495249954
 -19.7301582881026789 56.9561695641874692 28.6327538495249954
 -25.3673402763837679 66.7200571471504844 28.6327538495249954
 52.1440907322155596 54.5151427464417537 28.6327538495249954
 38.0510725462355595 54.5151427464417537 28.6327538495249954
 -38.0510735756713814 69.1610107355562462 28.6327538495249954
 -16.9115462763837670 66.7200571471504844 28.6327538495249954
 -14.0929764623637634 66.7200571471504844 28.6327538495249954
 32.4139329181955560 54.5151427464417537 28.6327538495249954
 29.5952785462355585 54.5151427464417537 28.6327538495249954
 23.9581389181955480 54.5151427464417537 28.6327538495249954
 21.1394845462355612 54.5151427464417537 28.6327538495249954
 -8.4557522763837714 66.7200571471504844 28.6327538495249954
 18.3209147322155452 54.5151427464417537 28.6327538495249954
  1.4093267322155492 54.5151427464417537 28.6327538495249954
 35.2325027322155506 54.5151427464417537 28.6327538495249954
 33.8232178455231747 52.0741891580359919 28.6327538495249954
 -2.8186124045298877 37.4283211689214923 28.6327538495249954
 -18.3208732795033562 44.7512551634787386 28.6327538495249954
 35.2324607783305126 15.4595191852497500 28.6327538495249954
 32.4138909643105251 15.4595191852497500 28.6327538495249954
 18.3208727783305179 15.4595191852497500 28.6327538495249954
 15.5023029643105232 15.4595191852497500 28.6327538495249954
  1.4092847783305213 15.4595191852497500 28.6327538495249954
 -1.4092850356894804 15.4595191852497500 28.6327538495249954
 -4.2278548497094786 15.4595191852497500 28.6327538495249954
 -7.0465092216694787 15.4595191852497500 28.6327538495249954
 76.1021458916381448 13.0185655968439828 28.6327538495249954
 73.2835760776181360 13.0185655968439828 28.6327538495249954
 64.8277820776181386 13.0185655968439828 28.6327538495249954
 62.0091277056581518 13.0185655968439828 28.6327538495249954
 59.1905578916381430 13.0185655968439828 28.6327538495249954
 47.9161940776181368 13.0185655968439828 28.6327538495249954
 45.0975397056581500 13.0185655968439828 28.6327538495249954
 42.2789698916381340 13.0185655968439828 28.6327538495249954
 33.8231758916381438 13.0185655968439828 28.6327538495249954
 16.9115878916381419 13.0185655968439828 28.6327538495249954
 -5.6372242943418591 13.0185655968439828 28.6327538495249954
 71.8742489119563714 10.5775387790982709 28.6327538495249954
 66.2371092839163680 10.5775387790982709 28.6327538495249954
 63.4184549119563812 10.5775387790982709 28.6327538495249954
 54.9626609119563767 10.5775387790982709 28.6327538495249954
 43.6882547783305313 15.4595191852497500 28.6327538495249954
 46.5069091502905181 15.4595191852497500 28.6327538495249954
 49.3254789643105269 15.4595191852497500 28.6327538495249954
 63.4184971502905270 15.4595191852497500 28.6327538495249954
 -11.2744062826229499 22.7824531798069998 28.6327538495249954
 66.2370246447046753 20.3414995914012344 28.6327538495249954
 63.4184548306846807 20.3414995914012344 28.6327538495249954
 35.2325030166646727 20.3414995914012344 28.6327538495249954
 26.7767090166646753 20.3414995914012344 28.6327538495249954
 23.9580546447046672 20.3414995914012344 28.6327538495249954
 21.1394848306846654 20.3414995914012344 28.6327538495249954
  9.8651210166646699 20.3414995914012344 28.6327538495249954
  7.0464666447046698 20.3414995914012344 28.6327538495249954
  4.2278968306846716 20.3414995914012344 28.6327538495249954
 64.8277820369829101 17.9004727736555189 28.6327538495249954
 43.6882970979363634 10.5775387790982709 28.6327538495249954
 56.3719880369828985 17.9004727736555189 28.6327538495249954
 45.0976242229628923 17.9004727736555189 28.6327538495249954
 42.2789698510029055 17.9004727736555189 28.6327538495249954
 33.8231758510028868 17.9004727736555189 28.6327538495249954
 25.3673818510029001 17.9004727736555189 28.6327538495249954
 22.5488120369828984 17.9004727736555189 28.6327538495249954
 11.2744482229629011 17.9004727736555189 28.6327538495249954
  8.4557938510029000 17.9004727736555189 28.6327538495249954
  5.6372240369829028 17.9004727736555189 28.6327538495249954
 -2.8185699630171004 17.9004727736555189 28.6327538495249954
 -5.6371397770370981 17.9004727736555189 28.6327538495249954
 66.2370669643105288 15.4595191852497500 28.6327538495249954
 53.5534182229629039 17.9004727736555189 28.6327538495249954
 -2.8186122826229494 22.7824531798069998 28.6327538495249954
 35.2325030979363731 10.5775387790982709 28.6327538495249954
 23.9581392839163634 10.5775387790982709 28.6327538495249954
 73.2835761588898578  3.2546047845410229 28.6327538495249954
 62.0092123448698445  3.2546047845410229 28.6327538495249954
 50.7347639729098461  3.2546047845410229 28.6327538495249954
 47.9161941588898301  3.2546047845410229 28.6327538495249954
 45.0976243448698426  3.2546047845410229 28.6327538495249954
 36.6418303448698452  3.2546047845410229 28.6327538495249954
 33.8231759729098371  3.2546047845410229 28.6327538495249954
 25.3673819729098362  3.2546047845410229 28.6327538495249954
 11.2744483448698372  3.2546047845410229 28.6327538495249954
  5.6372241588898389  3.2546047845410229 28.6327538495249954
 71.8742912721974676  0.8136511961352557 28.6327538495249954
 69.0556369002374737  0.8136511961352557 28.6327538495249954
 60.5998429002374621  0.8136511961352557 28.6327538495249954
 57.7812730862174604  0.8136511961352557 28.6327538495249954
 46.5069092721974613  0.8136511961352557 28.6327538495249954
 43.6882549002374461  0.8136511961352557 28.6327538495249954
 40.8696850862174585  0.8136511961352557 28.6327538495249954
 29.5953212721974559  0.8136511961352557 28.6327538495249954
 26.7766669002374584  0.8136511961352557 28.6327538495249954
 23.9580970862174638  0.8136511961352557 28.6327538495249954
 15.5023030862174611  0.8136511961352557 28.6327538495249954
 12.6837332721974576  0.8136511961352557 28.6327538495249954
  9.8650789002374601  0.8136511961352557 28.6327538495249954
 76.1021459729098524  3.2546047845410229 28.6327538495249954
 78.9208003448698463  3.2546047845410229 28.6327538495249954
  1.4093271385716108  5.6956316022867357 28.6327538495249954
  4.2278969525916086  5.6956316022867357 28.6327538495249954
  7.0465512839163686 10.5775387790982709 28.6327538495249954
  4.2278969119563712 10.5775387790982709 28.6327538495249954
 70.4649640252639955  8.1365851906925037 28.6327538495249954
 67.6463942112439867  8.1365851906925037 28.6327538495249954
 59.1906002112439964  8.1365851906925037 28.6327538495249954
 56.3719458392839954  8.1365851906925037 28.6327538495249954
 50.7348062112439848  8.1365851906925037 28.6327538495249954
 36.6417880252639918  8.1365851906925037 28.6327538495249954
 33.8232182112439972  8.1365851906925037 28.6327538495249954
 25.3674242112439856  8.1365851906925037 28.6327538495249954
 19.7302000252639935  8.1365851906925037 28.6327538495249954
 32.4139332839163785 10.5775387790982709 28.6327538495249954
 16.9116302112439918  8.1365851906925037 28.6327538495249954
  8.4558362112439873  8.1365851906925037 28.6327538495249954
  0.0000422112439907  8.1365851906925037 28.6327538495249954
 74.6928187666116230  5.6956316022867357 28.6327538495249954
 71.8742489525916284  5.6956316022867357 28.6327538495249954
 49.3254367666116167  5.6956316022867357 28.6327538495249954
 35.2325031385716159  5.6956316022867357 28.6327538495249954
 32.4138487666116077  5.6956316022867357 28.6327538495249954
 23.9580547666116068  5.6956316022867357 28.6327538495249954
 18.3209151385716105  5.6956316022867357 28.6327538495249954
 15.5022607666116095  5.6956316022867357 28.6327538495249954
  7.0464667666116103  5.6956316022867357 28.6327538495249954
 11.2744060252639908  8.1365851906925037 28.6327538495249954
 -12.6836490935233588 44.7512551634787386 28.6327538495249954
  8.4558360893370512 22.7824531798069998 28.6327538495249954
 16.9116300893370450 22.7824531798069998 28.6327538495249954
 47.9161515954701187 37.4283211689214923 28.6327538495249954
 45.0975817814501099 37.4283211689214923 28.6327538495249954
 31.0045635954701204 37.4283211689214923 28.6327538495249954
 16.9116299674301196 37.4283211689214923 28.6327538495249954
 14.0929755954701115 37.4283211689214923 28.6327538495249954
  0.0000419674301133 37.4283211689214923 28.6327538495249954
 31.0046055899903834 71.6020375533019688 28.6327538495249954
 -5.6371822185498859 37.4283211689214923 28.6327538495249954
 -8.4557520325698885 37.4283211689214923 28.6327538495249954
 -19.7302004045298887 37.4283211689214923 28.6327538495249954
 57.7812305227977419 34.9873675805157234 28.6327538495249954
 52.1440908947577384 34.9873675805157234 28.6327538495249954
 49.3254365227977445 34.9873675805157234 28.6327538495249954
 46.5068667087777357 34.9873675805157234 28.6327538495249954
 23.9580545227977240 34.9873675805157234 28.6327538495249954
 15.5022605227977337 34.9873675805157234 28.6327538495249954
 12.6836907087777320 34.9873675805157234 28.6327538495249954
 -4.2278972912222672 34.9873675805157234 28.6327538495249954
 -15.5022611052422672 34.9873675805157234 28.6327538495249954
 -18.3209154772022664 34.9873675805157234 28.6327538495249954
 64.8277819150759740 32.5463407627700150 28.6327538495249954
 59.1905577290959641 32.5463407627700150 28.6327538495249954
 56.3719879150759695 32.5463407627700150 28.6327538495249954
 50.7348059674301126 37.4283211689214923 28.6327538495249954
 -12.6836913318575100 39.8692747573272612 28.6327538495249954
 -4.2278973318575099 39.8692747573272612 28.6327538495249954
 -1.4092429598975091 39.8692747573272612 28.6327538495249954
 -21.1394430935233544 44.7512551634787386 28.6327538495249954
 -23.9580974654833554 44.7512551634787386 28.6327538495249954
 42.2789696478242618 42.3103015750729767 28.6327538495249954
 39.4603998338042672 42.3103015750729767 28.6327538495249954
 36.6417454618442662 42.3103015750729767 28.6327538495249954
 28.1859514618442688 42.3103015750729767 28.6327538495249954
 25.3673816478242529 42.3103015750729767 28.6327538495249954
 22.5488118338042653 42.3103015750729767 28.6327538495249954
 14.0930178338042680 42.3103015750729767 28.6327538495249954
 11.2743634618442599 42.3103015750729767 28.6327538495249954
  2.8185694618442589 42.3103015750729767 28.6327538495249954
 53.5534181010559607 32.5463407627700150 28.6327538495249954
 -0.0000003521757358 42.3103015750729767 28.6327538495249954
 -14.0930185381557376 42.3103015750729767 28.6327538495249954
 -16.9115883521757375 42.3103015750729767 28.6327538495249954
 57.7813150401024913 39.8692747573272612 28.6327538495249954
 49.3255210401024939 39.8692747573272612 28.6327538495249954
 38.0510726681424956 39.8692747573272612 28.6327538495249954
 35.2325028541224938 39.8692747573272612 28.6327538495249954
 32.4139330401024850 39.8692747573272612 28.6327538495249954
 21.1394846681424795 39.8692747573272612 28.6327538495249954
 15.5023450401024956 39.8692747573272612 28.6327538495249954
  4.2278966681424874 39.8692747573272612 28.6327538495249954
  1.4093268541224926 39.8692747573272612 28.6327538495249954
 -11.2743641661957401 42.3103015750729767 28.6327538495249954
 14.0929757173770476 22.7824531798069998 28.6327538495249954
 42.2789697290959623 32.5463407627700150 28.6327538495249954
 33.8231757290959649 32.5463407627700150 28.6327538495249954
  8.4557937697312031 27.6644335859584807 28.6327538495249954
 -2.8185700442888009 27.6644335859584807 28.6327538495249954
 -5.6372244162487979 27.6644335859584807 28.6327538495249954
 -8.4557942302688005 27.6644335859584807 28.6327538495249954
 -11.2743640442888005 27.6644335859584807 28.6327538495249954
 57.7813151620094345 25.2234067682127652 28.6327538495249954
 49.3255211620094371 25.2234067682127652 28.6327538495249954
 46.5068667900494361 25.2234067682127652 28.6327538495249954
 43.6882969760294344 25.2234067682127652 28.6327538495249954
 35.2325029760294228 25.2234067682127652 28.6327538495249954
 23.9581391620094379 25.2234067682127652 28.6327538495249954
 12.6836907900494289 25.2234067682127652 28.6327538495249954
  9.8651209760294343 25.2234067682127652 28.6327538495249954
 -1.4092428379905699 25.2234067682127652 28.6327538495249954
 -12.6836912099505668 25.2234067682127652 28.6327538495249954
 70.4649639033570594 22.7824531798069998 28.6327538495249954
 67.6463940893370506 22.7824531798069998 28.6327538495249954
 64.8277397173770566 22.7824531798069998 28.6327538495249954
 56.3719457173770593 22.7824531798069998 28.6327538495249954
 53.5533759033570504 22.7824531798069998 28.6327538495249954
 50.7348060893370558 22.7824531798069998 28.6327538495249954
 42.2790120893370442 22.7824531798069998 28.6327538495249954
 25.3674240893370566 22.7824531798069998 28.6327538495249954
 31.0046059557112059 27.6644335859584807 28.6327538495249954
 33.8231757697311934 27.6644335859584807 28.6327538495249954
 36.6417455837512094 27.6644335859584807 28.6327538495249954
 42.2789697697312050 27.6644335859584807 28.6327538495249954
 25.3673817290959498 32.5463407627700150 28.6327538495249954
 22.5488119150759623 32.5463407627700150 28.6327538495249954
 14.0930179150759578 32.5463407627700150 28.6327538495249954
 11.2744481010559561 32.5463407627700150 28.6327538495249954
  8.4557937290959586 32.5463407627700150 28.6327538495249954
  2.8186541010559618 32.5463407627700150 28.6327538495249954
 -0.0000002709040391 32.5463407627700150 28.6327538495249954
 -14.0929338989440378 32.5463407627700150 28.6327538495249954
 -16.9115882709040370 32.5463407627700150 28.6327538495249954
 63.4184970283835838 30.1053871743642461 28.6327538495249954
 57.7812728424035953 30.1053871743642461 28.6327538495249954
 36.6418301010559517 32.5463407627700150 28.6327538495249954
 38.0511150283835775 30.1053871743642461 28.6327538495249954
 32.4138908424035748 30.1053871743642461 28.6327538495249954
 23.9580968424035810 30.1053871743642461 28.6327538495249954
 21.1395270283835863 30.1053871743642461 28.6327538495249954
  9.8650786564235791 30.1053871743642461 28.6327538495249954
  7.0465088424035836 30.1053871743642461 28.6327538495249954
  4.2279390283835818 30.1053871743642461 28.6327538495249954
 -9.8650791575964192 30.1053871743642461 28.6327538495249954
 -12.6836489716164174 30.1053871743642461 28.6327538495249954
 59.1905577697312140 27.6644335859584807 28.6327538495249954
 56.3719879557112051 27.6644335859584807 28.6327538495249954
 45.0975395837512067 27.6644335859584807 28.6327538495249954
 35.2324606564235907 30.1053871743642461 28.6327538495249954
 42.2789694040103896 71.6020375533019688 28.6327538495249954
